p cnf 12802 44965
-2 3 0
2 -3 0
-3 2 0
3 -2 0
-5 13 0
5 -13 0
-6 15 0
6 -15 0
-7 14 0
7 -14 0
-8 16 0
8 -16 0
-10 11 0
10 -11 0
-11 10 0
11 -10 0
-13 5 0
13 -5 0
-14 7 0
14 -7 0
-15 6 0
15 -6 0
-16 8 0
16 -8 0
-18 20 0
18 -20 0
-20 18 0
20 -18 0
-21 25 0
21 -25 0
-22 28 0
22 -28 0
-23 27 0
23 -27 0
-24 26 0
24 -26 0
-25 21 0
25 -21 0
-26 24 0
26 -24 0
-27 23 0
27 -23 0
-28 22 0
28 -22 0
-30 32 0
30 -32 0
-32 30 0
32 -30 0
-34 36 0
34 -36 0
-36 34 0
36 -34 0
-37 45 0
37 -45 0
-38 48 0
38 -48 0
-39 47 0
39 -47 0
-40 46 0
40 -46 0
-42 44 0
42 -44 0
-44 42 0
44 -42 0
-45 37 0
45 -37 0
-46 40 0
46 -40 0
-47 39 0
47 -39 0
-48 38 0
48 -38 0
1 2 3 4 5 6 7 8 9 10 11 12 13 14 15 16 0
17 18 19 20 21 22 23 24 25 26 27 28 29 30 31 32 0
33 34 35 36 37 38 39 40 41 42 43 44 45 46 47 48 0
-49 51 0
49 -51 0
-50 49 0
50 -49 0
-51 50 0
51 -50 0
-53 63 0
53 -63 0
-54 61 0
54 -61 0
-55 62 0
55 -62 0
-56 64 0
56 -64 0
-57 55 0
57 -55 0
-58 53 0
58 -53 0
-59 54 0
59 -54 0
-60 56 0
60 -56 0
-61 59 0
61 -59 0
-62 57 0
62 -57 0
-63 58 0
63 -58 0
-64 60 0
64 -60 0
-65 73 0
65 -73 0
-66 76 0
66 -76 0
-67 74 0
67 -74 0
-68 75 0
68 -75 0
-69 65 0
69 -65 0
-70 68 0
70 -68 0
-71 66 0
71 -66 0
-72 67 0
72 -67 0
-73 69 0
73 -69 0
-74 72 0
74 -72 0
-75 70 0
75 -70 0
-76 71 0
76 -71 0
-78 80 0
78 -80 0
-79 78 0
79 -78 0
-80 79 0
80 -79 0
-82 84 0
82 -84 0
-83 82 0
83 -82 0
-84 83 0
84 -83 0
-85 93 0
85 -93 0
-86 96 0
86 -96 0
-87 94 0
87 -94 0
-88 95 0
88 -95 0
-89 85 0
89 -85 0
-90 88 0
90 -88 0
-91 86 0
91 -86 0
-92 87 0
92 -87 0
-93 89 0
93 -89 0
-94 92 0
94 -92 0
-95 90 0
95 -90 0
-96 91 0
96 -91 0
-49 50 0
49 -50 0
-50 51 0
50 -51 0
-51 49 0
51 -49 0
-53 58 0
53 -58 0
-54 59 0
54 -59 0
-55 57 0
55 -57 0
-56 60 0
56 -60 0
-57 62 0
57 -62 0
-58 63 0
58 -63 0
-59 61 0
59 -61 0
-60 64 0
60 -64 0
-61 54 0
61 -54 0
-62 55 0
62 -55 0
-63 53 0
63 -53 0
-64 56 0
64 -56 0
-65 69 0
65 -69 0
-66 71 0
66 -71 0
-67 72 0
67 -72 0
-68 70 0
68 -70 0
-69 73 0
69 -73 0
-70 75 0
70 -75 0
-71 76 0
71 -76 0
-72 74 0
72 -74 0
-73 65 0
73 -65 0
-74 67 0
74 -67 0
-75 68 0
75 -68 0
-76 66 0
76 -66 0
-78 79 0
78 -79 0
-79 80 0
79 -80 0
-80 78 0
80 -78 0
-82 83 0
82 -83 0
-83 84 0
83 -84 0
-84 82 0
84 -82 0
-85 89 0
85 -89 0
-86 91 0
86 -91 0
-87 92 0
87 -92 0
-88 90 0
88 -90 0
-89 93 0
89 -93 0
-90 95 0
90 -95 0
-91 96 0
91 -96 0
-92 94 0
92 -94 0
-93 85 0
93 -85 0
-94 87 0
94 -87 0
-95 88 0
95 -88 0
-96 86 0
96 -86 0
49 50 51 52 53 54 55 56 57 58 59 60 61 62 63 64 0
65 66 67 68 69 70 71 72 73 74 75 76 77 78 79 80 0
81 82 83 84 85 86 87 88 89 90 91 92 93 94 95 96 0
-97 99 0
97 -99 0
-98 97 0
98 -97 0
-99 98 0
99 -98 0
-101 111 0
101 -111 0
-102 109 0
102 -109 0
-103 110 0
103 -110 0
-104 112 0
104 -112 0
-105 103 0
105 -103 0
-106 101 0
106 -101 0
-107 102 0
107 -102 0
-108 104 0
108 -104 0
-109 107 0
109 -107 0
-110 105 0
110 -105 0
-111 106 0
111 -106 0
-112 108 0
112 -108 0
-113 121 0
113 -121 0
-114 124 0
114 -124 0
-115 122 0
115 -122 0
-116 123 0
116 -123 0
-117 113 0
117 -113 0
-118 116 0
118 -116 0
-119 114 0
119 -114 0
-120 115 0
120 -115 0
-121 117 0
121 -117 0
-122 120 0
122 -120 0
-123 118 0
123 -118 0
-124 119 0
124 -119 0
-126 128 0
126 -128 0
-127 126 0
127 -126 0
-128 127 0
128 -127 0
-130 132 0
130 -132 0
-131 130 0
131 -130 0
-132 131 0
132 -131 0
-133 141 0
133 -141 0
-134 144 0
134 -144 0
-135 142 0
135 -142 0
-136 143 0
136 -143 0
-137 133 0
137 -133 0
-138 136 0
138 -136 0
-139 134 0
139 -134 0
-140 135 0
140 -135 0
-141 137 0
141 -137 0
-142 140 0
142 -140 0
-143 138 0
143 -138 0
-144 139 0
144 -139 0
-97 98 0
97 -98 0
-98 99 0
98 -99 0
-99 97 0
99 -97 0
-101 106 0
101 -106 0
-102 107 0
102 -107 0
-103 105 0
103 -105 0
-104 108 0
104 -108 0
-105 110 0
105 -110 0
-106 111 0
106 -111 0
-107 109 0
107 -109 0
-108 112 0
108 -112 0
-109 102 0
109 -102 0
-110 103 0
110 -103 0
-111 101 0
111 -101 0
-112 104 0
112 -104 0
-113 117 0
113 -117 0
-114 119 0
114 -119 0
-115 120 0
115 -120 0
-116 118 0
116 -118 0
-117 121 0
117 -121 0
-118 123 0
118 -123 0
-119 124 0
119 -124 0
-120 122 0
120 -122 0
-121 113 0
121 -113 0
-122 115 0
122 -115 0
-123 116 0
123 -116 0
-124 114 0
124 -114 0
-126 127 0
126 -127 0
-127 128 0
127 -128 0
-128 126 0
128 -126 0
-130 131 0
130 -131 0
-131 132 0
131 -132 0
-132 130 0
132 -130 0
-133 137 0
133 -137 0
-134 139 0
134 -139 0
-135 140 0
135 -140 0
-136 138 0
136 -138 0
-137 141 0
137 -141 0
-138 143 0
138 -143 0
-139 144 0
139 -144 0
-140 142 0
140 -142 0
-141 133 0
141 -133 0
-142 135 0
142 -135 0
-143 136 0
143 -136 0
-144 134 0
144 -134 0
97 98 99 100 101 102 103 104 105 106 107 108 109 110 111 112 0
113 114 115 116 117 118 119 120 121 122 123 124 125 126 127 128 0
129 130 131 132 133 134 135 136 137 138 139 140 141 142 143 144 0
-145 161 0
145 -161 0
-146 169 0
146 -169 0
-147 165 0
147 -165 0
-148 173 0
148 -173 0
-149 164 0
149 -164 0
-150 172 0
150 -172 0
-151 168 0
151 -168 0
-152 176 0
152 -176 0
-153 163 0
153 -163 0
-154 171 0
154 -171 0
-155 167 0
155 -167 0
-156 175 0
156 -175 0
-157 162 0
157 -162 0
-158 170 0
158 -170 0
-159 166 0
159 -166 0
-160 174 0
160 -174 0
-161 145 0
161 -145 0
-162 157 0
162 -157 0
-163 153 0
163 -153 0
-164 149 0
164 -149 0
-165 147 0
165 -147 0
-166 159 0
166 -159 0
-167 155 0
167 -155 0
-168 151 0
168 -151 0
-169 146 0
169 -146 0
-170 158 0
170 -158 0
-171 154 0
171 -154 0
-172 150 0
172 -150 0
-173 148 0
173 -148 0
-174 160 0
174 -160 0
-175 156 0
175 -156 0
-176 152 0
176 -152 0
-178 189 0
178 -189 0
-179 185 0
179 -185 0
-180 181 0
180 -181 0
-181 180 0
181 -180 0
-182 192 0
182 -192 0
-183 188 0
183 -188 0
-185 179 0
185 -179 0
-186 191 0
186 -191 0
-188 183 0
188 -183 0
-189 178 0
189 -178 0
-191 186 0
191 -186 0
-192 182 0
192 -182 0
-145 161 0
145 -161 0
-146 165 0
146 -165 0
-147 169 0
147 -169 0
-148 173 0
148 -173 0
-149 162 0
149 -162 0
-150 166 0
150 -166 0
-151 170 0
151 -170 0
-152 174 0
152 -174 0
-153 163 0
153 -163 0
-154 167 0
154 -167 0
-155 171 0
155 -171 0
-156 175 0
156 -175 0
-157 164 0
157 -164 0
-158 168 0
158 -168 0
-159 172 0
159 -172 0
-160 176 0
160 -176 0
-161 145 0
161 -145 0
-162 149 0
162 -149 0
-163 153 0
163 -153 0
-164 157 0
164 -157 0
-165 146 0
165 -146 0
-166 150 0
166 -150 0
-167 154 0
167 -154 0
-168 158 0
168 -158 0
-169 147 0
169 -147 0
-170 151 0
170 -151 0
-171 155 0
171 -155 0
-172 159 0
172 -159 0
-173 148 0
173 -148 0
-174 152 0
174 -152 0
-175 156 0
175 -156 0
-176 160 0
176 -160 0
-178 181 0
178 -181 0
-179 185 0
179 -185 0
-180 189 0
180 -189 0
-181 178 0
181 -178 0
-183 186 0
183 -186 0
-184 190 0
184 -190 0
-185 179 0
185 -179 0
-186 183 0
186 -183 0
-188 191 0
188 -191 0
-189 180 0
189 -180 0
-190 184 0
190 -184 0
-191 188 0
191 -188 0
-146 147 0
146 -147 0
-147 146 0
147 -146 0
-149 157 0
149 -157 0
-150 159 0
150 -159 0
-151 158 0
151 -158 0
-152 160 0
152 -160 0
-154 155 0
154 -155 0
-155 154 0
155 -154 0
-157 149 0
157 -149 0
-158 151 0
158 -151 0
-159 150 0
159 -150 0
-160 152 0
160 -152 0
-162 164 0
162 -164 0
-164 162 0
164 -162 0
-165 169 0
165 -169 0
-166 172 0
166 -172 0
-167 171 0
167 -171 0
-168 170 0
168 -170 0
-169 165 0
169 -165 0
-170 168 0
170 -168 0
-171 167 0
171 -167 0
-172 166 0
172 -166 0
-174 176 0
174 -176 0
-176 174 0
176 -174 0
-178 180 0
178 -180 0
-180 178 0
180 -178 0
-181 189 0
181 -189 0
-182 192 0
182 -192 0
-183 191 0
183 -191 0
-184 190 0
184 -190 0
-186 188 0
186 -188 0
-188 186 0
188 -186 0
-189 181 0
189 -181 0
-190 184 0
190 -184 0
-191 183 0
191 -183 0
-192 182 0
192 -182 0
145 146 147 148 149 150 151 152 153 154 155 156 157 158 159 160 0
161 162 163 164 165 166 167 168 169 170 171 172 173 174 175 176 0
177 178 179 180 181 182 183 184 185 186 187 188 189 190 191 192 0
-193 1 0
-193 17 0
193 -1 -17 0
-194 193 0
-194 33 0
194 -193 -33 0
-195 2 0
-195 21 0
195 -2 -21 0
-196 195 0
-196 33 0
196 -195 -33 0
-197 49 0
-197 65 0
197 -49 -65 0
-198 197 0
-198 81 0
198 -197 -81 0
-199 97 0
-199 113 0
199 -97 -113 0
-200 199 0
-200 129 0
200 -199 -129 0
-201 145 0
-201 161 0
201 -145 -161 0
-202 201 0
-202 177 0
202 -201 -177 0
-203 146 0
-203 165 0
203 -146 -165 0
-204 203 0
-204 177 0
204 -203 -177 0
-205 194 196 0
-205 -194 -196 0
205 -194 196 0
205 194 -196 0
-206 205 196 0
-206 -205 -196 0
206 -205 196 0
206 205 -196 0
-207 206 194 0
-207 -206 -194 0
207 -206 194 0
207 206 -194 0
-208 207 196 0
-208 -207 -196 0
208 -207 196 0
208 207 -196 0
-209 208 196 0
-209 -208 -196 0
209 -208 196 0
209 208 -196 0
-210 209 198 0
-210 -209 -198 0
210 -209 198 0
210 209 -198 0
-211 210 198 0
-211 -210 -198 0
211 -210 198 0
211 210 -198 0
-212 211 198 0
-212 -211 -198 0
212 -211 198 0
212 211 -198 0
-213 212 198 0
-213 -212 -198 0
213 -212 198 0
213 212 -198 0
-214 213 200 0
-214 -213 -200 0
214 -213 200 0
214 213 -200 0
-215 214 200 0
-215 -214 -200 0
215 -214 200 0
215 214 -200 0
-216 215 200 0
-216 -215 -200 0
216 -215 200 0
216 215 -200 0
-217 216 200 0
-217 -216 -200 0
217 -216 200 0
217 216 -200 0
-218 217 202 0
-218 -217 -202 0
218 -217 202 0
218 217 -202 0
-219 218 204 0
-219 -218 -204 0
219 -218 204 0
219 218 -204 0
-220 219 204 0
-220 -219 -204 0
220 -219 204 0
220 219 -204 0
-220 0
-221 193 0
-221 34 0
221 -193 -34 0
-222 195 0
-222 34 0
222 -195 -34 0
-223 195 0
-223 35 0
223 -195 -35 0
-224 193 0
-224 37 0
224 -193 -37 0
-225 195 0
-225 37 0
225 -195 -37 0
-226 195 0
-226 41 0
226 -195 -41 0
-227 197 0
-227 82 0
227 -197 -82 0
-228 197 0
-228 84 0
228 -197 -84 0
-229 197 0
-229 85 0
229 -197 -85 0
-230 197 0
-230 93 0
230 -197 -93 0
-231 199 0
-231 130 0
231 -199 -130 0
-232 199 0
-232 132 0
232 -199 -132 0
-233 199 0
-233 133 0
233 -199 -133 0
-234 199 0
-234 141 0
234 -199 -141 0
-235 201 0
-235 178 0
235 -201 -178 0
-236 203 0
-236 178 0
236 -203 -178 0
-237 203 0
-237 179 0
237 -203 -179 0
-238 221 222 0
-238 -221 -222 0
238 -221 222 0
238 221 -222 0
-239 238 223 0
-239 -238 -223 0
239 -238 223 0
239 238 -223 0
-240 239 224 0
-240 -239 -224 0
240 -239 224 0
240 239 -224 0
-241 240 225 0
-241 -240 -225 0
241 -240 225 0
241 240 -225 0
-242 241 226 0
-242 -241 -226 0
242 -241 226 0
242 241 -226 0
-243 242 227 0
-243 -242 -227 0
243 -242 227 0
243 242 -227 0
-244 243 228 0
-244 -243 -228 0
244 -243 228 0
244 243 -228 0
-245 244 229 0
-245 -244 -229 0
245 -244 229 0
245 244 -229 0
-246 245 230 0
-246 -245 -230 0
246 -245 230 0
246 245 -230 0
-247 246 231 0
-247 -246 -231 0
247 -246 231 0
247 246 -231 0
-248 247 232 0
-248 -247 -232 0
248 -247 232 0
248 247 -232 0
-249 248 233 0
-249 -248 -233 0
249 -248 233 0
249 248 -233 0
-250 249 234 0
-250 -249 -234 0
250 -249 234 0
250 249 -234 0
-251 250 235 0
-251 -250 -235 0
251 -250 235 0
251 250 -235 0
-252 251 236 0
-252 -251 -236 0
252 -251 236 0
252 251 -236 0
-253 252 237 0
-253 -252 -237 0
253 -252 237 0
253 252 -237 0
-253 0
-254 193 0
-254 35 0
254 -193 -35 0
-255 195 0
-255 36 0
255 -195 -36 0
-256 193 0
-256 41 0
256 -193 -41 0
-257 195 0
-257 45 0
257 -195 -45 0
-258 197 0
-258 83 0
258 -197 -83 0
-259 197 0
-259 89 0
259 -197 -89 0
-260 199 0
-260 131 0
260 -199 -131 0
-261 199 0
-261 137 0
261 -199 -137 0
-262 201 0
-262 179 0
262 -201 -179 0
-263 203 0
-263 180 0
263 -203 -180 0
-264 254 255 0
-264 -254 -255 0
264 -254 255 0
264 254 -255 0
-265 264 255 0
-265 -264 -255 0
265 -264 255 0
265 264 -255 0
-266 265 256 0
-266 -265 -256 0
266 -265 256 0
266 265 -256 0
-267 266 257 0
-267 -266 -257 0
267 -266 257 0
267 266 -257 0
-268 267 257 0
-268 -267 -257 0
268 -267 257 0
268 267 -257 0
-269 268 258 0
-269 -268 -258 0
269 -268 258 0
269 268 -258 0
-270 269 258 0
-270 -269 -258 0
270 -269 258 0
270 269 -258 0
-271 270 259 0
-271 -270 -259 0
271 -270 259 0
271 270 -259 0
-272 271 259 0
-272 -271 -259 0
272 -271 259 0
272 271 -259 0
-273 272 260 0
-273 -272 -260 0
273 -272 260 0
273 272 -260 0
-274 273 260 0
-274 -273 -260 0
274 -273 260 0
274 273 -260 0
-275 274 261 0
-275 -274 -261 0
275 -274 261 0
275 274 -261 0
-276 275 261 0
-276 -275 -261 0
276 -275 261 0
276 275 -261 0
-277 276 262 0
-277 -276 -262 0
277 -276 262 0
277 276 -262 0
-278 277 263 0
-278 -277 -263 0
278 -277 263 0
278 277 -263 0
-279 278 263 0
-279 -278 -263 0
279 -278 263 0
279 278 -263 0
-279 0
-280 193 0
-280 38 0
280 -193 -38 0
-281 195 0
-281 38 0
281 -195 -38 0
-282 195 0
-282 43 0
282 -195 -43 0
-283 197 0
-283 86 0
283 -197 -86 0
-284 197 0
-284 96 0
284 -197 -96 0
-285 199 0
-285 134 0
285 -199 -134 0
-286 199 0
-286 144 0
286 -199 -144 0
-287 201 0
-287 182 0
287 -201 -182 0
-288 203 0
-288 182 0
288 -203 -182 0
-289 203 0
-289 187 0
289 -203 -187 0
-290 280 281 0
-290 -280 -281 0
290 -280 281 0
290 280 -281 0
-291 290 282 0
-291 -290 -282 0
291 -290 282 0
291 290 -282 0
-292 291 280 0
-292 -291 -280 0
292 -291 280 0
292 291 -280 0
-293 292 281 0
-293 -292 -281 0
293 -292 281 0
293 292 -281 0
-294 293 282 0
-294 -293 -282 0
294 -293 282 0
294 293 -282 0
-295 294 283 0
-295 -294 -283 0
295 -294 283 0
295 294 -283 0
-296 295 284 0
-296 -295 -284 0
296 -295 284 0
296 295 -284 0
-297 296 283 0
-297 -296 -283 0
297 -296 283 0
297 296 -283 0
-298 297 284 0
-298 -297 -284 0
298 -297 284 0
298 297 -284 0
-299 298 285 0
-299 -298 -285 0
299 -298 285 0
299 298 -285 0
-300 299 286 0
-300 -299 -286 0
300 -299 286 0
300 299 -286 0
-301 300 285 0
-301 -300 -285 0
301 -300 285 0
301 300 -285 0
-302 301 286 0
-302 -301 -286 0
302 -301 286 0
302 301 -286 0
-303 302 287 0
-303 -302 -287 0
303 -302 287 0
303 302 -287 0
-304 303 288 0
-304 -303 -288 0
304 -303 288 0
304 303 -288 0
-305 304 289 0
-305 -304 -289 0
305 -304 289 0
305 304 -289 0
-305 0
-306 193 0
-306 39 0
306 -193 -39 0
-307 195 0
-307 40 0
307 -195 -40 0
-308 195 0
-308 44 0
308 -195 -44 0
-309 193 0
-309 42 0
309 -193 -42 0
-310 195 0
-310 46 0
310 -195 -46 0
-311 195 0
-311 47 0
311 -195 -47 0
-312 197 0
-312 87 0
312 -197 -87 0
-313 197 0
-313 95 0
313 -197 -95 0
-314 197 0
-314 90 0
314 -197 -90 0
-315 197 0
-315 92 0
315 -197 -92 0
-316 199 0
-316 135 0
316 -199 -135 0
-317 199 0
-317 143 0
317 -199 -143 0
-318 199 0
-318 138 0
318 -199 -138 0
-319 199 0
-319 140 0
319 -199 -140 0
-320 201 0
-320 183 0
320 -201 -183 0
-321 203 0
-321 184 0
321 -203 -184 0
-322 203 0
-322 188 0
322 -203 -188 0
-323 306 307 0
-323 -306 -307 0
323 -306 307 0
323 306 -307 0
-324 323 308 0
-324 -323 -308 0
324 -323 308 0
324 323 -308 0
-325 324 309 0
-325 -324 -309 0
325 -324 309 0
325 324 -309 0
-326 325 310 0
-326 -325 -310 0
326 -325 310 0
326 325 -310 0
-327 326 311 0
-327 -326 -311 0
327 -326 311 0
327 326 -311 0
-328 327 312 0
-328 -327 -312 0
328 -327 312 0
328 327 -312 0
-329 328 313 0
-329 -328 -313 0
329 -328 313 0
329 328 -313 0
-330 329 314 0
-330 -329 -314 0
330 -329 314 0
330 329 -314 0
-331 330 315 0
-331 -330 -315 0
331 -330 315 0
331 330 -315 0
-332 331 316 0
-332 -331 -316 0
332 -331 316 0
332 331 -316 0
-333 332 317 0
-333 -332 -317 0
333 -332 317 0
333 332 -317 0
-334 333 318 0
-334 -333 -318 0
334 -333 318 0
334 333 -318 0
-335 334 319 0
-335 -334 -319 0
335 -334 319 0
335 334 -319 0
-336 335 320 0
-336 -335 -320 0
336 -335 320 0
336 335 -320 0
-337 336 321 0
-337 -336 -321 0
337 -336 321 0
337 336 -321 0
-338 337 322 0
-338 -337 -322 0
338 -337 322 0
338 337 -322 0
-338 0
-339 193 0
-339 40 0
339 -193 -40 0
-340 195 0
-340 39 0
340 -195 -39 0
-341 195 0
-341 42 0
341 -195 -42 0
-342 193 0
-342 46 0
342 -193 -46 0
-343 197 0
-343 88 0
343 -197 -88 0
-344 197 0
-344 94 0
344 -197 -94 0
-345 199 0
-345 136 0
345 -199 -136 0
-346 199 0
-346 142 0
346 -199 -142 0
-347 201 0
-347 184 0
347 -201 -184 0
-348 203 0
-348 183 0
348 -203 -183 0
-349 203 0
-349 186 0
349 -203 -186 0
-350 339 340 0
-350 -339 -340 0
350 -339 340 0
350 339 -340 0
-351 350 341 0
-351 -350 -341 0
351 -350 341 0
351 350 -341 0
-352 351 342 0
-352 -351 -342 0
352 -351 342 0
352 351 -342 0
-353 352 341 0
-353 -352 -341 0
353 -352 341 0
353 352 -341 0
-354 353 340 0
-354 -353 -340 0
354 -353 340 0
354 353 -340 0
-355 354 343 0
-355 -354 -343 0
355 -354 343 0
355 354 -343 0
-356 355 344 0
-356 -355 -344 0
356 -355 344 0
356 355 -344 0
-357 356 344 0
-357 -356 -344 0
357 -356 344 0
357 356 -344 0
-358 357 343 0
-358 -357 -343 0
358 -357 343 0
358 357 -343 0
-359 358 345 0
-359 -358 -345 0
359 -358 345 0
359 358 -345 0
-360 359 346 0
-360 -359 -346 0
360 -359 346 0
360 359 -346 0
-361 360 346 0
-361 -360 -346 0
361 -360 346 0
361 360 -346 0
-362 361 345 0
-362 -361 -345 0
362 -361 345 0
362 361 -345 0
-363 362 347 0
-363 -362 -347 0
363 -362 347 0
363 362 -347 0
-364 363 348 0
-364 -363 -348 0
364 -363 348 0
364 363 -348 0
-365 364 349 0
-365 -364 -349 0
365 -364 349 0
365 364 -349 0
-365 0
-366 193 0
-366 43 0
366 -193 -43 0
-367 195 0
-367 48 0
367 -195 -48 0
-368 197 0
-368 91 0
368 -197 -91 0
-369 199 0
-369 139 0
369 -199 -139 0
-370 201 0
-370 187 0
370 -201 -187 0
-371 203 0
-371 192 0
371 -203 -192 0
-372 366 367 0
-372 -366 -367 0
372 -366 367 0
372 366 -367 0
-373 372 367 0
-373 -372 -367 0
373 -372 367 0
373 372 -367 0
-374 373 366 0
-374 -373 -366 0
374 -373 366 0
374 373 -366 0
-375 374 367 0
-375 -374 -367 0
375 -374 367 0
375 374 -367 0
-376 375 367 0
-376 -375 -367 0
376 -375 367 0
376 375 -367 0
-377 376 368 0
-377 -376 -368 0
377 -376 368 0
377 376 -368 0
-378 377 368 0
-378 -377 -368 0
378 -377 368 0
378 377 -368 0
-379 378 368 0
-379 -378 -368 0
379 -378 368 0
379 378 -368 0
-380 379 368 0
-380 -379 -368 0
380 -379 368 0
380 379 -368 0
-381 380 369 0
-381 -380 -369 0
381 -380 369 0
381 380 -369 0
-382 381 369 0
-382 -381 -369 0
382 -381 369 0
382 381 -369 0
-383 382 369 0
-383 -382 -369 0
383 -382 369 0
383 382 -369 0
-384 383 369 0
-384 -383 -369 0
384 -383 369 0
384 383 -369 0
-385 384 370 0
-385 -384 -370 0
385 -384 370 0
385 384 -370 0
-386 385 371 0
-386 -385 -371 0
386 -385 371 0
386 385 -371 0
-387 386 371 0
-387 -386 -371 0
387 -386 371 0
387 386 -371 0
-387 0
-388 1 0
-388 18 0
388 -1 -18 0
-389 388 0
-389 33 0
389 -388 -33 0
-390 2 0
-390 22 0
390 -2 -22 0
-391 390 0
-391 33 0
391 -390 -33 0
-392 2 0
-392 23 0
392 -2 -23 0
-393 392 0
-393 33 0
393 -392 -33 0
-394 17 0
-394 5 0
394 -17 -5 0
-395 394 0
-395 33 0
395 -394 -33 0
-396 21 0
-396 6 0
396 -21 -6 0
-397 396 0
-397 33 0
397 -396 -33 0
-398 21 0
-398 10 0
398 -21 -10 0
-399 398 0
-399 33 0
399 -398 -33 0
-400 49 0
-400 66 0
400 -49 -66 0
-401 400 0
-401 81 0
401 -400 -81 0
-402 49 0
-402 68 0
402 -49 -68 0
-403 402 0
-403 81 0
403 -402 -81 0
-404 65 0
-404 53 0
404 -65 -53 0
-405 404 0
-405 81 0
405 -404 -81 0
-406 65 0
-406 61 0
406 -65 -61 0
-407 406 0
-407 81 0
407 -406 -81 0
-408 97 0
-408 114 0
408 -97 -114 0
-409 408 0
-409 129 0
409 -408 -129 0
-410 97 0
-410 116 0
410 -97 -116 0
-411 410 0
-411 129 0
411 -410 -129 0
-412 113 0
-412 101 0
412 -113 -101 0
-413 412 0
-413 129 0
413 -412 -129 0
-414 113 0
-414 109 0
414 -113 -109 0
-415 414 0
-415 129 0
415 -414 -129 0
-416 145 0
-416 162 0
416 -145 -162 0
-417 416 0
-417 177 0
417 -416 -177 0
-418 146 0
-418 166 0
418 -146 -166 0
-419 418 0
-419 177 0
419 -418 -177 0
-420 146 0
-420 167 0
420 -146 -167 0
-421 420 0
-421 177 0
421 -420 -177 0
-422 389 391 0
-422 -389 -391 0
422 -389 391 0
422 389 -391 0
-423 422 393 0
-423 -422 -393 0
423 -422 393 0
423 422 -393 0
-424 423 395 0
-424 -423 -395 0
424 -423 395 0
424 423 -395 0
-425 424 397 0
-425 -424 -397 0
425 -424 397 0
425 424 -397 0
-426 425 399 0
-426 -425 -399 0
426 -425 399 0
426 425 -399 0
-427 426 401 0
-427 -426 -401 0
427 -426 401 0
427 426 -401 0
-428 427 403 0
-428 -427 -403 0
428 -427 403 0
428 427 -403 0
-429 428 405 0
-429 -428 -405 0
429 -428 405 0
429 428 -405 0
-430 429 407 0
-430 -429 -407 0
430 -429 407 0
430 429 -407 0
-431 430 409 0
-431 -430 -409 0
431 -430 409 0
431 430 -409 0
-432 431 411 0
-432 -431 -411 0
432 -431 411 0
432 431 -411 0
-433 432 413 0
-433 -432 -413 0
433 -432 413 0
433 432 -413 0
-434 433 415 0
-434 -433 -415 0
434 -433 415 0
434 433 -415 0
-435 434 417 0
-435 -434 -417 0
435 -434 417 0
435 434 -417 0
-436 435 419 0
-436 -435 -419 0
436 -435 419 0
436 435 -419 0
-437 436 421 0
-437 -436 -421 0
437 -436 421 0
437 436 -421 0
-437 0
-438 388 0
-438 34 0
438 -388 -34 0
-439 390 0
-439 34 0
439 -390 -34 0
-440 392 0
-440 35 0
440 -392 -35 0
-441 394 0
-441 37 0
441 -394 -37 0
-442 396 0
-442 37 0
442 -396 -37 0
-443 398 0
-443 41 0
443 -398 -41 0
-444 400 0
-444 82 0
444 -400 -82 0
-445 402 0
-445 84 0
445 -402 -84 0
-446 404 0
-446 85 0
446 -404 -85 0
-447 406 0
-447 93 0
447 -406 -93 0
-448 408 0
-448 130 0
448 -408 -130 0
-449 410 0
-449 132 0
449 -410 -132 0
-450 412 0
-450 133 0
450 -412 -133 0
-451 414 0
-451 141 0
451 -414 -141 0
-452 416 0
-452 178 0
452 -416 -178 0
-453 418 0
-453 178 0
453 -418 -178 0
-454 420 0
-454 179 0
454 -420 -179 0
-455 438 439 0
-455 -438 -439 0
455 -438 439 0
455 438 -439 0
-456 455 440 0
-456 -455 -440 0
456 -455 440 0
456 455 -440 0
-457 456 441 0
-457 -456 -441 0
457 -456 441 0
457 456 -441 0
-458 457 442 0
-458 -457 -442 0
458 -457 442 0
458 457 -442 0
-459 458 443 0
-459 -458 -443 0
459 -458 443 0
459 458 -443 0
-460 459 444 0
-460 -459 -444 0
460 -459 444 0
460 459 -444 0
-461 460 445 0
-461 -460 -445 0
461 -460 445 0
461 460 -445 0
-462 461 446 0
-462 -461 -446 0
462 -461 446 0
462 461 -446 0
-463 462 447 0
-463 -462 -447 0
463 -462 447 0
463 462 -447 0
-464 463 448 0
-464 -463 -448 0
464 -463 448 0
464 463 -448 0
-465 464 449 0
-465 -464 -449 0
465 -464 449 0
465 464 -449 0
-466 465 450 0
-466 -465 -450 0
466 -465 450 0
466 465 -450 0
-467 466 451 0
-467 -466 -451 0
467 -466 451 0
467 466 -451 0
-468 467 452 0
-468 -467 -452 0
468 -467 452 0
468 467 -452 0
-469 468 453 0
-469 -468 -453 0
469 -468 453 0
469 468 -453 0
-470 469 454 0
-470 -469 -454 0
470 -469 454 0
470 469 -454 0
-470 0
-471 388 0
-471 35 0
471 -388 -35 0
-472 390 0
-472 36 0
472 -390 -36 0
-473 392 0
-473 36 0
473 -392 -36 0
-474 394 0
-474 41 0
474 -394 -41 0
-475 396 0
-475 45 0
475 -396 -45 0
-476 398 0
-476 45 0
476 -398 -45 0
-477 400 0
-477 83 0
477 -400 -83 0
-478 402 0
-478 83 0
478 -402 -83 0
-479 404 0
-479 89 0
479 -404 -89 0
-480 406 0
-480 89 0
480 -406 -89 0
-481 408 0
-481 131 0
481 -408 -131 0
-482 410 0
-482 131 0
482 -410 -131 0
-483 412 0
-483 137 0
483 -412 -137 0
-484 414 0
-484 137 0
484 -414 -137 0
-485 416 0
-485 179 0
485 -416 -179 0
-486 418 0
-486 180 0
486 -418 -180 0
-487 420 0
-487 180 0
487 -420 -180 0
-488 471 472 0
-488 -471 -472 0
488 -471 472 0
488 471 -472 0
-489 488 473 0
-489 -488 -473 0
489 -488 473 0
489 488 -473 0
-490 489 474 0
-490 -489 -474 0
490 -489 474 0
490 489 -474 0
-491 490 475 0
-491 -490 -475 0
491 -490 475 0
491 490 -475 0
-492 491 476 0
-492 -491 -476 0
492 -491 476 0
492 491 -476 0
-493 492 477 0
-493 -492 -477 0
493 -492 477 0
493 492 -477 0
-494 493 478 0
-494 -493 -478 0
494 -493 478 0
494 493 -478 0
-495 494 479 0
-495 -494 -479 0
495 -494 479 0
495 494 -479 0
-496 495 480 0
-496 -495 -480 0
496 -495 480 0
496 495 -480 0
-497 496 481 0
-497 -496 -481 0
497 -496 481 0
497 496 -481 0
-498 497 482 0
-498 -497 -482 0
498 -497 482 0
498 497 -482 0
-499 498 483 0
-499 -498 -483 0
499 -498 483 0
499 498 -483 0
-500 499 484 0
-500 -499 -484 0
500 -499 484 0
500 499 -484 0
-501 500 485 0
-501 -500 -485 0
501 -500 485 0
501 500 -485 0
-502 501 486 0
-502 -501 -486 0
502 -501 486 0
502 501 -486 0
-503 502 487 0
-503 -502 -487 0
503 -502 487 0
503 502 -487 0
503 0
-504 388 0
-504 36 0
504 -388 -36 0
-505 390 0
-505 35 0
505 -390 -35 0
-506 392 0
-506 34 0
506 -392 -34 0
-507 394 0
-507 45 0
507 -394 -45 0
-508 396 0
-508 41 0
508 -396 -41 0
-509 398 0
-509 37 0
509 -398 -37 0
-510 400 0
-510 84 0
510 -400 -84 0
-511 402 0
-511 82 0
511 -402 -82 0
-512 404 0
-512 93 0
512 -404 -93 0
-513 406 0
-513 85 0
513 -406 -85 0
-514 408 0
-514 132 0
514 -408 -132 0
-515 410 0
-515 130 0
515 -410 -130 0
-516 412 0
-516 141 0
516 -412 -141 0
-517 414 0
-517 133 0
517 -414 -133 0
-518 416 0
-518 180 0
518 -416 -180 0
-519 418 0
-519 179 0
519 -418 -179 0
-520 420 0
-520 178 0
520 -420 -178 0
-521 504 505 0
-521 -504 -505 0
521 -504 505 0
521 504 -505 0
-522 521 506 0
-522 -521 -506 0
522 -521 506 0
522 521 -506 0
-523 522 507 0
-523 -522 -507 0
523 -522 507 0
523 522 -507 0
-524 523 508 0
-524 -523 -508 0
524 -523 508 0
524 523 -508 0
-525 524 509 0
-525 -524 -509 0
525 -524 509 0
525 524 -509 0
-526 525 510 0
-526 -525 -510 0
526 -525 510 0
526 525 -510 0
-527 526 511 0
-527 -526 -511 0
527 -526 511 0
527 526 -511 0
-528 527 512 0
-528 -527 -512 0
528 -527 512 0
528 527 -512 0
-529 528 513 0
-529 -528 -513 0
529 -528 513 0
529 528 -513 0
-530 529 514 0
-530 -529 -514 0
530 -529 514 0
530 529 -514 0
-531 530 515 0
-531 -530 -515 0
531 -530 515 0
531 530 -515 0
-532 531 516 0
-532 -531 -516 0
532 -531 516 0
532 531 -516 0
-533 532 517 0
-533 -532 -517 0
533 -532 517 0
533 532 -517 0
-534 533 518 0
-534 -533 -518 0
534 -533 518 0
534 533 -518 0
-535 534 519 0
-535 -534 -519 0
535 -534 519 0
535 534 -519 0
-536 535 520 0
-536 -535 -520 0
536 -535 520 0
536 535 -520 0
-536 0
-537 388 0
-537 37 0
537 -388 -37 0
-538 390 0
-538 37 0
538 -390 -37 0
-539 392 0
-539 41 0
539 -392 -41 0
-540 394 0
-540 34 0
540 -394 -34 0
-541 396 0
-541 34 0
541 -396 -34 0
-542 398 0
-542 35 0
542 -398 -35 0
-543 400 0
-543 85 0
543 -400 -85 0
-544 402 0
-544 93 0
544 -402 -93 0
-545 404 0
-545 82 0
545 -404 -82 0
-546 406 0
-546 84 0
546 -406 -84 0
-547 408 0
-547 133 0
547 -408 -133 0
-548 410 0
-548 141 0
548 -410 -141 0
-549 412 0
-549 130 0
549 -412 -130 0
-550 414 0
-550 132 0
550 -414 -132 0
-551 416 0
-551 181 0
551 -416 -181 0
-552 418 0
-552 181 0
552 -418 -181 0
-553 420 0
-553 185 0
553 -420 -185 0
-554 537 538 0
-554 -537 -538 0
554 -537 538 0
554 537 -538 0
-555 554 539 0
-555 -554 -539 0
555 -554 539 0
555 554 -539 0
-556 555 540 0
-556 -555 -540 0
556 -555 540 0
556 555 -540 0
-557 556 541 0
-557 -556 -541 0
557 -556 541 0
557 556 -541 0
-558 557 542 0
-558 -557 -542 0
558 -557 542 0
558 557 -542 0
-559 558 543 0
-559 -558 -543 0
559 -558 543 0
559 558 -543 0
-560 559 544 0
-560 -559 -544 0
560 -559 544 0
560 559 -544 0
-561 560 545 0
-561 -560 -545 0
561 -560 545 0
561 560 -545 0
-562 561 546 0
-562 -561 -546 0
562 -561 546 0
562 561 -546 0
-563 562 547 0
-563 -562 -547 0
563 -562 547 0
563 562 -547 0
-564 563 548 0
-564 -563 -548 0
564 -563 548 0
564 563 -548 0
-565 564 549 0
-565 -564 -549 0
565 -564 549 0
565 564 -549 0
-566 565 550 0
-566 -565 -550 0
566 -565 550 0
566 565 -550 0
-567 566 551 0
-567 -566 -551 0
567 -566 551 0
567 566 -551 0
-568 567 552 0
-568 -567 -552 0
568 -567 552 0
568 567 -552 0
-569 568 553 0
-569 -568 -553 0
569 -568 553 0
569 568 -553 0
569 0
-570 388 0
-570 38 0
570 -388 -38 0
-571 390 0
-571 38 0
571 -390 -38 0
-572 392 0
-572 43 0
572 -392 -43 0
-573 394 0
-573 38 0
573 -394 -38 0
-574 396 0
-574 38 0
574 -396 -38 0
-575 398 0
-575 43 0
575 -398 -43 0
-576 400 0
-576 86 0
576 -400 -86 0
-577 402 0
-577 96 0
577 -402 -96 0
-578 404 0
-578 86 0
578 -404 -86 0
-579 406 0
-579 96 0
579 -406 -96 0
-580 408 0
-580 134 0
580 -408 -134 0
-581 410 0
-581 144 0
581 -410 -144 0
-582 412 0
-582 134 0
582 -412 -134 0
-583 414 0
-583 144 0
583 -414 -144 0
-584 416 0
-584 182 0
584 -416 -182 0
-585 418 0
-585 182 0
585 -418 -182 0
-586 420 0
-586 187 0
586 -420 -187 0
-587 570 571 0
-587 -570 -571 0
587 -570 571 0
587 570 -571 0
-588 587 572 0
-588 -587 -572 0
588 -587 572 0
588 587 -572 0
-589 588 573 0
-589 -588 -573 0
589 -588 573 0
589 588 -573 0
-590 589 574 0
-590 -589 -574 0
590 -589 574 0
590 589 -574 0
-591 590 575 0
-591 -590 -575 0
591 -590 575 0
591 590 -575 0
-592 591 576 0
-592 -591 -576 0
592 -591 576 0
592 591 -576 0
-593 592 577 0
-593 -592 -577 0
593 -592 577 0
593 592 -577 0
-594 593 578 0
-594 -593 -578 0
594 -593 578 0
594 593 -578 0
-595 594 579 0
-595 -594 -579 0
595 -594 579 0
595 594 -579 0
-596 595 580 0
-596 -595 -580 0
596 -595 580 0
596 595 -580 0
-597 596 581 0
-597 -596 -581 0
597 -596 581 0
597 596 -581 0
-598 597 582 0
-598 -597 -582 0
598 -597 582 0
598 597 -582 0
-599 598 583 0
-599 -598 -583 0
599 -598 583 0
599 598 -583 0
-600 599 584 0
-600 -599 -584 0
600 -599 584 0
600 599 -584 0
-601 600 585 0
-601 -600 -585 0
601 -600 585 0
601 600 -585 0
-602 601 586 0
-602 -601 -586 0
602 -601 586 0
602 601 -586 0
-602 0
-603 388 0
-603 39 0
603 -388 -39 0
-604 390 0
-604 40 0
604 -390 -40 0
-605 392 0
-605 44 0
605 -392 -44 0
-606 394 0
-606 42 0
606 -394 -42 0
-607 396 0
-607 46 0
607 -396 -46 0
-608 398 0
-608 47 0
608 -398 -47 0
-609 400 0
-609 87 0
609 -400 -87 0
-610 402 0
-610 95 0
610 -402 -95 0
-611 404 0
-611 90 0
611 -404 -90 0
-612 406 0
-612 92 0
612 -406 -92 0
-613 408 0
-613 135 0
613 -408 -135 0
-614 410 0
-614 143 0
614 -410 -143 0
-615 412 0
-615 138 0
615 -412 -138 0
-616 414 0
-616 140 0
616 -414 -140 0
-617 416 0
-617 183 0
617 -416 -183 0
-618 418 0
-618 184 0
618 -418 -184 0
-619 420 0
-619 188 0
619 -420 -188 0
-620 603 604 0
-620 -603 -604 0
620 -603 604 0
620 603 -604 0
-621 620 605 0
-621 -620 -605 0
621 -620 605 0
621 620 -605 0
-622 621 606 0
-622 -621 -606 0
622 -621 606 0
622 621 -606 0
-623 622 607 0
-623 -622 -607 0
623 -622 607 0
623 622 -607 0
-624 623 608 0
-624 -623 -608 0
624 -623 608 0
624 623 -608 0
-625 624 609 0
-625 -624 -609 0
625 -624 609 0
625 624 -609 0
-626 625 610 0
-626 -625 -610 0
626 -625 610 0
626 625 -610 0
-627 626 611 0
-627 -626 -611 0
627 -626 611 0
627 626 -611 0
-628 627 612 0
-628 -627 -612 0
628 -627 612 0
628 627 -612 0
-629 628 613 0
-629 -628 -613 0
629 -628 613 0
629 628 -613 0
-630 629 614 0
-630 -629 -614 0
630 -629 614 0
630 629 -614 0
-631 630 615 0
-631 -630 -615 0
631 -630 615 0
631 630 -615 0
-632 631 616 0
-632 -631 -616 0
632 -631 616 0
632 631 -616 0
-633 632 617 0
-633 -632 -617 0
633 -632 617 0
633 632 -617 0
-634 633 618 0
-634 -633 -618 0
634 -633 618 0
634 633 -618 0
-635 634 619 0
-635 -634 -619 0
635 -634 619 0
635 634 -619 0
-635 0
-636 388 0
-636 40 0
636 -388 -40 0
-637 390 0
-637 39 0
637 -390 -39 0
-638 392 0
-638 42 0
638 -392 -42 0
-639 394 0
-639 46 0
639 -394 -46 0
-640 396 0
-640 42 0
640 -396 -42 0
-641 398 0
-641 39 0
641 -398 -39 0
-642 400 0
-642 88 0
642 -400 -88 0
-643 402 0
-643 94 0
643 -402 -94 0
-644 404 0
-644 94 0
644 -404 -94 0
-645 406 0
-645 88 0
645 -406 -88 0
-646 408 0
-646 136 0
646 -408 -136 0
-647 410 0
-647 142 0
647 -410 -142 0
-648 412 0
-648 142 0
648 -412 -142 0
-649 414 0
-649 136 0
649 -414 -136 0
-650 416 0
-650 184 0
650 -416 -184 0
-651 418 0
-651 183 0
651 -418 -183 0
-652 420 0
-652 186 0
652 -420 -186 0
-653 636 637 0
-653 -636 -637 0
653 -636 637 0
653 636 -637 0
-654 653 638 0
-654 -653 -638 0
654 -653 638 0
654 653 -638 0
-655 654 639 0
-655 -654 -639 0
655 -654 639 0
655 654 -639 0
-656 655 640 0
-656 -655 -640 0
656 -655 640 0
656 655 -640 0
-657 656 641 0
-657 -656 -641 0
657 -656 641 0
657 656 -641 0
-658 657 642 0
-658 -657 -642 0
658 -657 642 0
658 657 -642 0
-659 658 643 0
-659 -658 -643 0
659 -658 643 0
659 658 -643 0
-660 659 644 0
-660 -659 -644 0
660 -659 644 0
660 659 -644 0
-661 660 645 0
-661 -660 -645 0
661 -660 645 0
661 660 -645 0
-662 661 646 0
-662 -661 -646 0
662 -661 646 0
662 661 -646 0
-663 662 647 0
-663 -662 -647 0
663 -662 647 0
663 662 -647 0
-664 663 648 0
-664 -663 -648 0
664 -663 648 0
664 663 -648 0
-665 664 649 0
-665 -664 -649 0
665 -664 649 0
665 664 -649 0
-666 665 650 0
-666 -665 -650 0
666 -665 650 0
666 665 -650 0
-667 666 651 0
-667 -666 -651 0
667 -666 651 0
667 666 -651 0
-668 667 652 0
-668 -667 -652 0
668 -667 652 0
668 667 -652 0
-668 0
-669 388 0
-669 41 0
669 -388 -41 0
-670 390 0
-670 45 0
670 -390 -45 0
-671 392 0
-671 45 0
671 -392 -45 0
-672 394 0
-672 35 0
672 -394 -35 0
-673 396 0
-673 36 0
673 -396 -36 0
-674 398 0
-674 36 0
674 -398 -36 0
-675 400 0
-675 89 0
675 -400 -89 0
-676 402 0
-676 89 0
676 -402 -89 0
-677 404 0
-677 83 0
677 -404 -83 0
-678 406 0
-678 83 0
678 -406 -83 0
-679 408 0
-679 137 0
679 -408 -137 0
-680 410 0
-680 137 0
680 -410 -137 0
-681 412 0
-681 131 0
681 -412 -131 0
-682 414 0
-682 131 0
682 -414 -131 0
-683 416 0
-683 185 0
683 -416 -185 0
-684 418 0
-684 189 0
684 -418 -189 0
-685 420 0
-685 189 0
685 -420 -189 0
-686 669 670 0
-686 -669 -670 0
686 -669 670 0
686 669 -670 0
-687 686 671 0
-687 -686 -671 0
687 -686 671 0
687 686 -671 0
-688 687 672 0
-688 -687 -672 0
688 -687 672 0
688 687 -672 0
-689 688 673 0
-689 -688 -673 0
689 -688 673 0
689 688 -673 0
-690 689 674 0
-690 -689 -674 0
690 -689 674 0
690 689 -674 0
-691 690 675 0
-691 -690 -675 0
691 -690 675 0
691 690 -675 0
-692 691 676 0
-692 -691 -676 0
692 -691 676 0
692 691 -676 0
-693 692 677 0
-693 -692 -677 0
693 -692 677 0
693 692 -677 0
-694 693 678 0
-694 -693 -678 0
694 -693 678 0
694 693 -678 0
-695 694 679 0
-695 -694 -679 0
695 -694 679 0
695 694 -679 0
-696 695 680 0
-696 -695 -680 0
696 -695 680 0
696 695 -680 0
-697 696 681 0
-697 -696 -681 0
697 -696 681 0
697 696 -681 0
-698 697 682 0
-698 -697 -682 0
698 -697 682 0
698 697 -682 0
-699 698 683 0
-699 -698 -683 0
699 -698 683 0
699 698 -683 0
-700 699 684 0
-700 -699 -684 0
700 -699 684 0
700 699 -684 0
-701 700 685 0
-701 -700 -685 0
701 -700 685 0
701 700 -685 0
-701 0
-702 388 0
-702 42 0
702 -388 -42 0
-703 390 0
-703 46 0
703 -390 -46 0
-704 392 0
-704 47 0
704 -392 -47 0
-705 394 0
-705 39 0
705 -394 -39 0
-706 396 0
-706 40 0
706 -396 -40 0
-707 398 0
-707 44 0
707 -398 -44 0
-708 400 0
-708 90 0
708 -400 -90 0
-709 402 0
-709 92 0
709 -402 -92 0
-710 404 0
-710 87 0
710 -404 -87 0
-711 406 0
-711 95 0
711 -406 -95 0
-712 408 0
-712 138 0
712 -408 -138 0
-713 410 0
-713 140 0
713 -410 -140 0
-714 412 0
-714 135 0
714 -412 -135 0
-715 414 0
-715 143 0
715 -414 -143 0
-716 416 0
-716 186 0
716 -416 -186 0
-717 418 0
-717 190 0
717 -418 -190 0
-718 420 0
-718 191 0
718 -420 -191 0
-719 702 703 0
-719 -702 -703 0
719 -702 703 0
719 702 -703 0
-720 719 704 0
-720 -719 -704 0
720 -719 704 0
720 719 -704 0
-721 720 705 0
-721 -720 -705 0
721 -720 705 0
721 720 -705 0
-722 721 706 0
-722 -721 -706 0
722 -721 706 0
722 721 -706 0
-723 722 707 0
-723 -722 -707 0
723 -722 707 0
723 722 -707 0
-724 723 708 0
-724 -723 -708 0
724 -723 708 0
724 723 -708 0
-725 724 709 0
-725 -724 -709 0
725 -724 709 0
725 724 -709 0
-726 725 710 0
-726 -725 -710 0
726 -725 710 0
726 725 -710 0
-727 726 711 0
-727 -726 -711 0
727 -726 711 0
727 726 -711 0
-728 727 712 0
-728 -727 -712 0
728 -727 712 0
728 727 -712 0
-729 728 713 0
-729 -728 -713 0
729 -728 713 0
729 728 -713 0
-730 729 714 0
-730 -729 -714 0
730 -729 714 0
730 729 -714 0
-731 730 715 0
-731 -730 -715 0
731 -730 715 0
731 730 -715 0
-732 731 716 0
-732 -731 -716 0
732 -731 716 0
732 731 -716 0
-733 732 717 0
-733 -732 -717 0
733 -732 717 0
733 732 -717 0
-734 733 718 0
-734 -733 -718 0
734 -733 718 0
734 733 -718 0
-734 0
-735 388 0
-735 43 0
735 -388 -43 0
-736 390 0
-736 48 0
736 -390 -48 0
-737 392 0
-737 48 0
737 -392 -48 0
-738 394 0
-738 43 0
738 -394 -43 0
-739 396 0
-739 48 0
739 -396 -48 0
-740 398 0
-740 48 0
740 -398 -48 0
-741 400 0
-741 91 0
741 -400 -91 0
-742 402 0
-742 91 0
742 -402 -91 0
-743 404 0
-743 91 0
743 -404 -91 0
-744 406 0
-744 91 0
744 -406 -91 0
-745 408 0
-745 139 0
745 -408 -139 0
-746 410 0
-746 139 0
746 -410 -139 0
-747 412 0
-747 139 0
747 -412 -139 0
-748 414 0
-748 139 0
748 -414 -139 0
-749 416 0
-749 187 0
749 -416 -187 0
-750 418 0
-750 192 0
750 -418 -192 0
-751 420 0
-751 192 0
751 -420 -192 0
-752 735 736 0
-752 -735 -736 0
752 -735 736 0
752 735 -736 0
-753 752 737 0
-753 -752 -737 0
753 -752 737 0
753 752 -737 0
-754 753 738 0
-754 -753 -738 0
754 -753 738 0
754 753 -738 0
-755 754 739 0
-755 -754 -739 0
755 -754 739 0
755 754 -739 0
-756 755 740 0
-756 -755 -740 0
756 -755 740 0
756 755 -740 0
-757 756 741 0
-757 -756 -741 0
757 -756 741 0
757 756 -741 0
-758 757 742 0
-758 -757 -742 0
758 -757 742 0
758 757 -742 0
-759 758 743 0
-759 -758 -743 0
759 -758 743 0
759 758 -743 0
-760 759 744 0
-760 -759 -744 0
760 -759 744 0
760 759 -744 0
-761 760 745 0
-761 -760 -745 0
761 -760 745 0
761 760 -745 0
-762 761 746 0
-762 -761 -746 0
762 -761 746 0
762 761 -746 0
-763 762 747 0
-763 -762 -747 0
763 -762 747 0
763 762 -747 0
-764 763 748 0
-764 -763 -748 0
764 -763 748 0
764 763 -748 0
-765 764 749 0
-765 -764 -749 0
765 -764 749 0
765 764 -749 0
-766 765 750 0
-766 -765 -750 0
766 -765 750 0
766 765 -750 0
-767 766 751 0
-767 -766 -751 0
767 -766 751 0
767 766 -751 0
-767 0
-768 388 0
-768 44 0
768 -388 -44 0
-769 390 0
-769 47 0
769 -390 -47 0
-770 392 0
-770 46 0
770 -392 -46 0
-771 394 0
-771 47 0
771 -394 -47 0
-772 396 0
-772 44 0
772 -396 -44 0
-773 398 0
-773 40 0
773 -398 -40 0
-774 400 0
-774 92 0
774 -400 -92 0
-775 402 0
-775 90 0
775 -402 -90 0
-776 404 0
-776 95 0
776 -404 -95 0
-777 406 0
-777 87 0
777 -406 -87 0
-778 408 0
-778 140 0
778 -408 -140 0
-779 410 0
-779 138 0
779 -410 -138 0
-780 412 0
-780 143 0
780 -412 -143 0
-781 414 0
-781 135 0
781 -414 -135 0
-782 416 0
-782 188 0
782 -416 -188 0
-783 418 0
-783 191 0
783 -418 -191 0
-784 420 0
-784 190 0
784 -420 -190 0
-785 768 769 0
-785 -768 -769 0
785 -768 769 0
785 768 -769 0
-786 785 770 0
-786 -785 -770 0
786 -785 770 0
786 785 -770 0
-787 786 771 0
-787 -786 -771 0
787 -786 771 0
787 786 -771 0
-788 787 772 0
-788 -787 -772 0
788 -787 772 0
788 787 -772 0
-789 788 773 0
-789 -788 -773 0
789 -788 773 0
789 788 -773 0
-790 789 774 0
-790 -789 -774 0
790 -789 774 0
790 789 -774 0
-791 790 775 0
-791 -790 -775 0
791 -790 775 0
791 790 -775 0
-792 791 776 0
-792 -791 -776 0
792 -791 776 0
792 791 -776 0
-793 792 777 0
-793 -792 -777 0
793 -792 777 0
793 792 -777 0
-794 793 778 0
-794 -793 -778 0
794 -793 778 0
794 793 -778 0
-795 794 779 0
-795 -794 -779 0
795 -794 779 0
795 794 -779 0
-796 795 780 0
-796 -795 -780 0
796 -795 780 0
796 795 -780 0
-797 796 781 0
-797 -796 -781 0
797 -796 781 0
797 796 -781 0
-798 797 782 0
-798 -797 -782 0
798 -797 782 0
798 797 -782 0
-799 798 783 0
-799 -798 -783 0
799 -798 783 0
799 798 -783 0
-800 799 784 0
-800 -799 -784 0
800 -799 784 0
800 799 -784 0
-800 0
-801 388 0
-801 45 0
801 -388 -45 0
-802 390 0
-802 41 0
802 -390 -41 0
-803 392 0
-803 37 0
803 -392 -37 0
-804 394 0
-804 36 0
804 -394 -36 0
-805 396 0
-805 35 0
805 -396 -35 0
-806 398 0
-806 34 0
806 -398 -34 0
-807 400 0
-807 93 0
807 -400 -93 0
-808 402 0
-808 85 0
808 -402 -85 0
-809 404 0
-809 84 0
809 -404 -84 0
-810 406 0
-810 82 0
810 -406 -82 0
-811 408 0
-811 141 0
811 -408 -141 0
-812 410 0
-812 133 0
812 -410 -133 0
-813 412 0
-813 132 0
813 -412 -132 0
-814 414 0
-814 130 0
814 -414 -130 0
-815 416 0
-815 189 0
815 -416 -189 0
-816 418 0
-816 185 0
816 -418 -185 0
-817 420 0
-817 181 0
817 -420 -181 0
-818 801 802 0
-818 -801 -802 0
818 -801 802 0
818 801 -802 0
-819 818 803 0
-819 -818 -803 0
819 -818 803 0
819 818 -803 0
-820 819 804 0
-820 -819 -804 0
820 -819 804 0
820 819 -804 0
-821 820 805 0
-821 -820 -805 0
821 -820 805 0
821 820 -805 0
-822 821 806 0
-822 -821 -806 0
822 -821 806 0
822 821 -806 0
-823 822 807 0
-823 -822 -807 0
823 -822 807 0
823 822 -807 0
-824 823 808 0
-824 -823 -808 0
824 -823 808 0
824 823 -808 0
-825 824 809 0
-825 -824 -809 0
825 -824 809 0
825 824 -809 0
-826 825 810 0
-826 -825 -810 0
826 -825 810 0
826 825 -810 0
-827 826 811 0
-827 -826 -811 0
827 -826 811 0
827 826 -811 0
-828 827 812 0
-828 -827 -812 0
828 -827 812 0
828 827 -812 0
-829 828 813 0
-829 -828 -813 0
829 -828 813 0
829 828 -813 0
-830 829 814 0
-830 -829 -814 0
830 -829 814 0
830 829 -814 0
-831 830 815 0
-831 -830 -815 0
831 -830 815 0
831 830 -815 0
-832 831 816 0
-832 -831 -816 0
832 -831 816 0
832 831 -816 0
-833 832 817 0
-833 -832 -817 0
833 -832 817 0
833 832 -817 0
-833 0
-834 388 0
-834 46 0
834 -388 -46 0
-835 390 0
-835 42 0
835 -390 -42 0
-836 392 0
-836 39 0
836 -392 -39 0
-837 394 0
-837 40 0
837 -394 -40 0
-838 396 0
-838 39 0
838 -396 -39 0
-839 398 0
-839 42 0
839 -398 -42 0
-840 400 0
-840 94 0
840 -400 -94 0
-841 402 0
-841 88 0
841 -402 -88 0
-842 404 0
-842 88 0
842 -404 -88 0
-843 406 0
-843 94 0
843 -406 -94 0
-844 408 0
-844 142 0
844 -408 -142 0
-845 410 0
-845 136 0
845 -410 -136 0
-846 412 0
-846 136 0
846 -412 -136 0
-847 414 0
-847 142 0
847 -414 -142 0
-848 416 0
-848 190 0
848 -416 -190 0
-849 418 0
-849 186 0
849 -418 -186 0
-850 420 0
-850 183 0
850 -420 -183 0
-851 834 835 0
-851 -834 -835 0
851 -834 835 0
851 834 -835 0
-852 851 836 0
-852 -851 -836 0
852 -851 836 0
852 851 -836 0
-853 852 837 0
-853 -852 -837 0
853 -852 837 0
853 852 -837 0
-854 853 838 0
-854 -853 -838 0
854 -853 838 0
854 853 -838 0
-855 854 839 0
-855 -854 -839 0
855 -854 839 0
855 854 -839 0
-856 855 840 0
-856 -855 -840 0
856 -855 840 0
856 855 -840 0
-857 856 841 0
-857 -856 -841 0
857 -856 841 0
857 856 -841 0
-858 857 842 0
-858 -857 -842 0
858 -857 842 0
858 857 -842 0
-859 858 843 0
-859 -858 -843 0
859 -858 843 0
859 858 -843 0
-860 859 844 0
-860 -859 -844 0
860 -859 844 0
860 859 -844 0
-861 860 845 0
-861 -860 -845 0
861 -860 845 0
861 860 -845 0
-862 861 846 0
-862 -861 -846 0
862 -861 846 0
862 861 -846 0
-863 862 847 0
-863 -862 -847 0
863 -862 847 0
863 862 -847 0
-864 863 848 0
-864 -863 -848 0
864 -863 848 0
864 863 -848 0
-865 864 849 0
-865 -864 -849 0
865 -864 849 0
865 864 -849 0
-866 865 850 0
-866 -865 -850 0
866 -865 850 0
866 865 -850 0
-866 0
-867 388 0
-867 47 0
867 -388 -47 0
-868 390 0
-868 44 0
868 -390 -44 0
-869 392 0
-869 40 0
869 -392 -40 0
-870 394 0
-870 44 0
870 -394 -44 0
-871 396 0
-871 47 0
871 -396 -47 0
-872 398 0
-872 46 0
872 -398 -46 0
-873 400 0
-873 95 0
873 -400 -95 0
-874 402 0
-874 87 0
874 -402 -87 0
-875 404 0
-875 92 0
875 -404 -92 0
-876 406 0
-876 90 0
876 -406 -90 0
-877 408 0
-877 143 0
877 -408 -143 0
-878 410 0
-878 135 0
878 -410 -135 0
-879 412 0
-879 140 0
879 -412 -140 0
-880 414 0
-880 138 0
880 -414 -138 0
-881 416 0
-881 191 0
881 -416 -191 0
-882 418 0
-882 188 0
882 -418 -188 0
-883 420 0
-883 184 0
883 -420 -184 0
-884 867 868 0
-884 -867 -868 0
884 -867 868 0
884 867 -868 0
-885 884 869 0
-885 -884 -869 0
885 -884 869 0
885 884 -869 0
-886 885 870 0
-886 -885 -870 0
886 -885 870 0
886 885 -870 0
-887 886 871 0
-887 -886 -871 0
887 -886 871 0
887 886 -871 0
-888 887 872 0
-888 -887 -872 0
888 -887 872 0
888 887 -872 0
-889 888 873 0
-889 -888 -873 0
889 -888 873 0
889 888 -873 0
-890 889 874 0
-890 -889 -874 0
890 -889 874 0
890 889 -874 0
-891 890 875 0
-891 -890 -875 0
891 -890 875 0
891 890 -875 0
-892 891 876 0
-892 -891 -876 0
892 -891 876 0
892 891 -876 0
-893 892 877 0
-893 -892 -877 0
893 -892 877 0
893 892 -877 0
-894 893 878 0
-894 -893 -878 0
894 -893 878 0
894 893 -878 0
-895 894 879 0
-895 -894 -879 0
895 -894 879 0
895 894 -879 0
-896 895 880 0
-896 -895 -880 0
896 -895 880 0
896 895 -880 0
-897 896 881 0
-897 -896 -881 0
897 -896 881 0
897 896 -881 0
-898 897 882 0
-898 -897 -882 0
898 -897 882 0
898 897 -882 0
-899 898 883 0
-899 -898 -883 0
899 -898 883 0
899 898 -883 0
-899 0
-900 388 0
-900 48 0
900 -388 -48 0
-901 390 0
-901 43 0
901 -390 -43 0
-902 392 0
-902 38 0
902 -392 -38 0
-903 394 0
-903 48 0
903 -394 -48 0
-904 396 0
-904 43 0
904 -396 -43 0
-905 398 0
-905 38 0
905 -398 -38 0
-906 400 0
-906 96 0
906 -400 -96 0
-907 402 0
-907 86 0
907 -402 -86 0
-908 404 0
-908 96 0
908 -404 -96 0
-909 406 0
-909 86 0
909 -406 -86 0
-910 408 0
-910 144 0
910 -408 -144 0
-911 410 0
-911 134 0
911 -410 -134 0
-912 412 0
-912 144 0
912 -412 -144 0
-913 414 0
-913 134 0
913 -414 -134 0
-914 416 0
-914 192 0
914 -416 -192 0
-915 418 0
-915 187 0
915 -418 -187 0
-916 420 0
-916 182 0
916 -420 -182 0
-917 900 901 0
-917 -900 -901 0
917 -900 901 0
917 900 -901 0
-918 917 902 0
-918 -917 -902 0
918 -917 902 0
918 917 -902 0
-919 918 903 0
-919 -918 -903 0
919 -918 903 0
919 918 -903 0
-920 919 904 0
-920 -919 -904 0
920 -919 904 0
920 919 -904 0
-921 920 905 0
-921 -920 -905 0
921 -920 905 0
921 920 -905 0
-922 921 906 0
-922 -921 -906 0
922 -921 906 0
922 921 -906 0
-923 922 907 0
-923 -922 -907 0
923 -922 907 0
923 922 -907 0
-924 923 908 0
-924 -923 -908 0
924 -923 908 0
924 923 -908 0
-925 924 909 0
-925 -924 -909 0
925 -924 909 0
925 924 -909 0
-926 925 910 0
-926 -925 -910 0
926 -925 910 0
926 925 -910 0
-927 926 911 0
-927 -926 -911 0
927 -926 911 0
927 926 -911 0
-928 927 912 0
-928 -927 -912 0
928 -927 912 0
928 927 -912 0
-929 928 913 0
-929 -928 -913 0
929 -928 913 0
929 928 -913 0
-930 929 914 0
-930 -929 -914 0
930 -929 914 0
930 929 -914 0
-931 930 915 0
-931 -930 -915 0
931 -930 915 0
931 930 -915 0
-932 931 916 0
-932 -931 -916 0
932 -931 916 0
932 931 -916 0
-932 0
-933 1 0
-933 19 0
933 -1 -19 0
-934 933 0
-934 33 0
934 -933 -33 0
-935 2 0
-935 24 0
935 -2 -24 0
-936 935 0
-936 33 0
936 -935 -33 0
-937 17 0
-937 9 0
937 -17 -9 0
-938 937 0
-938 33 0
938 -937 -33 0
-939 21 0
-939 14 0
939 -21 -14 0
-940 939 0
-940 33 0
940 -939 -33 0
-941 49 0
-941 67 0
941 -49 -67 0
-942 941 0
-942 81 0
942 -941 -81 0
-943 65 0
-943 57 0
943 -65 -57 0
-944 943 0
-944 81 0
944 -943 -81 0
-945 97 0
-945 115 0
945 -97 -115 0
-946 945 0
-946 129 0
946 -945 -129 0
-947 113 0
-947 105 0
947 -113 -105 0
-948 947 0
-948 129 0
948 -947 -129 0
-949 145 0
-949 163 0
949 -145 -163 0
-950 949 0
-950 177 0
950 -949 -177 0
-951 146 0
-951 168 0
951 -146 -168 0
-952 951 0
-952 177 0
952 -951 -177 0
-953 934 936 0
-953 -934 -936 0
953 -934 936 0
953 934 -936 0
-954 953 936 0
-954 -953 -936 0
954 -953 936 0
954 953 -936 0
-955 954 938 0
-955 -954 -938 0
955 -954 938 0
955 954 -938 0
-956 955 940 0
-956 -955 -940 0
956 -955 940 0
956 955 -940 0
-957 956 940 0
-957 -956 -940 0
957 -956 940 0
957 956 -940 0
-958 957 942 0
-958 -957 -942 0
958 -957 942 0
958 957 -942 0
-959 958 942 0
-959 -958 -942 0
959 -958 942 0
959 958 -942 0
-960 959 944 0
-960 -959 -944 0
960 -959 944 0
960 959 -944 0
-961 960 944 0
-961 -960 -944 0
961 -960 944 0
961 960 -944 0
-962 961 946 0
-962 -961 -946 0
962 -961 946 0
962 961 -946 0
-963 962 946 0
-963 -962 -946 0
963 -962 946 0
963 962 -946 0
-964 963 948 0
-964 -963 -948 0
964 -963 948 0
964 963 -948 0
-965 964 948 0
-965 -964 -948 0
965 -964 948 0
965 964 -948 0
-966 965 950 0
-966 -965 -950 0
966 -965 950 0
966 965 -950 0
-967 966 952 0
-967 -966 -952 0
967 -966 952 0
967 966 -952 0
-968 967 952 0
-968 -967 -952 0
968 -967 952 0
968 967 -952 0
-968 0
-969 933 0
-969 34 0
969 -933 -34 0
-970 935 0
-970 34 0
970 -935 -34 0
-971 935 0
-971 35 0
971 -935 -35 0
-972 937 0
-972 37 0
972 -937 -37 0
-973 939 0
-973 37 0
973 -939 -37 0
-974 939 0
-974 41 0
974 -939 -41 0
-975 941 0
-975 82 0
975 -941 -82 0
-976 941 0
-976 84 0
976 -941 -84 0
-977 943 0
-977 85 0
977 -943 -85 0
-978 943 0
-978 93 0
978 -943 -93 0
-979 945 0
-979 130 0
979 -945 -130 0
-980 945 0
-980 132 0
980 -945 -132 0
-981 947 0
-981 133 0
981 -947 -133 0
-982 947 0
-982 141 0
982 -947 -141 0
-983 949 0
-983 178 0
983 -949 -178 0
-984 951 0
-984 178 0
984 -951 -178 0
-985 951 0
-985 179 0
985 -951 -179 0
-986 969 970 0
-986 -969 -970 0
986 -969 970 0
986 969 -970 0
-987 986 971 0
-987 -986 -971 0
987 -986 971 0
987 986 -971 0
-988 987 972 0
-988 -987 -972 0
988 -987 972 0
988 987 -972 0
-989 988 973 0
-989 -988 -973 0
989 -988 973 0
989 988 -973 0
-990 989 974 0
-990 -989 -974 0
990 -989 974 0
990 989 -974 0
-991 990 975 0
-991 -990 -975 0
991 -990 975 0
991 990 -975 0
-992 991 976 0
-992 -991 -976 0
992 -991 976 0
992 991 -976 0
-993 992 977 0
-993 -992 -977 0
993 -992 977 0
993 992 -977 0
-994 993 978 0
-994 -993 -978 0
994 -993 978 0
994 993 -978 0
-995 994 979 0
-995 -994 -979 0
995 -994 979 0
995 994 -979 0
-996 995 980 0
-996 -995 -980 0
996 -995 980 0
996 995 -980 0
-997 996 981 0
-997 -996 -981 0
997 -996 981 0
997 996 -981 0
-998 997 982 0
-998 -997 -982 0
998 -997 982 0
998 997 -982 0
-999 998 983 0
-999 -998 -983 0
999 -998 983 0
999 998 -983 0
-1000 999 984 0
-1000 -999 -984 0
1000 -999 984 0
1000 999 -984 0
-1001 1000 985 0
-1001 -1000 -985 0
1001 -1000 985 0
1001 1000 -985 0
-1001 0
-1002 933 0
-1002 35 0
1002 -933 -35 0
-1003 935 0
-1003 36 0
1003 -935 -36 0
-1004 937 0
-1004 41 0
1004 -937 -41 0
-1005 939 0
-1005 45 0
1005 -939 -45 0
-1006 941 0
-1006 83 0
1006 -941 -83 0
-1007 943 0
-1007 89 0
1007 -943 -89 0
-1008 945 0
-1008 131 0
1008 -945 -131 0
-1009 947 0
-1009 137 0
1009 -947 -137 0
-1010 949 0
-1010 179 0
1010 -949 -179 0
-1011 951 0
-1011 180 0
1011 -951 -180 0
-1012 1002 1003 0
-1012 -1002 -1003 0
1012 -1002 1003 0
1012 1002 -1003 0
-1013 1012 1003 0
-1013 -1012 -1003 0
1013 -1012 1003 0
1013 1012 -1003 0
-1014 1013 1004 0
-1014 -1013 -1004 0
1014 -1013 1004 0
1014 1013 -1004 0
-1015 1014 1005 0
-1015 -1014 -1005 0
1015 -1014 1005 0
1015 1014 -1005 0
-1016 1015 1005 0
-1016 -1015 -1005 0
1016 -1015 1005 0
1016 1015 -1005 0
-1017 1016 1006 0
-1017 -1016 -1006 0
1017 -1016 1006 0
1017 1016 -1006 0
-1018 1017 1006 0
-1018 -1017 -1006 0
1018 -1017 1006 0
1018 1017 -1006 0
-1019 1018 1007 0
-1019 -1018 -1007 0
1019 -1018 1007 0
1019 1018 -1007 0
-1020 1019 1007 0
-1020 -1019 -1007 0
1020 -1019 1007 0
1020 1019 -1007 0
-1021 1020 1008 0
-1021 -1020 -1008 0
1021 -1020 1008 0
1021 1020 -1008 0
-1022 1021 1008 0
-1022 -1021 -1008 0
1022 -1021 1008 0
1022 1021 -1008 0
-1023 1022 1009 0
-1023 -1022 -1009 0
1023 -1022 1009 0
1023 1022 -1009 0
-1024 1023 1009 0
-1024 -1023 -1009 0
1024 -1023 1009 0
1024 1023 -1009 0
-1025 1024 1010 0
-1025 -1024 -1010 0
1025 -1024 1010 0
1025 1024 -1010 0
-1026 1025 1011 0
-1026 -1025 -1011 0
1026 -1025 1011 0
1026 1025 -1011 0
-1027 1026 1011 0
-1027 -1026 -1011 0
1027 -1026 1011 0
1027 1026 -1011 0
-1027 0
-1028 933 0
-1028 37 0
1028 -933 -37 0
-1029 935 0
-1029 37 0
1029 -935 -37 0
-1030 935 0
-1030 41 0
1030 -935 -41 0
-1031 937 0
-1031 34 0
1031 -937 -34 0
-1032 939 0
-1032 34 0
1032 -939 -34 0
-1033 939 0
-1033 35 0
1033 -939 -35 0
-1034 941 0
-1034 85 0
1034 -941 -85 0
-1035 941 0
-1035 93 0
1035 -941 -93 0
-1036 943 0
-1036 82 0
1036 -943 -82 0
-1037 943 0
-1037 84 0
1037 -943 -84 0
-1038 945 0
-1038 133 0
1038 -945 -133 0
-1039 945 0
-1039 141 0
1039 -945 -141 0
-1040 947 0
-1040 130 0
1040 -947 -130 0
-1041 947 0
-1041 132 0
1041 -947 -132 0
-1042 949 0
-1042 181 0
1042 -949 -181 0
-1043 951 0
-1043 181 0
1043 -951 -181 0
-1044 951 0
-1044 185 0
1044 -951 -185 0
-1045 1028 1029 0
-1045 -1028 -1029 0
1045 -1028 1029 0
1045 1028 -1029 0
-1046 1045 1030 0
-1046 -1045 -1030 0
1046 -1045 1030 0
1046 1045 -1030 0
-1047 1046 1031 0
-1047 -1046 -1031 0
1047 -1046 1031 0
1047 1046 -1031 0
-1048 1047 1032 0
-1048 -1047 -1032 0
1048 -1047 1032 0
1048 1047 -1032 0
-1049 1048 1033 0
-1049 -1048 -1033 0
1049 -1048 1033 0
1049 1048 -1033 0
-1050 1049 1034 0
-1050 -1049 -1034 0
1050 -1049 1034 0
1050 1049 -1034 0
-1051 1050 1035 0
-1051 -1050 -1035 0
1051 -1050 1035 0
1051 1050 -1035 0
-1052 1051 1036 0
-1052 -1051 -1036 0
1052 -1051 1036 0
1052 1051 -1036 0
-1053 1052 1037 0
-1053 -1052 -1037 0
1053 -1052 1037 0
1053 1052 -1037 0
-1054 1053 1038 0
-1054 -1053 -1038 0
1054 -1053 1038 0
1054 1053 -1038 0
-1055 1054 1039 0
-1055 -1054 -1039 0
1055 -1054 1039 0
1055 1054 -1039 0
-1056 1055 1040 0
-1056 -1055 -1040 0
1056 -1055 1040 0
1056 1055 -1040 0
-1057 1056 1041 0
-1057 -1056 -1041 0
1057 -1056 1041 0
1057 1056 -1041 0
-1058 1057 1042 0
-1058 -1057 -1042 0
1058 -1057 1042 0
1058 1057 -1042 0
-1059 1058 1043 0
-1059 -1058 -1043 0
1059 -1058 1043 0
1059 1058 -1043 0
-1060 1059 1044 0
-1060 -1059 -1044 0
1060 -1059 1044 0
1060 1059 -1044 0
-1060 0
-1061 933 0
-1061 38 0
1061 -933 -38 0
-1062 935 0
-1062 38 0
1062 -935 -38 0
-1063 935 0
-1063 43 0
1063 -935 -43 0
-1064 937 0
-1064 38 0
1064 -937 -38 0
-1065 939 0
-1065 38 0
1065 -939 -38 0
-1066 939 0
-1066 43 0
1066 -939 -43 0
-1067 941 0
-1067 86 0
1067 -941 -86 0
-1068 941 0
-1068 96 0
1068 -941 -96 0
-1069 943 0
-1069 86 0
1069 -943 -86 0
-1070 943 0
-1070 96 0
1070 -943 -96 0
-1071 945 0
-1071 134 0
1071 -945 -134 0
-1072 945 0
-1072 144 0
1072 -945 -144 0
-1073 947 0
-1073 134 0
1073 -947 -134 0
-1074 947 0
-1074 144 0
1074 -947 -144 0
-1075 949 0
-1075 182 0
1075 -949 -182 0
-1076 951 0
-1076 182 0
1076 -951 -182 0
-1077 951 0
-1077 187 0
1077 -951 -187 0
-1078 1061 1062 0
-1078 -1061 -1062 0
1078 -1061 1062 0
1078 1061 -1062 0
-1079 1078 1063 0
-1079 -1078 -1063 0
1079 -1078 1063 0
1079 1078 -1063 0
-1080 1079 1064 0
-1080 -1079 -1064 0
1080 -1079 1064 0
1080 1079 -1064 0
-1081 1080 1065 0
-1081 -1080 -1065 0
1081 -1080 1065 0
1081 1080 -1065 0
-1082 1081 1066 0
-1082 -1081 -1066 0
1082 -1081 1066 0
1082 1081 -1066 0
-1083 1082 1067 0
-1083 -1082 -1067 0
1083 -1082 1067 0
1083 1082 -1067 0
-1084 1083 1068 0
-1084 -1083 -1068 0
1084 -1083 1068 0
1084 1083 -1068 0
-1085 1084 1069 0
-1085 -1084 -1069 0
1085 -1084 1069 0
1085 1084 -1069 0
-1086 1085 1070 0
-1086 -1085 -1070 0
1086 -1085 1070 0
1086 1085 -1070 0
-1087 1086 1071 0
-1087 -1086 -1071 0
1087 -1086 1071 0
1087 1086 -1071 0
-1088 1087 1072 0
-1088 -1087 -1072 0
1088 -1087 1072 0
1088 1087 -1072 0
-1089 1088 1073 0
-1089 -1088 -1073 0
1089 -1088 1073 0
1089 1088 -1073 0
-1090 1089 1074 0
-1090 -1089 -1074 0
1090 -1089 1074 0
1090 1089 -1074 0
-1091 1090 1075 0
-1091 -1090 -1075 0
1091 -1090 1075 0
1091 1090 -1075 0
-1092 1091 1076 0
-1092 -1091 -1076 0
1092 -1091 1076 0
1092 1091 -1076 0
-1093 1092 1077 0
-1093 -1092 -1077 0
1093 -1092 1077 0
1093 1092 -1077 0
-1093 0
-1094 933 0
-1094 39 0
1094 -933 -39 0
-1095 935 0
-1095 40 0
1095 -935 -40 0
-1096 935 0
-1096 44 0
1096 -935 -44 0
-1097 937 0
-1097 42 0
1097 -937 -42 0
-1098 939 0
-1098 46 0
1098 -939 -46 0
-1099 939 0
-1099 47 0
1099 -939 -47 0
-1100 941 0
-1100 87 0
1100 -941 -87 0
-1101 941 0
-1101 95 0
1101 -941 -95 0
-1102 943 0
-1102 90 0
1102 -943 -90 0
-1103 943 0
-1103 92 0
1103 -943 -92 0
-1104 945 0
-1104 135 0
1104 -945 -135 0
-1105 945 0
-1105 143 0
1105 -945 -143 0
-1106 947 0
-1106 138 0
1106 -947 -138 0
-1107 947 0
-1107 140 0
1107 -947 -140 0
-1108 949 0
-1108 183 0
1108 -949 -183 0
-1109 951 0
-1109 184 0
1109 -951 -184 0
-1110 951 0
-1110 188 0
1110 -951 -188 0
-1111 1094 1095 0
-1111 -1094 -1095 0
1111 -1094 1095 0
1111 1094 -1095 0
-1112 1111 1096 0
-1112 -1111 -1096 0
1112 -1111 1096 0
1112 1111 -1096 0
-1113 1112 1097 0
-1113 -1112 -1097 0
1113 -1112 1097 0
1113 1112 -1097 0
-1114 1113 1098 0
-1114 -1113 -1098 0
1114 -1113 1098 0
1114 1113 -1098 0
-1115 1114 1099 0
-1115 -1114 -1099 0
1115 -1114 1099 0
1115 1114 -1099 0
-1116 1115 1100 0
-1116 -1115 -1100 0
1116 -1115 1100 0
1116 1115 -1100 0
-1117 1116 1101 0
-1117 -1116 -1101 0
1117 -1116 1101 0
1117 1116 -1101 0
-1118 1117 1102 0
-1118 -1117 -1102 0
1118 -1117 1102 0
1118 1117 -1102 0
-1119 1118 1103 0
-1119 -1118 -1103 0
1119 -1118 1103 0
1119 1118 -1103 0
-1120 1119 1104 0
-1120 -1119 -1104 0
1120 -1119 1104 0
1120 1119 -1104 0
-1121 1120 1105 0
-1121 -1120 -1105 0
1121 -1120 1105 0
1121 1120 -1105 0
-1122 1121 1106 0
-1122 -1121 -1106 0
1122 -1121 1106 0
1122 1121 -1106 0
-1123 1122 1107 0
-1123 -1122 -1107 0
1123 -1122 1107 0
1123 1122 -1107 0
-1124 1123 1108 0
-1124 -1123 -1108 0
1124 -1123 1108 0
1124 1123 -1108 0
-1125 1124 1109 0
-1125 -1124 -1109 0
1125 -1124 1109 0
1125 1124 -1109 0
-1126 1125 1110 0
-1126 -1125 -1110 0
1126 -1125 1110 0
1126 1125 -1110 0
-1126 0
-1127 933 0
-1127 40 0
1127 -933 -40 0
-1128 935 0
-1128 39 0
1128 -935 -39 0
-1129 935 0
-1129 42 0
1129 -935 -42 0
-1130 937 0
-1130 46 0
1130 -937 -46 0
-1131 939 0
-1131 42 0
1131 -939 -42 0
-1132 939 0
-1132 39 0
1132 -939 -39 0
-1133 941 0
-1133 88 0
1133 -941 -88 0
-1134 941 0
-1134 94 0
1134 -941 -94 0
-1135 943 0
-1135 94 0
1135 -943 -94 0
-1136 943 0
-1136 88 0
1136 -943 -88 0
-1137 945 0
-1137 136 0
1137 -945 -136 0
-1138 945 0
-1138 142 0
1138 -945 -142 0
-1139 947 0
-1139 142 0
1139 -947 -142 0
-1140 947 0
-1140 136 0
1140 -947 -136 0
-1141 949 0
-1141 184 0
1141 -949 -184 0
-1142 951 0
-1142 183 0
1142 -951 -183 0
-1143 951 0
-1143 186 0
1143 -951 -186 0
-1144 1127 1128 0
-1144 -1127 -1128 0
1144 -1127 1128 0
1144 1127 -1128 0
-1145 1144 1129 0
-1145 -1144 -1129 0
1145 -1144 1129 0
1145 1144 -1129 0
-1146 1145 1130 0
-1146 -1145 -1130 0
1146 -1145 1130 0
1146 1145 -1130 0
-1147 1146 1131 0
-1147 -1146 -1131 0
1147 -1146 1131 0
1147 1146 -1131 0
-1148 1147 1132 0
-1148 -1147 -1132 0
1148 -1147 1132 0
1148 1147 -1132 0
-1149 1148 1133 0
-1149 -1148 -1133 0
1149 -1148 1133 0
1149 1148 -1133 0
-1150 1149 1134 0
-1150 -1149 -1134 0
1150 -1149 1134 0
1150 1149 -1134 0
-1151 1150 1135 0
-1151 -1150 -1135 0
1151 -1150 1135 0
1151 1150 -1135 0
-1152 1151 1136 0
-1152 -1151 -1136 0
1152 -1151 1136 0
1152 1151 -1136 0
-1153 1152 1137 0
-1153 -1152 -1137 0
1153 -1152 1137 0
1153 1152 -1137 0
-1154 1153 1138 0
-1154 -1153 -1138 0
1154 -1153 1138 0
1154 1153 -1138 0
-1155 1154 1139 0
-1155 -1154 -1139 0
1155 -1154 1139 0
1155 1154 -1139 0
-1156 1155 1140 0
-1156 -1155 -1140 0
1156 -1155 1140 0
1156 1155 -1140 0
-1157 1156 1141 0
-1157 -1156 -1141 0
1157 -1156 1141 0
1157 1156 -1141 0
-1158 1157 1142 0
-1158 -1157 -1142 0
1158 -1157 1142 0
1158 1157 -1142 0
-1159 1158 1143 0
-1159 -1158 -1143 0
1159 -1158 1143 0
1159 1158 -1143 0
-1159 0
-1160 933 0
-1160 41 0
1160 -933 -41 0
-1161 935 0
-1161 45 0
1161 -935 -45 0
-1162 937 0
-1162 35 0
1162 -937 -35 0
-1163 939 0
-1163 36 0
1163 -939 -36 0
-1164 941 0
-1164 89 0
1164 -941 -89 0
-1165 943 0
-1165 83 0
1165 -943 -83 0
-1166 945 0
-1166 137 0
1166 -945 -137 0
-1167 947 0
-1167 131 0
1167 -947 -131 0
-1168 949 0
-1168 185 0
1168 -949 -185 0
-1169 951 0
-1169 189 0
1169 -951 -189 0
-1170 1160 1161 0
-1170 -1160 -1161 0
1170 -1160 1161 0
1170 1160 -1161 0
-1171 1170 1161 0
-1171 -1170 -1161 0
1171 -1170 1161 0
1171 1170 -1161 0
-1172 1171 1162 0
-1172 -1171 -1162 0
1172 -1171 1162 0
1172 1171 -1162 0
-1173 1172 1163 0
-1173 -1172 -1163 0
1173 -1172 1163 0
1173 1172 -1163 0
-1174 1173 1163 0
-1174 -1173 -1163 0
1174 -1173 1163 0
1174 1173 -1163 0
-1175 1174 1164 0
-1175 -1174 -1164 0
1175 -1174 1164 0
1175 1174 -1164 0
-1176 1175 1164 0
-1176 -1175 -1164 0
1176 -1175 1164 0
1176 1175 -1164 0
-1177 1176 1165 0
-1177 -1176 -1165 0
1177 -1176 1165 0
1177 1176 -1165 0
-1178 1177 1165 0
-1178 -1177 -1165 0
1178 -1177 1165 0
1178 1177 -1165 0
-1179 1178 1166 0
-1179 -1178 -1166 0
1179 -1178 1166 0
1179 1178 -1166 0
-1180 1179 1166 0
-1180 -1179 -1166 0
1180 -1179 1166 0
1180 1179 -1166 0
-1181 1180 1167 0
-1181 -1180 -1167 0
1181 -1180 1167 0
1181 1180 -1167 0
-1182 1181 1167 0
-1182 -1181 -1167 0
1182 -1181 1167 0
1182 1181 -1167 0
-1183 1182 1168 0
-1183 -1182 -1168 0
1183 -1182 1168 0
1183 1182 -1168 0
-1184 1183 1169 0
-1184 -1183 -1169 0
1184 -1183 1169 0
1184 1183 -1169 0
-1185 1184 1169 0
-1185 -1184 -1169 0
1185 -1184 1169 0
1185 1184 -1169 0
-1185 0
-1186 933 0
-1186 42 0
1186 -933 -42 0
-1187 935 0
-1187 46 0
1187 -935 -46 0
-1188 935 0
-1188 47 0
1188 -935 -47 0
-1189 937 0
-1189 39 0
1189 -937 -39 0
-1190 939 0
-1190 40 0
1190 -939 -40 0
-1191 939 0
-1191 44 0
1191 -939 -44 0
-1192 941 0
-1192 90 0
1192 -941 -90 0
-1193 941 0
-1193 92 0
1193 -941 -92 0
-1194 943 0
-1194 87 0
1194 -943 -87 0
-1195 943 0
-1195 95 0
1195 -943 -95 0
-1196 945 0
-1196 138 0
1196 -945 -138 0
-1197 945 0
-1197 140 0
1197 -945 -140 0
-1198 947 0
-1198 135 0
1198 -947 -135 0
-1199 947 0
-1199 143 0
1199 -947 -143 0
-1200 949 0
-1200 186 0
1200 -949 -186 0
-1201 951 0
-1201 190 0
1201 -951 -190 0
-1202 951 0
-1202 191 0
1202 -951 -191 0
-1203 1186 1187 0
-1203 -1186 -1187 0
1203 -1186 1187 0
1203 1186 -1187 0
-1204 1203 1188 0
-1204 -1203 -1188 0
1204 -1203 1188 0
1204 1203 -1188 0
-1205 1204 1189 0
-1205 -1204 -1189 0
1205 -1204 1189 0
1205 1204 -1189 0
-1206 1205 1190 0
-1206 -1205 -1190 0
1206 -1205 1190 0
1206 1205 -1190 0
-1207 1206 1191 0
-1207 -1206 -1191 0
1207 -1206 1191 0
1207 1206 -1191 0
-1208 1207 1192 0
-1208 -1207 -1192 0
1208 -1207 1192 0
1208 1207 -1192 0
-1209 1208 1193 0
-1209 -1208 -1193 0
1209 -1208 1193 0
1209 1208 -1193 0
-1210 1209 1194 0
-1210 -1209 -1194 0
1210 -1209 1194 0
1210 1209 -1194 0
-1211 1210 1195 0
-1211 -1210 -1195 0
1211 -1210 1195 0
1211 1210 -1195 0
-1212 1211 1196 0
-1212 -1211 -1196 0
1212 -1211 1196 0
1212 1211 -1196 0
-1213 1212 1197 0
-1213 -1212 -1197 0
1213 -1212 1197 0
1213 1212 -1197 0
-1214 1213 1198 0
-1214 -1213 -1198 0
1214 -1213 1198 0
1214 1213 -1198 0
-1215 1214 1199 0
-1215 -1214 -1199 0
1215 -1214 1199 0
1215 1214 -1199 0
-1216 1215 1200 0
-1216 -1215 -1200 0
1216 -1215 1200 0
1216 1215 -1200 0
-1217 1216 1201 0
-1217 -1216 -1201 0
1217 -1216 1201 0
1217 1216 -1201 0
-1218 1217 1202 0
-1218 -1217 -1202 0
1218 -1217 1202 0
1218 1217 -1202 0
-1218 0
-1219 933 0
-1219 43 0
1219 -933 -43 0
-1220 935 0
-1220 48 0
1220 -935 -48 0
-1221 937 0
-1221 43 0
1221 -937 -43 0
-1222 939 0
-1222 48 0
1222 -939 -48 0
-1223 941 0
-1223 91 0
1223 -941 -91 0
-1224 943 0
-1224 91 0
1224 -943 -91 0
-1225 945 0
-1225 139 0
1225 -945 -139 0
-1226 947 0
-1226 139 0
1226 -947 -139 0
-1227 949 0
-1227 187 0
1227 -949 -187 0
-1228 951 0
-1228 192 0
1228 -951 -192 0
-1229 1219 1220 0
-1229 -1219 -1220 0
1229 -1219 1220 0
1229 1219 -1220 0
-1230 1229 1220 0
-1230 -1229 -1220 0
1230 -1229 1220 0
1230 1229 -1220 0
-1231 1230 1221 0
-1231 -1230 -1221 0
1231 -1230 1221 0
1231 1230 -1221 0
-1232 1231 1222 0
-1232 -1231 -1222 0
1232 -1231 1222 0
1232 1231 -1222 0
-1233 1232 1222 0
-1233 -1232 -1222 0
1233 -1232 1222 0
1233 1232 -1222 0
-1234 1233 1223 0
-1234 -1233 -1223 0
1234 -1233 1223 0
1234 1233 -1223 0
-1235 1234 1223 0
-1235 -1234 -1223 0
1235 -1234 1223 0
1235 1234 -1223 0
-1236 1235 1224 0
-1236 -1235 -1224 0
1236 -1235 1224 0
1236 1235 -1224 0
-1237 1236 1224 0
-1237 -1236 -1224 0
1237 -1236 1224 0
1237 1236 -1224 0
-1238 1237 1225 0
-1238 -1237 -1225 0
1238 -1237 1225 0
1238 1237 -1225 0
-1239 1238 1225 0
-1239 -1238 -1225 0
1239 -1238 1225 0
1239 1238 -1225 0
-1240 1239 1226 0
-1240 -1239 -1226 0
1240 -1239 1226 0
1240 1239 -1226 0
-1241 1240 1226 0
-1241 -1240 -1226 0
1241 -1240 1226 0
1241 1240 -1226 0
-1242 1241 1227 0
-1242 -1241 -1227 0
1242 -1241 1227 0
1242 1241 -1227 0
-1243 1242 1228 0
-1243 -1242 -1228 0
1243 -1242 1228 0
1243 1242 -1228 0
-1244 1243 1228 0
-1244 -1243 -1228 0
1244 -1243 1228 0
1244 1243 -1228 0
-1244 0
-1245 1 0
-1245 21 0
1245 -1 -21 0
-1246 1245 0
-1246 33 0
1246 -1245 -33 0
-1247 2 0
-1247 17 0
1247 -2 -17 0
-1248 1247 0
-1248 33 0
1248 -1247 -33 0
-1249 2 0
-1249 25 0
1249 -2 -25 0
-1250 1249 0
-1250 33 0
1250 -1249 -33 0
-1251 21 0
-1251 3 0
1251 -21 -3 0
-1252 1251 0
-1252 33 0
1252 -1251 -33 0
-1253 49 0
-1253 69 0
1253 -49 -69 0
-1254 1253 0
-1254 81 0
1254 -1253 -81 0
-1255 49 0
-1255 73 0
1255 -49 -73 0
-1256 1255 0
-1256 81 0
1256 -1255 -81 0
-1257 65 0
-1257 50 0
1257 -65 -50 0
-1258 1257 0
-1258 81 0
1258 -1257 -81 0
-1259 65 0
-1259 51 0
1259 -65 -51 0
-1260 1259 0
-1260 81 0
1260 -1259 -81 0
-1261 97 0
-1261 117 0
1261 -97 -117 0
-1262 1261 0
-1262 129 0
1262 -1261 -129 0
-1263 97 0
-1263 121 0
1263 -97 -121 0
-1264 1263 0
-1264 129 0
1264 -1263 -129 0
-1265 113 0
-1265 98 0
1265 -113 -98 0
-1266 1265 0
-1266 129 0
1266 -1265 -129 0
-1267 113 0
-1267 99 0
1267 -113 -99 0
-1268 1267 0
-1268 129 0
1268 -1267 -129 0
-1269 145 0
-1269 165 0
1269 -145 -165 0
-1270 1269 0
-1270 177 0
1270 -1269 -177 0
-1271 146 0
-1271 161 0
1271 -146 -161 0
-1272 1271 0
-1272 177 0
1272 -1271 -177 0
-1273 146 0
-1273 169 0
1273 -146 -169 0
-1274 1273 0
-1274 177 0
1274 -1273 -177 0
-1275 1246 1248 0
-1275 -1246 -1248 0
1275 -1246 1248 0
1275 1246 -1248 0
-1276 1275 1250 0
-1276 -1275 -1250 0
1276 -1275 1250 0
1276 1275 -1250 0
-1277 1276 1248 0
-1277 -1276 -1248 0
1277 -1276 1248 0
1277 1276 -1248 0
-1278 1277 1246 0
-1278 -1277 -1246 0
1278 -1277 1246 0
1278 1277 -1246 0
-1279 1278 1252 0
-1279 -1278 -1252 0
1279 -1278 1252 0
1279 1278 -1252 0
-1280 1279 1254 0
-1280 -1279 -1254 0
1280 -1279 1254 0
1280 1279 -1254 0
-1281 1280 1256 0
-1281 -1280 -1256 0
1281 -1280 1256 0
1281 1280 -1256 0
-1282 1281 1258 0
-1282 -1281 -1258 0
1282 -1281 1258 0
1282 1281 -1258 0
-1283 1282 1260 0
-1283 -1282 -1260 0
1283 -1282 1260 0
1283 1282 -1260 0
-1284 1283 1262 0
-1284 -1283 -1262 0
1284 -1283 1262 0
1284 1283 -1262 0
-1285 1284 1264 0
-1285 -1284 -1264 0
1285 -1284 1264 0
1285 1284 -1264 0
-1286 1285 1266 0
-1286 -1285 -1266 0
1286 -1285 1266 0
1286 1285 -1266 0
-1287 1286 1268 0
-1287 -1286 -1268 0
1287 -1286 1268 0
1287 1286 -1268 0
-1288 1287 1270 0
-1288 -1287 -1270 0
1288 -1287 1270 0
1288 1287 -1270 0
-1289 1288 1272 0
-1289 -1288 -1272 0
1289 -1288 1272 0
1289 1288 -1272 0
-1290 1289 1274 0
-1290 -1289 -1274 0
1290 -1289 1274 0
1290 1289 -1274 0
-1290 0
-1291 1245 0
-1291 34 0
1291 -1245 -34 0
-1292 1247 0
-1292 34 0
1292 -1247 -34 0
-1293 1249 0
-1293 35 0
1293 -1249 -35 0
-1294 1247 0
-1294 37 0
1294 -1247 -37 0
-1295 1245 0
-1295 37 0
1295 -1245 -37 0
-1296 1251 0
-1296 41 0
1296 -1251 -41 0
-1297 1253 0
-1297 82 0
1297 -1253 -82 0
-1298 1255 0
-1298 84 0
1298 -1255 -84 0
-1299 1257 0
-1299 85 0
1299 -1257 -85 0
-1300 1259 0
-1300 93 0
1300 -1259 -93 0
-1301 1261 0
-1301 130 0
1301 -1261 -130 0
-1302 1263 0
-1302 132 0
1302 -1263 -132 0
-1303 1265 0
-1303 133 0
1303 -1265 -133 0
-1304 1267 0
-1304 141 0
1304 -1267 -141 0
-1305 1269 0
-1305 178 0
1305 -1269 -178 0
-1306 1271 0
-1306 178 0
1306 -1271 -178 0
-1307 1273 0
-1307 179 0
1307 -1273 -179 0
-1308 1291 1292 0
-1308 -1291 -1292 0
1308 -1291 1292 0
1308 1291 -1292 0
-1309 1308 1293 0
-1309 -1308 -1293 0
1309 -1308 1293 0
1309 1308 -1293 0
-1310 1309 1294 0
-1310 -1309 -1294 0
1310 -1309 1294 0
1310 1309 -1294 0
-1311 1310 1295 0
-1311 -1310 -1295 0
1311 -1310 1295 0
1311 1310 -1295 0
-1312 1311 1296 0
-1312 -1311 -1296 0
1312 -1311 1296 0
1312 1311 -1296 0
-1313 1312 1297 0
-1313 -1312 -1297 0
1313 -1312 1297 0
1313 1312 -1297 0
-1314 1313 1298 0
-1314 -1313 -1298 0
1314 -1313 1298 0
1314 1313 -1298 0
-1315 1314 1299 0
-1315 -1314 -1299 0
1315 -1314 1299 0
1315 1314 -1299 0
-1316 1315 1300 0
-1316 -1315 -1300 0
1316 -1315 1300 0
1316 1315 -1300 0
-1317 1316 1301 0
-1317 -1316 -1301 0
1317 -1316 1301 0
1317 1316 -1301 0
-1318 1317 1302 0
-1318 -1317 -1302 0
1318 -1317 1302 0
1318 1317 -1302 0
-1319 1318 1303 0
-1319 -1318 -1303 0
1319 -1318 1303 0
1319 1318 -1303 0
-1320 1319 1304 0
-1320 -1319 -1304 0
1320 -1319 1304 0
1320 1319 -1304 0
-1321 1320 1305 0
-1321 -1320 -1305 0
1321 -1320 1305 0
1321 1320 -1305 0
-1322 1321 1306 0
-1322 -1321 -1306 0
1322 -1321 1306 0
1322 1321 -1306 0
-1323 1322 1307 0
-1323 -1322 -1307 0
1323 -1322 1307 0
1323 1322 -1307 0
-1323 0
-1324 1245 0
-1324 35 0
1324 -1245 -35 0
-1325 1247 0
-1325 36 0
1325 -1247 -36 0
-1326 1249 0
-1326 36 0
1326 -1249 -36 0
-1327 1247 0
-1327 41 0
1327 -1247 -41 0
-1328 1245 0
-1328 45 0
1328 -1245 -45 0
-1329 1251 0
-1329 45 0
1329 -1251 -45 0
-1330 1253 0
-1330 83 0
1330 -1253 -83 0
-1331 1255 0
-1331 83 0
1331 -1255 -83 0
-1332 1257 0
-1332 89 0
1332 -1257 -89 0
-1333 1259 0
-1333 89 0
1333 -1259 -89 0
-1334 1261 0
-1334 131 0
1334 -1261 -131 0
-1335 1263 0
-1335 131 0
1335 -1263 -131 0
-1336 1265 0
-1336 137 0
1336 -1265 -137 0
-1337 1267 0
-1337 137 0
1337 -1267 -137 0
-1338 1269 0
-1338 179 0
1338 -1269 -179 0
-1339 1271 0
-1339 180 0
1339 -1271 -180 0
-1340 1273 0
-1340 180 0
1340 -1273 -180 0
-1341 1324 1325 0
-1341 -1324 -1325 0
1341 -1324 1325 0
1341 1324 -1325 0
-1342 1341 1326 0
-1342 -1341 -1326 0
1342 -1341 1326 0
1342 1341 -1326 0
-1343 1342 1327 0
-1343 -1342 -1327 0
1343 -1342 1327 0
1343 1342 -1327 0
-1344 1343 1328 0
-1344 -1343 -1328 0
1344 -1343 1328 0
1344 1343 -1328 0
-1345 1344 1329 0
-1345 -1344 -1329 0
1345 -1344 1329 0
1345 1344 -1329 0
-1346 1345 1330 0
-1346 -1345 -1330 0
1346 -1345 1330 0
1346 1345 -1330 0
-1347 1346 1331 0
-1347 -1346 -1331 0
1347 -1346 1331 0
1347 1346 -1331 0
-1348 1347 1332 0
-1348 -1347 -1332 0
1348 -1347 1332 0
1348 1347 -1332 0
-1349 1348 1333 0
-1349 -1348 -1333 0
1349 -1348 1333 0
1349 1348 -1333 0
-1350 1349 1334 0
-1350 -1349 -1334 0
1350 -1349 1334 0
1350 1349 -1334 0
-1351 1350 1335 0
-1351 -1350 -1335 0
1351 -1350 1335 0
1351 1350 -1335 0
-1352 1351 1336 0
-1352 -1351 -1336 0
1352 -1351 1336 0
1352 1351 -1336 0
-1353 1352 1337 0
-1353 -1352 -1337 0
1353 -1352 1337 0
1353 1352 -1337 0
-1354 1353 1338 0
-1354 -1353 -1338 0
1354 -1353 1338 0
1354 1353 -1338 0
-1355 1354 1339 0
-1355 -1354 -1339 0
1355 -1354 1339 0
1355 1354 -1339 0
-1356 1355 1340 0
-1356 -1355 -1340 0
1356 -1355 1340 0
1356 1355 -1340 0
1356 0
-1357 1245 0
-1357 36 0
1357 -1245 -36 0
-1358 1247 0
-1358 35 0
1358 -1247 -35 0
-1359 1249 0
-1359 34 0
1359 -1249 -34 0
-1360 1247 0
-1360 45 0
1360 -1247 -45 0
-1361 1245 0
-1361 41 0
1361 -1245 -41 0
-1362 1251 0
-1362 37 0
1362 -1251 -37 0
-1363 1253 0
-1363 84 0
1363 -1253 -84 0
-1364 1255 0
-1364 82 0
1364 -1255 -82 0
-1365 1257 0
-1365 93 0
1365 -1257 -93 0
-1366 1259 0
-1366 85 0
1366 -1259 -85 0
-1367 1261 0
-1367 132 0
1367 -1261 -132 0
-1368 1263 0
-1368 130 0
1368 -1263 -130 0
-1369 1265 0
-1369 141 0
1369 -1265 -141 0
-1370 1267 0
-1370 133 0
1370 -1267 -133 0
-1371 1269 0
-1371 180 0
1371 -1269 -180 0
-1372 1271 0
-1372 179 0
1372 -1271 -179 0
-1373 1273 0
-1373 178 0
1373 -1273 -178 0
-1374 1357 1358 0
-1374 -1357 -1358 0
1374 -1357 1358 0
1374 1357 -1358 0
-1375 1374 1359 0
-1375 -1374 -1359 0
1375 -1374 1359 0
1375 1374 -1359 0
-1376 1375 1360 0
-1376 -1375 -1360 0
1376 -1375 1360 0
1376 1375 -1360 0
-1377 1376 1361 0
-1377 -1376 -1361 0
1377 -1376 1361 0
1377 1376 -1361 0
-1378 1377 1362 0
-1378 -1377 -1362 0
1378 -1377 1362 0
1378 1377 -1362 0
-1379 1378 1363 0
-1379 -1378 -1363 0
1379 -1378 1363 0
1379 1378 -1363 0
-1380 1379 1364 0
-1380 -1379 -1364 0
1380 -1379 1364 0
1380 1379 -1364 0
-1381 1380 1365 0
-1381 -1380 -1365 0
1381 -1380 1365 0
1381 1380 -1365 0
-1382 1381 1366 0
-1382 -1381 -1366 0
1382 -1381 1366 0
1382 1381 -1366 0
-1383 1382 1367 0
-1383 -1382 -1367 0
1383 -1382 1367 0
1383 1382 -1367 0
-1384 1383 1368 0
-1384 -1383 -1368 0
1384 -1383 1368 0
1384 1383 -1368 0
-1385 1384 1369 0
-1385 -1384 -1369 0
1385 -1384 1369 0
1385 1384 -1369 0
-1386 1385 1370 0
-1386 -1385 -1370 0
1386 -1385 1370 0
1386 1385 -1370 0
-1387 1386 1371 0
-1387 -1386 -1371 0
1387 -1386 1371 0
1387 1386 -1371 0
-1388 1387 1372 0
-1388 -1387 -1372 0
1388 -1387 1372 0
1388 1387 -1372 0
-1389 1388 1373 0
-1389 -1388 -1373 0
1389 -1388 1373 0
1389 1388 -1373 0
-1389 0
-1390 1245 0
-1390 38 0
1390 -1245 -38 0
-1391 1247 0
-1391 38 0
1391 -1247 -38 0
-1392 1249 0
-1392 43 0
1392 -1249 -43 0
-1393 1251 0
-1393 43 0
1393 -1251 -43 0
-1394 1253 0
-1394 86 0
1394 -1253 -86 0
-1395 1255 0
-1395 96 0
1395 -1255 -96 0
-1396 1257 0
-1396 86 0
1396 -1257 -86 0
-1397 1259 0
-1397 96 0
1397 -1259 -96 0
-1398 1261 0
-1398 134 0
1398 -1261 -134 0
-1399 1263 0
-1399 144 0
1399 -1263 -144 0
-1400 1265 0
-1400 134 0
1400 -1265 -134 0
-1401 1267 0
-1401 144 0
1401 -1267 -144 0
-1402 1269 0
-1402 182 0
1402 -1269 -182 0
-1403 1271 0
-1403 182 0
1403 -1271 -182 0
-1404 1273 0
-1404 187 0
1404 -1273 -187 0
-1405 1390 1391 0
-1405 -1390 -1391 0
1405 -1390 1391 0
1405 1390 -1391 0
-1406 1405 1392 0
-1406 -1405 -1392 0
1406 -1405 1392 0
1406 1405 -1392 0
-1407 1406 1391 0
-1407 -1406 -1391 0
1407 -1406 1391 0
1407 1406 -1391 0
-1408 1407 1390 0
-1408 -1407 -1390 0
1408 -1407 1390 0
1408 1407 -1390 0
-1409 1408 1393 0
-1409 -1408 -1393 0
1409 -1408 1393 0
1409 1408 -1393 0
-1410 1409 1394 0
-1410 -1409 -1394 0
1410 -1409 1394 0
1410 1409 -1394 0
-1411 1410 1395 0
-1411 -1410 -1395 0
1411 -1410 1395 0
1411 1410 -1395 0
-1412 1411 1396 0
-1412 -1411 -1396 0
1412 -1411 1396 0
1412 1411 -1396 0
-1413 1412 1397 0
-1413 -1412 -1397 0
1413 -1412 1397 0
1413 1412 -1397 0
-1414 1413 1398 0
-1414 -1413 -1398 0
1414 -1413 1398 0
1414 1413 -1398 0
-1415 1414 1399 0
-1415 -1414 -1399 0
1415 -1414 1399 0
1415 1414 -1399 0
-1416 1415 1400 0
-1416 -1415 -1400 0
1416 -1415 1400 0
1416 1415 -1400 0
-1417 1416 1401 0
-1417 -1416 -1401 0
1417 -1416 1401 0
1417 1416 -1401 0
-1418 1417 1402 0
-1418 -1417 -1402 0
1418 -1417 1402 0
1418 1417 -1402 0
-1419 1418 1403 0
-1419 -1418 -1403 0
1419 -1418 1403 0
1419 1418 -1403 0
-1420 1419 1404 0
-1420 -1419 -1404 0
1420 -1419 1404 0
1420 1419 -1404 0
-1420 0
-1421 1245 0
-1421 39 0
1421 -1245 -39 0
-1422 1247 0
-1422 40 0
1422 -1247 -40 0
-1423 1249 0
-1423 44 0
1423 -1249 -44 0
-1424 1247 0
-1424 42 0
1424 -1247 -42 0
-1425 1245 0
-1425 46 0
1425 -1245 -46 0
-1426 1251 0
-1426 47 0
1426 -1251 -47 0
-1427 1253 0
-1427 87 0
1427 -1253 -87 0
-1428 1255 0
-1428 95 0
1428 -1255 -95 0
-1429 1257 0
-1429 90 0
1429 -1257 -90 0
-1430 1259 0
-1430 92 0
1430 -1259 -92 0
-1431 1261 0
-1431 135 0
1431 -1261 -135 0
-1432 1263 0
-1432 143 0
1432 -1263 -143 0
-1433 1265 0
-1433 138 0
1433 -1265 -138 0
-1434 1267 0
-1434 140 0
1434 -1267 -140 0
-1435 1269 0
-1435 183 0
1435 -1269 -183 0
-1436 1271 0
-1436 184 0
1436 -1271 -184 0
-1437 1273 0
-1437 188 0
1437 -1273 -188 0
-1438 1421 1422 0
-1438 -1421 -1422 0
1438 -1421 1422 0
1438 1421 -1422 0
-1439 1438 1423 0
-1439 -1438 -1423 0
1439 -1438 1423 0
1439 1438 -1423 0
-1440 1439 1424 0
-1440 -1439 -1424 0
1440 -1439 1424 0
1440 1439 -1424 0
-1441 1440 1425 0
-1441 -1440 -1425 0
1441 -1440 1425 0
1441 1440 -1425 0
-1442 1441 1426 0
-1442 -1441 -1426 0
1442 -1441 1426 0
1442 1441 -1426 0
-1443 1442 1427 0
-1443 -1442 -1427 0
1443 -1442 1427 0
1443 1442 -1427 0
-1444 1443 1428 0
-1444 -1443 -1428 0
1444 -1443 1428 0
1444 1443 -1428 0
-1445 1444 1429 0
-1445 -1444 -1429 0
1445 -1444 1429 0
1445 1444 -1429 0
-1446 1445 1430 0
-1446 -1445 -1430 0
1446 -1445 1430 0
1446 1445 -1430 0
-1447 1446 1431 0
-1447 -1446 -1431 0
1447 -1446 1431 0
1447 1446 -1431 0
-1448 1447 1432 0
-1448 -1447 -1432 0
1448 -1447 1432 0
1448 1447 -1432 0
-1449 1448 1433 0
-1449 -1448 -1433 0
1449 -1448 1433 0
1449 1448 -1433 0
-1450 1449 1434 0
-1450 -1449 -1434 0
1450 -1449 1434 0
1450 1449 -1434 0
-1451 1450 1435 0
-1451 -1450 -1435 0
1451 -1450 1435 0
1451 1450 -1435 0
-1452 1451 1436 0
-1452 -1451 -1436 0
1452 -1451 1436 0
1452 1451 -1436 0
-1453 1452 1437 0
-1453 -1452 -1437 0
1453 -1452 1437 0
1453 1452 -1437 0
-1453 0
-1454 1245 0
-1454 40 0
1454 -1245 -40 0
-1455 1247 0
-1455 39 0
1455 -1247 -39 0
-1456 1249 0
-1456 42 0
1456 -1249 -42 0
-1457 1247 0
-1457 46 0
1457 -1247 -46 0
-1458 1245 0
-1458 42 0
1458 -1245 -42 0
-1459 1251 0
-1459 39 0
1459 -1251 -39 0
-1460 1253 0
-1460 88 0
1460 -1253 -88 0
-1461 1255 0
-1461 94 0
1461 -1255 -94 0
-1462 1257 0
-1462 94 0
1462 -1257 -94 0
-1463 1259 0
-1463 88 0
1463 -1259 -88 0
-1464 1261 0
-1464 136 0
1464 -1261 -136 0
-1465 1263 0
-1465 142 0
1465 -1263 -142 0
-1466 1265 0
-1466 142 0
1466 -1265 -142 0
-1467 1267 0
-1467 136 0
1467 -1267 -136 0
-1468 1269 0
-1468 184 0
1468 -1269 -184 0
-1469 1271 0
-1469 183 0
1469 -1271 -183 0
-1470 1273 0
-1470 186 0
1470 -1273 -186 0
-1471 1454 1455 0
-1471 -1454 -1455 0
1471 -1454 1455 0
1471 1454 -1455 0
-1472 1471 1456 0
-1472 -1471 -1456 0
1472 -1471 1456 0
1472 1471 -1456 0
-1473 1472 1457 0
-1473 -1472 -1457 0
1473 -1472 1457 0
1473 1472 -1457 0
-1474 1473 1458 0
-1474 -1473 -1458 0
1474 -1473 1458 0
1474 1473 -1458 0
-1475 1474 1459 0
-1475 -1474 -1459 0
1475 -1474 1459 0
1475 1474 -1459 0
-1476 1475 1460 0
-1476 -1475 -1460 0
1476 -1475 1460 0
1476 1475 -1460 0
-1477 1476 1461 0
-1477 -1476 -1461 0
1477 -1476 1461 0
1477 1476 -1461 0
-1478 1477 1462 0
-1478 -1477 -1462 0
1478 -1477 1462 0
1478 1477 -1462 0
-1479 1478 1463 0
-1479 -1478 -1463 0
1479 -1478 1463 0
1479 1478 -1463 0
-1480 1479 1464 0
-1480 -1479 -1464 0
1480 -1479 1464 0
1480 1479 -1464 0
-1481 1480 1465 0
-1481 -1480 -1465 0
1481 -1480 1465 0
1481 1480 -1465 0
-1482 1481 1466 0
-1482 -1481 -1466 0
1482 -1481 1466 0
1482 1481 -1466 0
-1483 1482 1467 0
-1483 -1482 -1467 0
1483 -1482 1467 0
1483 1482 -1467 0
-1484 1483 1468 0
-1484 -1483 -1468 0
1484 -1483 1468 0
1484 1483 -1468 0
-1485 1484 1469 0
-1485 -1484 -1469 0
1485 -1484 1469 0
1485 1484 -1469 0
-1486 1485 1470 0
-1486 -1485 -1470 0
1486 -1485 1470 0
1486 1485 -1470 0
-1486 0
-1487 1245 0
-1487 43 0
1487 -1245 -43 0
-1488 1247 0
-1488 48 0
1488 -1247 -48 0
-1489 1249 0
-1489 48 0
1489 -1249 -48 0
-1490 1247 0
-1490 43 0
1490 -1247 -43 0
-1491 1245 0
-1491 48 0
1491 -1245 -48 0
-1492 1251 0
-1492 48 0
1492 -1251 -48 0
-1493 1253 0
-1493 91 0
1493 -1253 -91 0
-1494 1255 0
-1494 91 0
1494 -1255 -91 0
-1495 1257 0
-1495 91 0
1495 -1257 -91 0
-1496 1259 0
-1496 91 0
1496 -1259 -91 0
-1497 1261 0
-1497 139 0
1497 -1261 -139 0
-1498 1263 0
-1498 139 0
1498 -1263 -139 0
-1499 1265 0
-1499 139 0
1499 -1265 -139 0
-1500 1267 0
-1500 139 0
1500 -1267 -139 0
-1501 1269 0
-1501 187 0
1501 -1269 -187 0
-1502 1271 0
-1502 192 0
1502 -1271 -192 0
-1503 1273 0
-1503 192 0
1503 -1273 -192 0
-1504 1487 1488 0
-1504 -1487 -1488 0
1504 -1487 1488 0
1504 1487 -1488 0
-1505 1504 1489 0
-1505 -1504 -1489 0
1505 -1504 1489 0
1505 1504 -1489 0
-1506 1505 1490 0
-1506 -1505 -1490 0
1506 -1505 1490 0
1506 1505 -1490 0
-1507 1506 1491 0
-1507 -1506 -1491 0
1507 -1506 1491 0
1507 1506 -1491 0
-1508 1507 1492 0
-1508 -1507 -1492 0
1508 -1507 1492 0
1508 1507 -1492 0
-1509 1508 1493 0
-1509 -1508 -1493 0
1509 -1508 1493 0
1509 1508 -1493 0
-1510 1509 1494 0
-1510 -1509 -1494 0
1510 -1509 1494 0
1510 1509 -1494 0
-1511 1510 1495 0
-1511 -1510 -1495 0
1511 -1510 1495 0
1511 1510 -1495 0
-1512 1511 1496 0
-1512 -1511 -1496 0
1512 -1511 1496 0
1512 1511 -1496 0
-1513 1512 1497 0
-1513 -1512 -1497 0
1513 -1512 1497 0
1513 1512 -1497 0
-1514 1513 1498 0
-1514 -1513 -1498 0
1514 -1513 1498 0
1514 1513 -1498 0
-1515 1514 1499 0
-1515 -1514 -1499 0
1515 -1514 1499 0
1515 1514 -1499 0
-1516 1515 1500 0
-1516 -1515 -1500 0
1516 -1515 1500 0
1516 1515 -1500 0
-1517 1516 1501 0
-1517 -1516 -1501 0
1517 -1516 1501 0
1517 1516 -1501 0
-1518 1517 1502 0
-1518 -1517 -1502 0
1518 -1517 1502 0
1518 1517 -1502 0
-1519 1518 1503 0
-1519 -1518 -1503 0
1519 -1518 1503 0
1519 1518 -1503 0
-1519 0
-1520 1245 0
-1520 44 0
1520 -1245 -44 0
-1521 1247 0
-1521 47 0
1521 -1247 -47 0
-1522 1249 0
-1522 46 0
1522 -1249 -46 0
-1523 1251 0
-1523 40 0
1523 -1251 -40 0
-1524 1253 0
-1524 92 0
1524 -1253 -92 0
-1525 1255 0
-1525 90 0
1525 -1255 -90 0
-1526 1257 0
-1526 95 0
1526 -1257 -95 0
-1527 1259 0
-1527 87 0
1527 -1259 -87 0
-1528 1261 0
-1528 140 0
1528 -1261 -140 0
-1529 1263 0
-1529 138 0
1529 -1263 -138 0
-1530 1265 0
-1530 143 0
1530 -1265 -143 0
-1531 1267 0
-1531 135 0
1531 -1267 -135 0
-1532 1269 0
-1532 188 0
1532 -1269 -188 0
-1533 1271 0
-1533 191 0
1533 -1271 -191 0
-1534 1273 0
-1534 190 0
1534 -1273 -190 0
-1535 1520 1521 0
-1535 -1520 -1521 0
1535 -1520 1521 0
1535 1520 -1521 0
-1536 1535 1522 0
-1536 -1535 -1522 0
1536 -1535 1522 0
1536 1535 -1522 0
-1537 1536 1521 0
-1537 -1536 -1521 0
1537 -1536 1521 0
1537 1536 -1521 0
-1538 1537 1520 0
-1538 -1537 -1520 0
1538 -1537 1520 0
1538 1537 -1520 0
-1539 1538 1523 0
-1539 -1538 -1523 0
1539 -1538 1523 0
1539 1538 -1523 0
-1540 1539 1524 0
-1540 -1539 -1524 0
1540 -1539 1524 0
1540 1539 -1524 0
-1541 1540 1525 0
-1541 -1540 -1525 0
1541 -1540 1525 0
1541 1540 -1525 0
-1542 1541 1526 0
-1542 -1541 -1526 0
1542 -1541 1526 0
1542 1541 -1526 0
-1543 1542 1527 0
-1543 -1542 -1527 0
1543 -1542 1527 0
1543 1542 -1527 0
-1544 1543 1528 0
-1544 -1543 -1528 0
1544 -1543 1528 0
1544 1543 -1528 0
-1545 1544 1529 0
-1545 -1544 -1529 0
1545 -1544 1529 0
1545 1544 -1529 0
-1546 1545 1530 0
-1546 -1545 -1530 0
1546 -1545 1530 0
1546 1545 -1530 0
-1547 1546 1531 0
-1547 -1546 -1531 0
1547 -1546 1531 0
1547 1546 -1531 0
-1548 1547 1532 0
-1548 -1547 -1532 0
1548 -1547 1532 0
1548 1547 -1532 0
-1549 1548 1533 0
-1549 -1548 -1533 0
1549 -1548 1533 0
1549 1548 -1533 0
-1550 1549 1534 0
-1550 -1549 -1534 0
1550 -1549 1534 0
1550 1549 -1534 0
-1550 0
-1551 1245 0
-1551 47 0
1551 -1245 -47 0
-1552 1247 0
-1552 44 0
1552 -1247 -44 0
-1553 1249 0
-1553 40 0
1553 -1249 -40 0
-1554 1251 0
-1554 46 0
1554 -1251 -46 0
-1555 1253 0
-1555 95 0
1555 -1253 -95 0
-1556 1255 0
-1556 87 0
1556 -1255 -87 0
-1557 1257 0
-1557 92 0
1557 -1257 -92 0
-1558 1259 0
-1558 90 0
1558 -1259 -90 0
-1559 1261 0
-1559 143 0
1559 -1261 -143 0
-1560 1263 0
-1560 135 0
1560 -1263 -135 0
-1561 1265 0
-1561 140 0
1561 -1265 -140 0
-1562 1267 0
-1562 138 0
1562 -1267 -138 0
-1563 1269 0
-1563 191 0
1563 -1269 -191 0
-1564 1271 0
-1564 188 0
1564 -1271 -188 0
-1565 1273 0
-1565 184 0
1565 -1273 -184 0
-1566 1551 1552 0
-1566 -1551 -1552 0
1566 -1551 1552 0
1566 1551 -1552 0
-1567 1566 1553 0
-1567 -1566 -1553 0
1567 -1566 1553 0
1567 1566 -1553 0
-1568 1567 1552 0
-1568 -1567 -1552 0
1568 -1567 1552 0
1568 1567 -1552 0
-1569 1568 1551 0
-1569 -1568 -1551 0
1569 -1568 1551 0
1569 1568 -1551 0
-1570 1569 1554 0
-1570 -1569 -1554 0
1570 -1569 1554 0
1570 1569 -1554 0
-1571 1570 1555 0
-1571 -1570 -1555 0
1571 -1570 1555 0
1571 1570 -1555 0
-1572 1571 1556 0
-1572 -1571 -1556 0
1572 -1571 1556 0
1572 1571 -1556 0
-1573 1572 1557 0
-1573 -1572 -1557 0
1573 -1572 1557 0
1573 1572 -1557 0
-1574 1573 1558 0
-1574 -1573 -1558 0
1574 -1573 1558 0
1574 1573 -1558 0
-1575 1574 1559 0
-1575 -1574 -1559 0
1575 -1574 1559 0
1575 1574 -1559 0
-1576 1575 1560 0
-1576 -1575 -1560 0
1576 -1575 1560 0
1576 1575 -1560 0
-1577 1576 1561 0
-1577 -1576 -1561 0
1577 -1576 1561 0
1577 1576 -1561 0
-1578 1577 1562 0
-1578 -1577 -1562 0
1578 -1577 1562 0
1578 1577 -1562 0
-1579 1578 1563 0
-1579 -1578 -1563 0
1579 -1578 1563 0
1579 1578 -1563 0
-1580 1579 1564 0
-1580 -1579 -1564 0
1580 -1579 1564 0
1580 1579 -1564 0
-1581 1580 1565 0
-1581 -1580 -1565 0
1581 -1580 1565 0
1581 1580 -1565 0
-1581 0
-1582 1 0
-1582 22 0
1582 -1 -22 0
-1583 1582 0
-1583 33 0
1583 -1582 -33 0
-1584 2 0
-1584 18 0
1584 -2 -18 0
-1585 1584 0
-1585 33 0
1585 -1584 -33 0
-1586 2 0
-1586 27 0
1586 -2 -27 0
-1587 1586 0
-1587 33 0
1587 -1586 -33 0
-1588 17 0
-1588 6 0
1588 -17 -6 0
-1589 1588 0
-1589 33 0
1589 -1588 -33 0
-1590 21 0
-1590 5 0
1590 -21 -5 0
-1591 1590 0
-1591 33 0
1591 -1590 -33 0
-1592 21 0
-1592 11 0
1592 -21 -11 0
-1593 1592 0
-1593 33 0
1593 -1592 -33 0
-1594 49 0
-1594 70 0
1594 -49 -70 0
-1595 1594 0
-1595 81 0
1595 -1594 -81 0
-1596 49 0
-1596 76 0
1596 -49 -76 0
-1597 1596 0
-1597 81 0
1597 -1596 -81 0
-1598 65 0
-1598 54 0
1598 -65 -54 0
-1599 1598 0
-1599 81 0
1599 -1598 -81 0
-1600 65 0
-1600 63 0
1600 -65 -63 0
-1601 1600 0
-1601 81 0
1601 -1600 -81 0
-1602 97 0
-1602 118 0
1602 -97 -118 0
-1603 1602 0
-1603 129 0
1603 -1602 -129 0
-1604 97 0
-1604 124 0
1604 -97 -124 0
-1605 1604 0
-1605 129 0
1605 -1604 -129 0
-1606 113 0
-1606 102 0
1606 -113 -102 0
-1607 1606 0
-1607 129 0
1607 -1606 -129 0
-1608 113 0
-1608 111 0
1608 -113 -111 0
-1609 1608 0
-1609 129 0
1609 -1608 -129 0
-1610 145 0
-1610 166 0
1610 -145 -166 0
-1611 1610 0
-1611 177 0
1611 -1610 -177 0
-1612 146 0
-1612 162 0
1612 -146 -162 0
-1613 1612 0
-1613 177 0
1613 -1612 -177 0
-1614 146 0
-1614 171 0
1614 -146 -171 0
-1615 1614 0
-1615 177 0
1615 -1614 -177 0
-1616 1583 1585 0
-1616 -1583 -1585 0
1616 -1583 1585 0
1616 1583 -1585 0
-1617 1616 1587 0
-1617 -1616 -1587 0
1617 -1616 1587 0
1617 1616 -1587 0
-1618 1617 1589 0
-1618 -1617 -1589 0
1618 -1617 1589 0
1618 1617 -1589 0
-1619 1618 1591 0
-1619 -1618 -1591 0
1619 -1618 1591 0
1619 1618 -1591 0
-1620 1619 1593 0
-1620 -1619 -1593 0
1620 -1619 1593 0
1620 1619 -1593 0
-1621 1620 1595 0
-1621 -1620 -1595 0
1621 -1620 1595 0
1621 1620 -1595 0
-1622 1621 1597 0
-1622 -1621 -1597 0
1622 -1621 1597 0
1622 1621 -1597 0
-1623 1622 1599 0
-1623 -1622 -1599 0
1623 -1622 1599 0
1623 1622 -1599 0
-1624 1623 1601 0
-1624 -1623 -1601 0
1624 -1623 1601 0
1624 1623 -1601 0
-1625 1624 1603 0
-1625 -1624 -1603 0
1625 -1624 1603 0
1625 1624 -1603 0
-1626 1625 1605 0
-1626 -1625 -1605 0
1626 -1625 1605 0
1626 1625 -1605 0
-1627 1626 1607 0
-1627 -1626 -1607 0
1627 -1626 1607 0
1627 1626 -1607 0
-1628 1627 1609 0
-1628 -1627 -1609 0
1628 -1627 1609 0
1628 1627 -1609 0
-1629 1628 1611 0
-1629 -1628 -1611 0
1629 -1628 1611 0
1629 1628 -1611 0
-1630 1629 1613 0
-1630 -1629 -1613 0
1630 -1629 1613 0
1630 1629 -1613 0
-1631 1630 1615 0
-1631 -1630 -1615 0
1631 -1630 1615 0
1631 1630 -1615 0
-1631 0
-1632 1582 0
-1632 34 0
1632 -1582 -34 0
-1633 1584 0
-1633 34 0
1633 -1584 -34 0
-1634 1586 0
-1634 35 0
1634 -1586 -35 0
-1635 1588 0
-1635 37 0
1635 -1588 -37 0
-1636 1590 0
-1636 37 0
1636 -1590 -37 0
-1637 1592 0
-1637 41 0
1637 -1592 -41 0
-1638 1594 0
-1638 82 0
1638 -1594 -82 0
-1639 1596 0
-1639 84 0
1639 -1596 -84 0
-1640 1598 0
-1640 85 0
1640 -1598 -85 0
-1641 1600 0
-1641 93 0
1641 -1600 -93 0
-1642 1602 0
-1642 130 0
1642 -1602 -130 0
-1643 1604 0
-1643 132 0
1643 -1604 -132 0
-1644 1606 0
-1644 133 0
1644 -1606 -133 0
-1645 1608 0
-1645 141 0
1645 -1608 -141 0
-1646 1610 0
-1646 178 0
1646 -1610 -178 0
-1647 1612 0
-1647 178 0
1647 -1612 -178 0
-1648 1614 0
-1648 179 0
1648 -1614 -179 0
-1649 1632 1633 0
-1649 -1632 -1633 0
1649 -1632 1633 0
1649 1632 -1633 0
-1650 1649 1634 0
-1650 -1649 -1634 0
1650 -1649 1634 0
1650 1649 -1634 0
-1651 1650 1635 0
-1651 -1650 -1635 0
1651 -1650 1635 0
1651 1650 -1635 0
-1652 1651 1636 0
-1652 -1651 -1636 0
1652 -1651 1636 0
1652 1651 -1636 0
-1653 1652 1637 0
-1653 -1652 -1637 0
1653 -1652 1637 0
1653 1652 -1637 0
-1654 1653 1638 0
-1654 -1653 -1638 0
1654 -1653 1638 0
1654 1653 -1638 0
-1655 1654 1639 0
-1655 -1654 -1639 0
1655 -1654 1639 0
1655 1654 -1639 0
-1656 1655 1640 0
-1656 -1655 -1640 0
1656 -1655 1640 0
1656 1655 -1640 0
-1657 1656 1641 0
-1657 -1656 -1641 0
1657 -1656 1641 0
1657 1656 -1641 0
-1658 1657 1642 0
-1658 -1657 -1642 0
1658 -1657 1642 0
1658 1657 -1642 0
-1659 1658 1643 0
-1659 -1658 -1643 0
1659 -1658 1643 0
1659 1658 -1643 0
-1660 1659 1644 0
-1660 -1659 -1644 0
1660 -1659 1644 0
1660 1659 -1644 0
-1661 1660 1645 0
-1661 -1660 -1645 0
1661 -1660 1645 0
1661 1660 -1645 0
-1662 1661 1646 0
-1662 -1661 -1646 0
1662 -1661 1646 0
1662 1661 -1646 0
-1663 1662 1647 0
-1663 -1662 -1647 0
1663 -1662 1647 0
1663 1662 -1647 0
-1664 1663 1648 0
-1664 -1663 -1648 0
1664 -1663 1648 0
1664 1663 -1648 0
-1664 0
-1665 1582 0
-1665 35 0
1665 -1582 -35 0
-1666 1584 0
-1666 36 0
1666 -1584 -36 0
-1667 1586 0
-1667 36 0
1667 -1586 -36 0
-1668 1588 0
-1668 41 0
1668 -1588 -41 0
-1669 1590 0
-1669 45 0
1669 -1590 -45 0
-1670 1592 0
-1670 45 0
1670 -1592 -45 0
-1671 1594 0
-1671 83 0
1671 -1594 -83 0
-1672 1596 0
-1672 83 0
1672 -1596 -83 0
-1673 1598 0
-1673 89 0
1673 -1598 -89 0
-1674 1600 0
-1674 89 0
1674 -1600 -89 0
-1675 1602 0
-1675 131 0
1675 -1602 -131 0
-1676 1604 0
-1676 131 0
1676 -1604 -131 0
-1677 1606 0
-1677 137 0
1677 -1606 -137 0
-1678 1608 0
-1678 137 0
1678 -1608 -137 0
-1679 1610 0
-1679 179 0
1679 -1610 -179 0
-1680 1612 0
-1680 180 0
1680 -1612 -180 0
-1681 1614 0
-1681 180 0
1681 -1614 -180 0
-1682 1665 1666 0
-1682 -1665 -1666 0
1682 -1665 1666 0
1682 1665 -1666 0
-1683 1682 1667 0
-1683 -1682 -1667 0
1683 -1682 1667 0
1683 1682 -1667 0
-1684 1683 1668 0
-1684 -1683 -1668 0
1684 -1683 1668 0
1684 1683 -1668 0
-1685 1684 1669 0
-1685 -1684 -1669 0
1685 -1684 1669 0
1685 1684 -1669 0
-1686 1685 1670 0
-1686 -1685 -1670 0
1686 -1685 1670 0
1686 1685 -1670 0
-1687 1686 1671 0
-1687 -1686 -1671 0
1687 -1686 1671 0
1687 1686 -1671 0
-1688 1687 1672 0
-1688 -1687 -1672 0
1688 -1687 1672 0
1688 1687 -1672 0
-1689 1688 1673 0
-1689 -1688 -1673 0
1689 -1688 1673 0
1689 1688 -1673 0
-1690 1689 1674 0
-1690 -1689 -1674 0
1690 -1689 1674 0
1690 1689 -1674 0
-1691 1690 1675 0
-1691 -1690 -1675 0
1691 -1690 1675 0
1691 1690 -1675 0
-1692 1691 1676 0
-1692 -1691 -1676 0
1692 -1691 1676 0
1692 1691 -1676 0
-1693 1692 1677 0
-1693 -1692 -1677 0
1693 -1692 1677 0
1693 1692 -1677 0
-1694 1693 1678 0
-1694 -1693 -1678 0
1694 -1693 1678 0
1694 1693 -1678 0
-1695 1694 1679 0
-1695 -1694 -1679 0
1695 -1694 1679 0
1695 1694 -1679 0
-1696 1695 1680 0
-1696 -1695 -1680 0
1696 -1695 1680 0
1696 1695 -1680 0
-1697 1696 1681 0
-1697 -1696 -1681 0
1697 -1696 1681 0
1697 1696 -1681 0
-1697 0
-1698 1582 0
-1698 36 0
1698 -1582 -36 0
-1699 1584 0
-1699 35 0
1699 -1584 -35 0
-1700 1586 0
-1700 34 0
1700 -1586 -34 0
-1701 1588 0
-1701 45 0
1701 -1588 -45 0
-1702 1590 0
-1702 41 0
1702 -1590 -41 0
-1703 1592 0
-1703 37 0
1703 -1592 -37 0
-1704 1594 0
-1704 84 0
1704 -1594 -84 0
-1705 1596 0
-1705 82 0
1705 -1596 -82 0
-1706 1598 0
-1706 93 0
1706 -1598 -93 0
-1707 1600 0
-1707 85 0
1707 -1600 -85 0
-1708 1602 0
-1708 132 0
1708 -1602 -132 0
-1709 1604 0
-1709 130 0
1709 -1604 -130 0
-1710 1606 0
-1710 141 0
1710 -1606 -141 0
-1711 1608 0
-1711 133 0
1711 -1608 -133 0
-1712 1610 0
-1712 180 0
1712 -1610 -180 0
-1713 1612 0
-1713 179 0
1713 -1612 -179 0
-1714 1614 0
-1714 178 0
1714 -1614 -178 0
-1715 1698 1699 0
-1715 -1698 -1699 0
1715 -1698 1699 0
1715 1698 -1699 0
-1716 1715 1700 0
-1716 -1715 -1700 0
1716 -1715 1700 0
1716 1715 -1700 0
-1717 1716 1701 0
-1717 -1716 -1701 0
1717 -1716 1701 0
1717 1716 -1701 0
-1718 1717 1702 0
-1718 -1717 -1702 0
1718 -1717 1702 0
1718 1717 -1702 0
-1719 1718 1703 0
-1719 -1718 -1703 0
1719 -1718 1703 0
1719 1718 -1703 0
-1720 1719 1704 0
-1720 -1719 -1704 0
1720 -1719 1704 0
1720 1719 -1704 0
-1721 1720 1705 0
-1721 -1720 -1705 0
1721 -1720 1705 0
1721 1720 -1705 0
-1722 1721 1706 0
-1722 -1721 -1706 0
1722 -1721 1706 0
1722 1721 -1706 0
-1723 1722 1707 0
-1723 -1722 -1707 0
1723 -1722 1707 0
1723 1722 -1707 0
-1724 1723 1708 0
-1724 -1723 -1708 0
1724 -1723 1708 0
1724 1723 -1708 0
-1725 1724 1709 0
-1725 -1724 -1709 0
1725 -1724 1709 0
1725 1724 -1709 0
-1726 1725 1710 0
-1726 -1725 -1710 0
1726 -1725 1710 0
1726 1725 -1710 0
-1727 1726 1711 0
-1727 -1726 -1711 0
1727 -1726 1711 0
1727 1726 -1711 0
-1728 1727 1712 0
-1728 -1727 -1712 0
1728 -1727 1712 0
1728 1727 -1712 0
-1729 1728 1713 0
-1729 -1728 -1713 0
1729 -1728 1713 0
1729 1728 -1713 0
-1730 1729 1714 0
-1730 -1729 -1714 0
1730 -1729 1714 0
1730 1729 -1714 0
-1730 0
-1731 1582 0
-1731 37 0
1731 -1582 -37 0
-1732 1584 0
-1732 37 0
1732 -1584 -37 0
-1733 1586 0
-1733 41 0
1733 -1586 -41 0
-1734 1588 0
-1734 34 0
1734 -1588 -34 0
-1735 1590 0
-1735 34 0
1735 -1590 -34 0
-1736 1592 0
-1736 35 0
1736 -1592 -35 0
-1737 1594 0
-1737 85 0
1737 -1594 -85 0
-1738 1596 0
-1738 93 0
1738 -1596 -93 0
-1739 1598 0
-1739 82 0
1739 -1598 -82 0
-1740 1600 0
-1740 84 0
1740 -1600 -84 0
-1741 1602 0
-1741 133 0
1741 -1602 -133 0
-1742 1604 0
-1742 141 0
1742 -1604 -141 0
-1743 1606 0
-1743 130 0
1743 -1606 -130 0
-1744 1608 0
-1744 132 0
1744 -1608 -132 0
-1745 1610 0
-1745 181 0
1745 -1610 -181 0
-1746 1612 0
-1746 181 0
1746 -1612 -181 0
-1747 1614 0
-1747 185 0
1747 -1614 -185 0
-1748 1731 1732 0
-1748 -1731 -1732 0
1748 -1731 1732 0
1748 1731 -1732 0
-1749 1748 1733 0
-1749 -1748 -1733 0
1749 -1748 1733 0
1749 1748 -1733 0
-1750 1749 1734 0
-1750 -1749 -1734 0
1750 -1749 1734 0
1750 1749 -1734 0
-1751 1750 1735 0
-1751 -1750 -1735 0
1751 -1750 1735 0
1751 1750 -1735 0
-1752 1751 1736 0
-1752 -1751 -1736 0
1752 -1751 1736 0
1752 1751 -1736 0
-1753 1752 1737 0
-1753 -1752 -1737 0
1753 -1752 1737 0
1753 1752 -1737 0
-1754 1753 1738 0
-1754 -1753 -1738 0
1754 -1753 1738 0
1754 1753 -1738 0
-1755 1754 1739 0
-1755 -1754 -1739 0
1755 -1754 1739 0
1755 1754 -1739 0
-1756 1755 1740 0
-1756 -1755 -1740 0
1756 -1755 1740 0
1756 1755 -1740 0
-1757 1756 1741 0
-1757 -1756 -1741 0
1757 -1756 1741 0
1757 1756 -1741 0
-1758 1757 1742 0
-1758 -1757 -1742 0
1758 -1757 1742 0
1758 1757 -1742 0
-1759 1758 1743 0
-1759 -1758 -1743 0
1759 -1758 1743 0
1759 1758 -1743 0
-1760 1759 1744 0
-1760 -1759 -1744 0
1760 -1759 1744 0
1760 1759 -1744 0
-1761 1760 1745 0
-1761 -1760 -1745 0
1761 -1760 1745 0
1761 1760 -1745 0
-1762 1761 1746 0
-1762 -1761 -1746 0
1762 -1761 1746 0
1762 1761 -1746 0
-1763 1762 1747 0
-1763 -1762 -1747 0
1763 -1762 1747 0
1763 1762 -1747 0
-1763 0
-1764 1582 0
-1764 38 0
1764 -1582 -38 0
-1765 1584 0
-1765 38 0
1765 -1584 -38 0
-1766 1586 0
-1766 43 0
1766 -1586 -43 0
-1767 1588 0
-1767 38 0
1767 -1588 -38 0
-1768 1590 0
-1768 38 0
1768 -1590 -38 0
-1769 1592 0
-1769 43 0
1769 -1592 -43 0
-1770 1594 0
-1770 86 0
1770 -1594 -86 0
-1771 1596 0
-1771 96 0
1771 -1596 -96 0
-1772 1598 0
-1772 86 0
1772 -1598 -86 0
-1773 1600 0
-1773 96 0
1773 -1600 -96 0
-1774 1602 0
-1774 134 0
1774 -1602 -134 0
-1775 1604 0
-1775 144 0
1775 -1604 -144 0
-1776 1606 0
-1776 134 0
1776 -1606 -134 0
-1777 1608 0
-1777 144 0
1777 -1608 -144 0
-1778 1610 0
-1778 182 0
1778 -1610 -182 0
-1779 1612 0
-1779 182 0
1779 -1612 -182 0
-1780 1614 0
-1780 187 0
1780 -1614 -187 0
-1781 1764 1765 0
-1781 -1764 -1765 0
1781 -1764 1765 0
1781 1764 -1765 0
-1782 1781 1766 0
-1782 -1781 -1766 0
1782 -1781 1766 0
1782 1781 -1766 0
-1783 1782 1767 0
-1783 -1782 -1767 0
1783 -1782 1767 0
1783 1782 -1767 0
-1784 1783 1768 0
-1784 -1783 -1768 0
1784 -1783 1768 0
1784 1783 -1768 0
-1785 1784 1769 0
-1785 -1784 -1769 0
1785 -1784 1769 0
1785 1784 -1769 0
-1786 1785 1770 0
-1786 -1785 -1770 0
1786 -1785 1770 0
1786 1785 -1770 0
-1787 1786 1771 0
-1787 -1786 -1771 0
1787 -1786 1771 0
1787 1786 -1771 0
-1788 1787 1772 0
-1788 -1787 -1772 0
1788 -1787 1772 0
1788 1787 -1772 0
-1789 1788 1773 0
-1789 -1788 -1773 0
1789 -1788 1773 0
1789 1788 -1773 0
-1790 1789 1774 0
-1790 -1789 -1774 0
1790 -1789 1774 0
1790 1789 -1774 0
-1791 1790 1775 0
-1791 -1790 -1775 0
1791 -1790 1775 0
1791 1790 -1775 0
-1792 1791 1776 0
-1792 -1791 -1776 0
1792 -1791 1776 0
1792 1791 -1776 0
-1793 1792 1777 0
-1793 -1792 -1777 0
1793 -1792 1777 0
1793 1792 -1777 0
-1794 1793 1778 0
-1794 -1793 -1778 0
1794 -1793 1778 0
1794 1793 -1778 0
-1795 1794 1779 0
-1795 -1794 -1779 0
1795 -1794 1779 0
1795 1794 -1779 0
-1796 1795 1780 0
-1796 -1795 -1780 0
1796 -1795 1780 0
1796 1795 -1780 0
-1796 0
-1797 1582 0
-1797 39 0
1797 -1582 -39 0
-1798 1584 0
-1798 40 0
1798 -1584 -40 0
-1799 1586 0
-1799 44 0
1799 -1586 -44 0
-1800 1588 0
-1800 42 0
1800 -1588 -42 0
-1801 1590 0
-1801 46 0
1801 -1590 -46 0
-1802 1592 0
-1802 47 0
1802 -1592 -47 0
-1803 1594 0
-1803 87 0
1803 -1594 -87 0
-1804 1596 0
-1804 95 0
1804 -1596 -95 0
-1805 1598 0
-1805 90 0
1805 -1598 -90 0
-1806 1600 0
-1806 92 0
1806 -1600 -92 0
-1807 1602 0
-1807 135 0
1807 -1602 -135 0
-1808 1604 0
-1808 143 0
1808 -1604 -143 0
-1809 1606 0
-1809 138 0
1809 -1606 -138 0
-1810 1608 0
-1810 140 0
1810 -1608 -140 0
-1811 1610 0
-1811 183 0
1811 -1610 -183 0
-1812 1612 0
-1812 184 0
1812 -1612 -184 0
-1813 1614 0
-1813 188 0
1813 -1614 -188 0
-1814 1797 1798 0
-1814 -1797 -1798 0
1814 -1797 1798 0
1814 1797 -1798 0
-1815 1814 1799 0
-1815 -1814 -1799 0
1815 -1814 1799 0
1815 1814 -1799 0
-1816 1815 1800 0
-1816 -1815 -1800 0
1816 -1815 1800 0
1816 1815 -1800 0
-1817 1816 1801 0
-1817 -1816 -1801 0
1817 -1816 1801 0
1817 1816 -1801 0
-1818 1817 1802 0
-1818 -1817 -1802 0
1818 -1817 1802 0
1818 1817 -1802 0
-1819 1818 1803 0
-1819 -1818 -1803 0
1819 -1818 1803 0
1819 1818 -1803 0
-1820 1819 1804 0
-1820 -1819 -1804 0
1820 -1819 1804 0
1820 1819 -1804 0
-1821 1820 1805 0
-1821 -1820 -1805 0
1821 -1820 1805 0
1821 1820 -1805 0
-1822 1821 1806 0
-1822 -1821 -1806 0
1822 -1821 1806 0
1822 1821 -1806 0
-1823 1822 1807 0
-1823 -1822 -1807 0
1823 -1822 1807 0
1823 1822 -1807 0
-1824 1823 1808 0
-1824 -1823 -1808 0
1824 -1823 1808 0
1824 1823 -1808 0
-1825 1824 1809 0
-1825 -1824 -1809 0
1825 -1824 1809 0
1825 1824 -1809 0
-1826 1825 1810 0
-1826 -1825 -1810 0
1826 -1825 1810 0
1826 1825 -1810 0
-1827 1826 1811 0
-1827 -1826 -1811 0
1827 -1826 1811 0
1827 1826 -1811 0
-1828 1827 1812 0
-1828 -1827 -1812 0
1828 -1827 1812 0
1828 1827 -1812 0
-1829 1828 1813 0
-1829 -1828 -1813 0
1829 -1828 1813 0
1829 1828 -1813 0
-1829 0
-1830 1582 0
-1830 40 0
1830 -1582 -40 0
-1831 1584 0
-1831 39 0
1831 -1584 -39 0
-1832 1586 0
-1832 42 0
1832 -1586 -42 0
-1833 1588 0
-1833 46 0
1833 -1588 -46 0
-1834 1590 0
-1834 42 0
1834 -1590 -42 0
-1835 1592 0
-1835 39 0
1835 -1592 -39 0
-1836 1594 0
-1836 88 0
1836 -1594 -88 0
-1837 1596 0
-1837 94 0
1837 -1596 -94 0
-1838 1598 0
-1838 94 0
1838 -1598 -94 0
-1839 1600 0
-1839 88 0
1839 -1600 -88 0
-1840 1602 0
-1840 136 0
1840 -1602 -136 0
-1841 1604 0
-1841 142 0
1841 -1604 -142 0
-1842 1606 0
-1842 142 0
1842 -1606 -142 0
-1843 1608 0
-1843 136 0
1843 -1608 -136 0
-1844 1610 0
-1844 184 0
1844 -1610 -184 0
-1845 1612 0
-1845 183 0
1845 -1612 -183 0
-1846 1614 0
-1846 186 0
1846 -1614 -186 0
-1847 1830 1831 0
-1847 -1830 -1831 0
1847 -1830 1831 0
1847 1830 -1831 0
-1848 1847 1832 0
-1848 -1847 -1832 0
1848 -1847 1832 0
1848 1847 -1832 0
-1849 1848 1833 0
-1849 -1848 -1833 0
1849 -1848 1833 0
1849 1848 -1833 0
-1850 1849 1834 0
-1850 -1849 -1834 0
1850 -1849 1834 0
1850 1849 -1834 0
-1851 1850 1835 0
-1851 -1850 -1835 0
1851 -1850 1835 0
1851 1850 -1835 0
-1852 1851 1836 0
-1852 -1851 -1836 0
1852 -1851 1836 0
1852 1851 -1836 0
-1853 1852 1837 0
-1853 -1852 -1837 0
1853 -1852 1837 0
1853 1852 -1837 0
-1854 1853 1838 0
-1854 -1853 -1838 0
1854 -1853 1838 0
1854 1853 -1838 0
-1855 1854 1839 0
-1855 -1854 -1839 0
1855 -1854 1839 0
1855 1854 -1839 0
-1856 1855 1840 0
-1856 -1855 -1840 0
1856 -1855 1840 0
1856 1855 -1840 0
-1857 1856 1841 0
-1857 -1856 -1841 0
1857 -1856 1841 0
1857 1856 -1841 0
-1858 1857 1842 0
-1858 -1857 -1842 0
1858 -1857 1842 0
1858 1857 -1842 0
-1859 1858 1843 0
-1859 -1858 -1843 0
1859 -1858 1843 0
1859 1858 -1843 0
-1860 1859 1844 0
-1860 -1859 -1844 0
1860 -1859 1844 0
1860 1859 -1844 0
-1861 1860 1845 0
-1861 -1860 -1845 0
1861 -1860 1845 0
1861 1860 -1845 0
-1862 1861 1846 0
-1862 -1861 -1846 0
1862 -1861 1846 0
1862 1861 -1846 0
-1862 0
-1863 1582 0
-1863 41 0
1863 -1582 -41 0
-1864 1584 0
-1864 45 0
1864 -1584 -45 0
-1865 1586 0
-1865 45 0
1865 -1586 -45 0
-1866 1588 0
-1866 35 0
1866 -1588 -35 0
-1867 1590 0
-1867 36 0
1867 -1590 -36 0
-1868 1592 0
-1868 36 0
1868 -1592 -36 0
-1869 1594 0
-1869 89 0
1869 -1594 -89 0
-1870 1596 0
-1870 89 0
1870 -1596 -89 0
-1871 1598 0
-1871 83 0
1871 -1598 -83 0
-1872 1600 0
-1872 83 0
1872 -1600 -83 0
-1873 1602 0
-1873 137 0
1873 -1602 -137 0
-1874 1604 0
-1874 137 0
1874 -1604 -137 0
-1875 1606 0
-1875 131 0
1875 -1606 -131 0
-1876 1608 0
-1876 131 0
1876 -1608 -131 0
-1877 1610 0
-1877 185 0
1877 -1610 -185 0
-1878 1612 0
-1878 189 0
1878 -1612 -189 0
-1879 1614 0
-1879 189 0
1879 -1614 -189 0
-1880 1863 1864 0
-1880 -1863 -1864 0
1880 -1863 1864 0
1880 1863 -1864 0
-1881 1880 1865 0
-1881 -1880 -1865 0
1881 -1880 1865 0
1881 1880 -1865 0
-1882 1881 1866 0
-1882 -1881 -1866 0
1882 -1881 1866 0
1882 1881 -1866 0
-1883 1882 1867 0
-1883 -1882 -1867 0
1883 -1882 1867 0
1883 1882 -1867 0
-1884 1883 1868 0
-1884 -1883 -1868 0
1884 -1883 1868 0
1884 1883 -1868 0
-1885 1884 1869 0
-1885 -1884 -1869 0
1885 -1884 1869 0
1885 1884 -1869 0
-1886 1885 1870 0
-1886 -1885 -1870 0
1886 -1885 1870 0
1886 1885 -1870 0
-1887 1886 1871 0
-1887 -1886 -1871 0
1887 -1886 1871 0
1887 1886 -1871 0
-1888 1887 1872 0
-1888 -1887 -1872 0
1888 -1887 1872 0
1888 1887 -1872 0
-1889 1888 1873 0
-1889 -1888 -1873 0
1889 -1888 1873 0
1889 1888 -1873 0
-1890 1889 1874 0
-1890 -1889 -1874 0
1890 -1889 1874 0
1890 1889 -1874 0
-1891 1890 1875 0
-1891 -1890 -1875 0
1891 -1890 1875 0
1891 1890 -1875 0
-1892 1891 1876 0
-1892 -1891 -1876 0
1892 -1891 1876 0
1892 1891 -1876 0
-1893 1892 1877 0
-1893 -1892 -1877 0
1893 -1892 1877 0
1893 1892 -1877 0
-1894 1893 1878 0
-1894 -1893 -1878 0
1894 -1893 1878 0
1894 1893 -1878 0
-1895 1894 1879 0
-1895 -1894 -1879 0
1895 -1894 1879 0
1895 1894 -1879 0
-1895 0
-1896 1582 0
-1896 42 0
1896 -1582 -42 0
-1897 1584 0
-1897 46 0
1897 -1584 -46 0
-1898 1586 0
-1898 47 0
1898 -1586 -47 0
-1899 1588 0
-1899 39 0
1899 -1588 -39 0
-1900 1590 0
-1900 40 0
1900 -1590 -40 0
-1901 1592 0
-1901 44 0
1901 -1592 -44 0
-1902 1594 0
-1902 90 0
1902 -1594 -90 0
-1903 1596 0
-1903 92 0
1903 -1596 -92 0
-1904 1598 0
-1904 87 0
1904 -1598 -87 0
-1905 1600 0
-1905 95 0
1905 -1600 -95 0
-1906 1602 0
-1906 138 0
1906 -1602 -138 0
-1907 1604 0
-1907 140 0
1907 -1604 -140 0
-1908 1606 0
-1908 135 0
1908 -1606 -135 0
-1909 1608 0
-1909 143 0
1909 -1608 -143 0
-1910 1610 0
-1910 186 0
1910 -1610 -186 0
-1911 1612 0
-1911 190 0
1911 -1612 -190 0
-1912 1614 0
-1912 191 0
1912 -1614 -191 0
-1913 1896 1897 0
-1913 -1896 -1897 0
1913 -1896 1897 0
1913 1896 -1897 0
-1914 1913 1898 0
-1914 -1913 -1898 0
1914 -1913 1898 0
1914 1913 -1898 0
-1915 1914 1899 0
-1915 -1914 -1899 0
1915 -1914 1899 0
1915 1914 -1899 0
-1916 1915 1900 0
-1916 -1915 -1900 0
1916 -1915 1900 0
1916 1915 -1900 0
-1917 1916 1901 0
-1917 -1916 -1901 0
1917 -1916 1901 0
1917 1916 -1901 0
-1918 1917 1902 0
-1918 -1917 -1902 0
1918 -1917 1902 0
1918 1917 -1902 0
-1919 1918 1903 0
-1919 -1918 -1903 0
1919 -1918 1903 0
1919 1918 -1903 0
-1920 1919 1904 0
-1920 -1919 -1904 0
1920 -1919 1904 0
1920 1919 -1904 0
-1921 1920 1905 0
-1921 -1920 -1905 0
1921 -1920 1905 0
1921 1920 -1905 0
-1922 1921 1906 0
-1922 -1921 -1906 0
1922 -1921 1906 0
1922 1921 -1906 0
-1923 1922 1907 0
-1923 -1922 -1907 0
1923 -1922 1907 0
1923 1922 -1907 0
-1924 1923 1908 0
-1924 -1923 -1908 0
1924 -1923 1908 0
1924 1923 -1908 0
-1925 1924 1909 0
-1925 -1924 -1909 0
1925 -1924 1909 0
1925 1924 -1909 0
-1926 1925 1910 0
-1926 -1925 -1910 0
1926 -1925 1910 0
1926 1925 -1910 0
-1927 1926 1911 0
-1927 -1926 -1911 0
1927 -1926 1911 0
1927 1926 -1911 0
-1928 1927 1912 0
-1928 -1927 -1912 0
1928 -1927 1912 0
1928 1927 -1912 0
-1928 0
-1929 1582 0
-1929 43 0
1929 -1582 -43 0
-1930 1584 0
-1930 48 0
1930 -1584 -48 0
-1931 1586 0
-1931 48 0
1931 -1586 -48 0
-1932 1588 0
-1932 43 0
1932 -1588 -43 0
-1933 1590 0
-1933 48 0
1933 -1590 -48 0
-1934 1592 0
-1934 48 0
1934 -1592 -48 0
-1935 1594 0
-1935 91 0
1935 -1594 -91 0
-1936 1596 0
-1936 91 0
1936 -1596 -91 0
-1937 1598 0
-1937 91 0
1937 -1598 -91 0
-1938 1600 0
-1938 91 0
1938 -1600 -91 0
-1939 1602 0
-1939 139 0
1939 -1602 -139 0
-1940 1604 0
-1940 139 0
1940 -1604 -139 0
-1941 1606 0
-1941 139 0
1941 -1606 -139 0
-1942 1608 0
-1942 139 0
1942 -1608 -139 0
-1943 1610 0
-1943 187 0
1943 -1610 -187 0
-1944 1612 0
-1944 192 0
1944 -1612 -192 0
-1945 1614 0
-1945 192 0
1945 -1614 -192 0
-1946 1929 1930 0
-1946 -1929 -1930 0
1946 -1929 1930 0
1946 1929 -1930 0
-1947 1946 1931 0
-1947 -1946 -1931 0
1947 -1946 1931 0
1947 1946 -1931 0
-1948 1947 1932 0
-1948 -1947 -1932 0
1948 -1947 1932 0
1948 1947 -1932 0
-1949 1948 1933 0
-1949 -1948 -1933 0
1949 -1948 1933 0
1949 1948 -1933 0
-1950 1949 1934 0
-1950 -1949 -1934 0
1950 -1949 1934 0
1950 1949 -1934 0
-1951 1950 1935 0
-1951 -1950 -1935 0
1951 -1950 1935 0
1951 1950 -1935 0
-1952 1951 1936 0
-1952 -1951 -1936 0
1952 -1951 1936 0
1952 1951 -1936 0
-1953 1952 1937 0
-1953 -1952 -1937 0
1953 -1952 1937 0
1953 1952 -1937 0
-1954 1953 1938 0
-1954 -1953 -1938 0
1954 -1953 1938 0
1954 1953 -1938 0
-1955 1954 1939 0
-1955 -1954 -1939 0
1955 -1954 1939 0
1955 1954 -1939 0
-1956 1955 1940 0
-1956 -1955 -1940 0
1956 -1955 1940 0
1956 1955 -1940 0
-1957 1956 1941 0
-1957 -1956 -1941 0
1957 -1956 1941 0
1957 1956 -1941 0
-1958 1957 1942 0
-1958 -1957 -1942 0
1958 -1957 1942 0
1958 1957 -1942 0
-1959 1958 1943 0
-1959 -1958 -1943 0
1959 -1958 1943 0
1959 1958 -1943 0
-1960 1959 1944 0
-1960 -1959 -1944 0
1960 -1959 1944 0
1960 1959 -1944 0
-1961 1960 1945 0
-1961 -1960 -1945 0
1961 -1960 1945 0
1961 1960 -1945 0
-1961 0
-1962 1582 0
-1962 44 0
1962 -1582 -44 0
-1963 1584 0
-1963 47 0
1963 -1584 -47 0
-1964 1586 0
-1964 46 0
1964 -1586 -46 0
-1965 1588 0
-1965 47 0
1965 -1588 -47 0
-1966 1590 0
-1966 44 0
1966 -1590 -44 0
-1967 1592 0
-1967 40 0
1967 -1592 -40 0
-1968 1594 0
-1968 92 0
1968 -1594 -92 0
-1969 1596 0
-1969 90 0
1969 -1596 -90 0
-1970 1598 0
-1970 95 0
1970 -1598 -95 0
-1971 1600 0
-1971 87 0
1971 -1600 -87 0
-1972 1602 0
-1972 140 0
1972 -1602 -140 0
-1973 1604 0
-1973 138 0
1973 -1604 -138 0
-1974 1606 0
-1974 143 0
1974 -1606 -143 0
-1975 1608 0
-1975 135 0
1975 -1608 -135 0
-1976 1610 0
-1976 188 0
1976 -1610 -188 0
-1977 1612 0
-1977 191 0
1977 -1612 -191 0
-1978 1614 0
-1978 190 0
1978 -1614 -190 0
-1979 1962 1963 0
-1979 -1962 -1963 0
1979 -1962 1963 0
1979 1962 -1963 0
-1980 1979 1964 0
-1980 -1979 -1964 0
1980 -1979 1964 0
1980 1979 -1964 0
-1981 1980 1965 0
-1981 -1980 -1965 0
1981 -1980 1965 0
1981 1980 -1965 0
-1982 1981 1966 0
-1982 -1981 -1966 0
1982 -1981 1966 0
1982 1981 -1966 0
-1983 1982 1967 0
-1983 -1982 -1967 0
1983 -1982 1967 0
1983 1982 -1967 0
-1984 1983 1968 0
-1984 -1983 -1968 0
1984 -1983 1968 0
1984 1983 -1968 0
-1985 1984 1969 0
-1985 -1984 -1969 0
1985 -1984 1969 0
1985 1984 -1969 0
-1986 1985 1970 0
-1986 -1985 -1970 0
1986 -1985 1970 0
1986 1985 -1970 0
-1987 1986 1971 0
-1987 -1986 -1971 0
1987 -1986 1971 0
1987 1986 -1971 0
-1988 1987 1972 0
-1988 -1987 -1972 0
1988 -1987 1972 0
1988 1987 -1972 0
-1989 1988 1973 0
-1989 -1988 -1973 0
1989 -1988 1973 0
1989 1988 -1973 0
-1990 1989 1974 0
-1990 -1989 -1974 0
1990 -1989 1974 0
1990 1989 -1974 0
-1991 1990 1975 0
-1991 -1990 -1975 0
1991 -1990 1975 0
1991 1990 -1975 0
-1992 1991 1976 0
-1992 -1991 -1976 0
1992 -1991 1976 0
1992 1991 -1976 0
-1993 1992 1977 0
-1993 -1992 -1977 0
1993 -1992 1977 0
1993 1992 -1977 0
-1994 1993 1978 0
-1994 -1993 -1978 0
1994 -1993 1978 0
1994 1993 -1978 0
-1994 0
-1995 1582 0
-1995 45 0
1995 -1582 -45 0
-1996 1584 0
-1996 41 0
1996 -1584 -41 0
-1997 1586 0
-1997 37 0
1997 -1586 -37 0
-1998 1588 0
-1998 36 0
1998 -1588 -36 0
-1999 1590 0
-1999 35 0
1999 -1590 -35 0
-2000 1592 0
-2000 34 0
2000 -1592 -34 0
-2001 1594 0
-2001 93 0
2001 -1594 -93 0
-2002 1596 0
-2002 85 0
2002 -1596 -85 0
-2003 1598 0
-2003 84 0
2003 -1598 -84 0
-2004 1600 0
-2004 82 0
2004 -1600 -82 0
-2005 1602 0
-2005 141 0
2005 -1602 -141 0
-2006 1604 0
-2006 133 0
2006 -1604 -133 0
-2007 1606 0
-2007 132 0
2007 -1606 -132 0
-2008 1608 0
-2008 130 0
2008 -1608 -130 0
-2009 1610 0
-2009 189 0
2009 -1610 -189 0
-2010 1612 0
-2010 185 0
2010 -1612 -185 0
-2011 1614 0
-2011 181 0
2011 -1614 -181 0
-2012 1995 1996 0
-2012 -1995 -1996 0
2012 -1995 1996 0
2012 1995 -1996 0
-2013 2012 1997 0
-2013 -2012 -1997 0
2013 -2012 1997 0
2013 2012 -1997 0
-2014 2013 1998 0
-2014 -2013 -1998 0
2014 -2013 1998 0
2014 2013 -1998 0
-2015 2014 1999 0
-2015 -2014 -1999 0
2015 -2014 1999 0
2015 2014 -1999 0
-2016 2015 2000 0
-2016 -2015 -2000 0
2016 -2015 2000 0
2016 2015 -2000 0
-2017 2016 2001 0
-2017 -2016 -2001 0
2017 -2016 2001 0
2017 2016 -2001 0
-2018 2017 2002 0
-2018 -2017 -2002 0
2018 -2017 2002 0
2018 2017 -2002 0
-2019 2018 2003 0
-2019 -2018 -2003 0
2019 -2018 2003 0
2019 2018 -2003 0
-2020 2019 2004 0
-2020 -2019 -2004 0
2020 -2019 2004 0
2020 2019 -2004 0
-2021 2020 2005 0
-2021 -2020 -2005 0
2021 -2020 2005 0
2021 2020 -2005 0
-2022 2021 2006 0
-2022 -2021 -2006 0
2022 -2021 2006 0
2022 2021 -2006 0
-2023 2022 2007 0
-2023 -2022 -2007 0
2023 -2022 2007 0
2023 2022 -2007 0
-2024 2023 2008 0
-2024 -2023 -2008 0
2024 -2023 2008 0
2024 2023 -2008 0
-2025 2024 2009 0
-2025 -2024 -2009 0
2025 -2024 2009 0
2025 2024 -2009 0
-2026 2025 2010 0
-2026 -2025 -2010 0
2026 -2025 2010 0
2026 2025 -2010 0
-2027 2026 2011 0
-2027 -2026 -2011 0
2027 -2026 2011 0
2027 2026 -2011 0
-2027 0
-2028 1582 0
-2028 46 0
2028 -1582 -46 0
-2029 1584 0
-2029 42 0
2029 -1584 -42 0
-2030 1586 0
-2030 39 0
2030 -1586 -39 0
-2031 1588 0
-2031 40 0
2031 -1588 -40 0
-2032 1590 0
-2032 39 0
2032 -1590 -39 0
-2033 1592 0
-2033 42 0
2033 -1592 -42 0
-2034 1594 0
-2034 94 0
2034 -1594 -94 0
-2035 1596 0
-2035 88 0
2035 -1596 -88 0
-2036 1598 0
-2036 88 0
2036 -1598 -88 0
-2037 1600 0
-2037 94 0
2037 -1600 -94 0
-2038 1602 0
-2038 142 0
2038 -1602 -142 0
-2039 1604 0
-2039 136 0
2039 -1604 -136 0
-2040 1606 0
-2040 136 0
2040 -1606 -136 0
-2041 1608 0
-2041 142 0
2041 -1608 -142 0
-2042 1610 0
-2042 190 0
2042 -1610 -190 0
-2043 1612 0
-2043 186 0
2043 -1612 -186 0
-2044 1614 0
-2044 183 0
2044 -1614 -183 0
-2045 2028 2029 0
-2045 -2028 -2029 0
2045 -2028 2029 0
2045 2028 -2029 0
-2046 2045 2030 0
-2046 -2045 -2030 0
2046 -2045 2030 0
2046 2045 -2030 0
-2047 2046 2031 0
-2047 -2046 -2031 0
2047 -2046 2031 0
2047 2046 -2031 0
-2048 2047 2032 0
-2048 -2047 -2032 0
2048 -2047 2032 0
2048 2047 -2032 0
-2049 2048 2033 0
-2049 -2048 -2033 0
2049 -2048 2033 0
2049 2048 -2033 0
-2050 2049 2034 0
-2050 -2049 -2034 0
2050 -2049 2034 0
2050 2049 -2034 0
-2051 2050 2035 0
-2051 -2050 -2035 0
2051 -2050 2035 0
2051 2050 -2035 0
-2052 2051 2036 0
-2052 -2051 -2036 0
2052 -2051 2036 0
2052 2051 -2036 0
-2053 2052 2037 0
-2053 -2052 -2037 0
2053 -2052 2037 0
2053 2052 -2037 0
-2054 2053 2038 0
-2054 -2053 -2038 0
2054 -2053 2038 0
2054 2053 -2038 0
-2055 2054 2039 0
-2055 -2054 -2039 0
2055 -2054 2039 0
2055 2054 -2039 0
-2056 2055 2040 0
-2056 -2055 -2040 0
2056 -2055 2040 0
2056 2055 -2040 0
-2057 2056 2041 0
-2057 -2056 -2041 0
2057 -2056 2041 0
2057 2056 -2041 0
-2058 2057 2042 0
-2058 -2057 -2042 0
2058 -2057 2042 0
2058 2057 -2042 0
-2059 2058 2043 0
-2059 -2058 -2043 0
2059 -2058 2043 0
2059 2058 -2043 0
-2060 2059 2044 0
-2060 -2059 -2044 0
2060 -2059 2044 0
2060 2059 -2044 0
-2060 0
-2061 1582 0
-2061 47 0
2061 -1582 -47 0
-2062 1584 0
-2062 44 0
2062 -1584 -44 0
-2063 1586 0
-2063 40 0
2063 -1586 -40 0
-2064 1588 0
-2064 44 0
2064 -1588 -44 0
-2065 1590 0
-2065 47 0
2065 -1590 -47 0
-2066 1592 0
-2066 46 0
2066 -1592 -46 0
-2067 1594 0
-2067 95 0
2067 -1594 -95 0
-2068 1596 0
-2068 87 0
2068 -1596 -87 0
-2069 1598 0
-2069 92 0
2069 -1598 -92 0
-2070 1600 0
-2070 90 0
2070 -1600 -90 0
-2071 1602 0
-2071 143 0
2071 -1602 -143 0
-2072 1604 0
-2072 135 0
2072 -1604 -135 0
-2073 1606 0
-2073 140 0
2073 -1606 -140 0
-2074 1608 0
-2074 138 0
2074 -1608 -138 0
-2075 1610 0
-2075 191 0
2075 -1610 -191 0
-2076 1612 0
-2076 188 0
2076 -1612 -188 0
-2077 1614 0
-2077 184 0
2077 -1614 -184 0
-2078 2061 2062 0
-2078 -2061 -2062 0
2078 -2061 2062 0
2078 2061 -2062 0
-2079 2078 2063 0
-2079 -2078 -2063 0
2079 -2078 2063 0
2079 2078 -2063 0
-2080 2079 2064 0
-2080 -2079 -2064 0
2080 -2079 2064 0
2080 2079 -2064 0
-2081 2080 2065 0
-2081 -2080 -2065 0
2081 -2080 2065 0
2081 2080 -2065 0
-2082 2081 2066 0
-2082 -2081 -2066 0
2082 -2081 2066 0
2082 2081 -2066 0
-2083 2082 2067 0
-2083 -2082 -2067 0
2083 -2082 2067 0
2083 2082 -2067 0
-2084 2083 2068 0
-2084 -2083 -2068 0
2084 -2083 2068 0
2084 2083 -2068 0
-2085 2084 2069 0
-2085 -2084 -2069 0
2085 -2084 2069 0
2085 2084 -2069 0
-2086 2085 2070 0
-2086 -2085 -2070 0
2086 -2085 2070 0
2086 2085 -2070 0
-2087 2086 2071 0
-2087 -2086 -2071 0
2087 -2086 2071 0
2087 2086 -2071 0
-2088 2087 2072 0
-2088 -2087 -2072 0
2088 -2087 2072 0
2088 2087 -2072 0
-2089 2088 2073 0
-2089 -2088 -2073 0
2089 -2088 2073 0
2089 2088 -2073 0
-2090 2089 2074 0
-2090 -2089 -2074 0
2090 -2089 2074 0
2090 2089 -2074 0
-2091 2090 2075 0
-2091 -2090 -2075 0
2091 -2090 2075 0
2091 2090 -2075 0
-2092 2091 2076 0
-2092 -2091 -2076 0
2092 -2091 2076 0
2092 2091 -2076 0
-2093 2092 2077 0
-2093 -2092 -2077 0
2093 -2092 2077 0
2093 2092 -2077 0
-2093 0
-2094 1582 0
-2094 48 0
2094 -1582 -48 0
-2095 1584 0
-2095 43 0
2095 -1584 -43 0
-2096 1586 0
-2096 38 0
2096 -1586 -38 0
-2097 1588 0
-2097 48 0
2097 -1588 -48 0
-2098 1590 0
-2098 43 0
2098 -1590 -43 0
-2099 1592 0
-2099 38 0
2099 -1592 -38 0
-2100 1594 0
-2100 96 0
2100 -1594 -96 0
-2101 1596 0
-2101 86 0
2101 -1596 -86 0
-2102 1598 0
-2102 96 0
2102 -1598 -96 0
-2103 1600 0
-2103 86 0
2103 -1600 -86 0
-2104 1602 0
-2104 144 0
2104 -1602 -144 0
-2105 1604 0
-2105 134 0
2105 -1604 -134 0
-2106 1606 0
-2106 144 0
2106 -1606 -144 0
-2107 1608 0
-2107 134 0
2107 -1608 -134 0
-2108 1610 0
-2108 192 0
2108 -1610 -192 0
-2109 1612 0
-2109 187 0
2109 -1612 -187 0
-2110 1614 0
-2110 182 0
2110 -1614 -182 0
-2111 2094 2095 0
-2111 -2094 -2095 0
2111 -2094 2095 0
2111 2094 -2095 0
-2112 2111 2096 0
-2112 -2111 -2096 0
2112 -2111 2096 0
2112 2111 -2096 0
-2113 2112 2097 0
-2113 -2112 -2097 0
2113 -2112 2097 0
2113 2112 -2097 0
-2114 2113 2098 0
-2114 -2113 -2098 0
2114 -2113 2098 0
2114 2113 -2098 0
-2115 2114 2099 0
-2115 -2114 -2099 0
2115 -2114 2099 0
2115 2114 -2099 0
-2116 2115 2100 0
-2116 -2115 -2100 0
2116 -2115 2100 0
2116 2115 -2100 0
-2117 2116 2101 0
-2117 -2116 -2101 0
2117 -2116 2101 0
2117 2116 -2101 0
-2118 2117 2102 0
-2118 -2117 -2102 0
2118 -2117 2102 0
2118 2117 -2102 0
-2119 2118 2103 0
-2119 -2118 -2103 0
2119 -2118 2103 0
2119 2118 -2103 0
-2120 2119 2104 0
-2120 -2119 -2104 0
2120 -2119 2104 0
2120 2119 -2104 0
-2121 2120 2105 0
-2121 -2120 -2105 0
2121 -2120 2105 0
2121 2120 -2105 0
-2122 2121 2106 0
-2122 -2121 -2106 0
2122 -2121 2106 0
2122 2121 -2106 0
-2123 2122 2107 0
-2123 -2122 -2107 0
2123 -2122 2107 0
2123 2122 -2107 0
-2124 2123 2108 0
-2124 -2123 -2108 0
2124 -2123 2108 0
2124 2123 -2108 0
-2125 2124 2109 0
-2125 -2124 -2109 0
2125 -2124 2109 0
2125 2124 -2109 0
-2126 2125 2110 0
-2126 -2125 -2110 0
2126 -2125 2110 0
2126 2125 -2110 0
-2126 0
-2127 1 0
-2127 23 0
2127 -1 -23 0
-2128 2127 0
-2128 33 0
2128 -2127 -33 0
-2129 2 0
-2129 20 0
2129 -2 -20 0
-2130 2129 0
-2130 33 0
2130 -2129 -33 0
-2131 2 0
-2131 28 0
2131 -2 -28 0
-2132 2131 0
-2132 33 0
2132 -2131 -33 0
-2133 17 0
-2133 10 0
2133 -17 -10 0
-2134 2133 0
-2134 33 0
2134 -2133 -33 0
-2135 21 0
-2135 13 0
2135 -21 -13 0
-2136 2135 0
-2136 33 0
2136 -2135 -33 0
-2137 21 0
-2137 15 0
2137 -21 -15 0
-2138 2137 0
-2138 33 0
2138 -2137 -33 0
-2139 49 0
-2139 71 0
2139 -49 -71 0
-2140 2139 0
-2140 81 0
2140 -2139 -81 0
-2141 49 0
-2141 75 0
2141 -49 -75 0
-2142 2141 0
-2142 81 0
2142 -2141 -81 0
-2143 65 0
-2143 58 0
2143 -65 -58 0
-2144 2143 0
-2144 81 0
2144 -2143 -81 0
-2145 65 0
-2145 59 0
2145 -65 -59 0
-2146 2145 0
-2146 81 0
2146 -2145 -81 0
-2147 97 0
-2147 119 0
2147 -97 -119 0
-2148 2147 0
-2148 129 0
2148 -2147 -129 0
-2149 97 0
-2149 123 0
2149 -97 -123 0
-2150 2149 0
-2150 129 0
2150 -2149 -129 0
-2151 113 0
-2151 106 0
2151 -113 -106 0
-2152 2151 0
-2152 129 0
2152 -2151 -129 0
-2153 113 0
-2153 107 0
2153 -113 -107 0
-2154 2153 0
-2154 129 0
2154 -2153 -129 0
-2155 145 0
-2155 167 0
2155 -145 -167 0
-2156 2155 0
-2156 177 0
2156 -2155 -177 0
-2157 146 0
-2157 164 0
2157 -146 -164 0
-2158 2157 0
-2158 177 0
2158 -2157 -177 0
-2159 146 0
-2159 172 0
2159 -146 -172 0
-2160 2159 0
-2160 177 0
2160 -2159 -177 0
-2161 2128 2130 0
-2161 -2128 -2130 0
2161 -2128 2130 0
2161 2128 -2130 0
-2162 2161 2132 0
-2162 -2161 -2132 0
2162 -2161 2132 0
2162 2161 -2132 0
-2163 2162 2134 0
-2163 -2162 -2134 0
2163 -2162 2134 0
2163 2162 -2134 0
-2164 2163 2136 0
-2164 -2163 -2136 0
2164 -2163 2136 0
2164 2163 -2136 0
-2165 2164 2138 0
-2165 -2164 -2138 0
2165 -2164 2138 0
2165 2164 -2138 0
-2166 2165 2140 0
-2166 -2165 -2140 0
2166 -2165 2140 0
2166 2165 -2140 0
-2167 2166 2142 0
-2167 -2166 -2142 0
2167 -2166 2142 0
2167 2166 -2142 0
-2168 2167 2144 0
-2168 -2167 -2144 0
2168 -2167 2144 0
2168 2167 -2144 0
-2169 2168 2146 0
-2169 -2168 -2146 0
2169 -2168 2146 0
2169 2168 -2146 0
-2170 2169 2148 0
-2170 -2169 -2148 0
2170 -2169 2148 0
2170 2169 -2148 0
-2171 2170 2150 0
-2171 -2170 -2150 0
2171 -2170 2150 0
2171 2170 -2150 0
-2172 2171 2152 0
-2172 -2171 -2152 0
2172 -2171 2152 0
2172 2171 -2152 0
-2173 2172 2154 0
-2173 -2172 -2154 0
2173 -2172 2154 0
2173 2172 -2154 0
-2174 2173 2156 0
-2174 -2173 -2156 0
2174 -2173 2156 0
2174 2173 -2156 0
-2175 2174 2158 0
-2175 -2174 -2158 0
2175 -2174 2158 0
2175 2174 -2158 0
-2176 2175 2160 0
-2176 -2175 -2160 0
2176 -2175 2160 0
2176 2175 -2160 0
-2176 0
-2177 2127 0
-2177 34 0
2177 -2127 -34 0
-2178 2129 0
-2178 34 0
2178 -2129 -34 0
-2179 2131 0
-2179 35 0
2179 -2131 -35 0
-2180 2133 0
-2180 37 0
2180 -2133 -37 0
-2181 2135 0
-2181 37 0
2181 -2135 -37 0
-2182 2137 0
-2182 41 0
2182 -2137 -41 0
-2183 2139 0
-2183 82 0
2183 -2139 -82 0
-2184 2141 0
-2184 84 0
2184 -2141 -84 0
-2185 2143 0
-2185 85 0
2185 -2143 -85 0
-2186 2145 0
-2186 93 0
2186 -2145 -93 0
-2187 2147 0
-2187 130 0
2187 -2147 -130 0
-2188 2149 0
-2188 132 0
2188 -2149 -132 0
-2189 2151 0
-2189 133 0
2189 -2151 -133 0
-2190 2153 0
-2190 141 0
2190 -2153 -141 0
-2191 2155 0
-2191 178 0
2191 -2155 -178 0
-2192 2157 0
-2192 178 0
2192 -2157 -178 0
-2193 2159 0
-2193 179 0
2193 -2159 -179 0
-2194 2177 2178 0
-2194 -2177 -2178 0
2194 -2177 2178 0
2194 2177 -2178 0
-2195 2194 2179 0
-2195 -2194 -2179 0
2195 -2194 2179 0
2195 2194 -2179 0
-2196 2195 2180 0
-2196 -2195 -2180 0
2196 -2195 2180 0
2196 2195 -2180 0
-2197 2196 2181 0
-2197 -2196 -2181 0
2197 -2196 2181 0
2197 2196 -2181 0
-2198 2197 2182 0
-2198 -2197 -2182 0
2198 -2197 2182 0
2198 2197 -2182 0
-2199 2198 2183 0
-2199 -2198 -2183 0
2199 -2198 2183 0
2199 2198 -2183 0
-2200 2199 2184 0
-2200 -2199 -2184 0
2200 -2199 2184 0
2200 2199 -2184 0
-2201 2200 2185 0
-2201 -2200 -2185 0
2201 -2200 2185 0
2201 2200 -2185 0
-2202 2201 2186 0
-2202 -2201 -2186 0
2202 -2201 2186 0
2202 2201 -2186 0
-2203 2202 2187 0
-2203 -2202 -2187 0
2203 -2202 2187 0
2203 2202 -2187 0
-2204 2203 2188 0
-2204 -2203 -2188 0
2204 -2203 2188 0
2204 2203 -2188 0
-2205 2204 2189 0
-2205 -2204 -2189 0
2205 -2204 2189 0
2205 2204 -2189 0
-2206 2205 2190 0
-2206 -2205 -2190 0
2206 -2205 2190 0
2206 2205 -2190 0
-2207 2206 2191 0
-2207 -2206 -2191 0
2207 -2206 2191 0
2207 2206 -2191 0
-2208 2207 2192 0
-2208 -2207 -2192 0
2208 -2207 2192 0
2208 2207 -2192 0
-2209 2208 2193 0
-2209 -2208 -2193 0
2209 -2208 2193 0
2209 2208 -2193 0
-2209 0
-2210 2127 0
-2210 35 0
2210 -2127 -35 0
-2211 2129 0
-2211 36 0
2211 -2129 -36 0
-2212 2131 0
-2212 36 0
2212 -2131 -36 0
-2213 2133 0
-2213 41 0
2213 -2133 -41 0
-2214 2135 0
-2214 45 0
2214 -2135 -45 0
-2215 2137 0
-2215 45 0
2215 -2137 -45 0
-2216 2139 0
-2216 83 0
2216 -2139 -83 0
-2217 2141 0
-2217 83 0
2217 -2141 -83 0
-2218 2143 0
-2218 89 0
2218 -2143 -89 0
-2219 2145 0
-2219 89 0
2219 -2145 -89 0
-2220 2147 0
-2220 131 0
2220 -2147 -131 0
-2221 2149 0
-2221 131 0
2221 -2149 -131 0
-2222 2151 0
-2222 137 0
2222 -2151 -137 0
-2223 2153 0
-2223 137 0
2223 -2153 -137 0
-2224 2155 0
-2224 179 0
2224 -2155 -179 0
-2225 2157 0
-2225 180 0
2225 -2157 -180 0
-2226 2159 0
-2226 180 0
2226 -2159 -180 0
-2227 2210 2211 0
-2227 -2210 -2211 0
2227 -2210 2211 0
2227 2210 -2211 0
-2228 2227 2212 0
-2228 -2227 -2212 0
2228 -2227 2212 0
2228 2227 -2212 0
-2229 2228 2213 0
-2229 -2228 -2213 0
2229 -2228 2213 0
2229 2228 -2213 0
-2230 2229 2214 0
-2230 -2229 -2214 0
2230 -2229 2214 0
2230 2229 -2214 0
-2231 2230 2215 0
-2231 -2230 -2215 0
2231 -2230 2215 0
2231 2230 -2215 0
-2232 2231 2216 0
-2232 -2231 -2216 0
2232 -2231 2216 0
2232 2231 -2216 0
-2233 2232 2217 0
-2233 -2232 -2217 0
2233 -2232 2217 0
2233 2232 -2217 0
-2234 2233 2218 0
-2234 -2233 -2218 0
2234 -2233 2218 0
2234 2233 -2218 0
-2235 2234 2219 0
-2235 -2234 -2219 0
2235 -2234 2219 0
2235 2234 -2219 0
-2236 2235 2220 0
-2236 -2235 -2220 0
2236 -2235 2220 0
2236 2235 -2220 0
-2237 2236 2221 0
-2237 -2236 -2221 0
2237 -2236 2221 0
2237 2236 -2221 0
-2238 2237 2222 0
-2238 -2237 -2222 0
2238 -2237 2222 0
2238 2237 -2222 0
-2239 2238 2223 0
-2239 -2238 -2223 0
2239 -2238 2223 0
2239 2238 -2223 0
-2240 2239 2224 0
-2240 -2239 -2224 0
2240 -2239 2224 0
2240 2239 -2224 0
-2241 2240 2225 0
-2241 -2240 -2225 0
2241 -2240 2225 0
2241 2240 -2225 0
-2242 2241 2226 0
-2242 -2241 -2226 0
2242 -2241 2226 0
2242 2241 -2226 0
-2242 0
-2243 2127 0
-2243 36 0
2243 -2127 -36 0
-2244 2129 0
-2244 35 0
2244 -2129 -35 0
-2245 2131 0
-2245 34 0
2245 -2131 -34 0
-2246 2133 0
-2246 45 0
2246 -2133 -45 0
-2247 2135 0
-2247 41 0
2247 -2135 -41 0
-2248 2137 0
-2248 37 0
2248 -2137 -37 0
-2249 2139 0
-2249 84 0
2249 -2139 -84 0
-2250 2141 0
-2250 82 0
2250 -2141 -82 0
-2251 2143 0
-2251 93 0
2251 -2143 -93 0
-2252 2145 0
-2252 85 0
2252 -2145 -85 0
-2253 2147 0
-2253 132 0
2253 -2147 -132 0
-2254 2149 0
-2254 130 0
2254 -2149 -130 0
-2255 2151 0
-2255 141 0
2255 -2151 -141 0
-2256 2153 0
-2256 133 0
2256 -2153 -133 0
-2257 2155 0
-2257 180 0
2257 -2155 -180 0
-2258 2157 0
-2258 179 0
2258 -2157 -179 0
-2259 2159 0
-2259 178 0
2259 -2159 -178 0
-2260 2243 2244 0
-2260 -2243 -2244 0
2260 -2243 2244 0
2260 2243 -2244 0
-2261 2260 2245 0
-2261 -2260 -2245 0
2261 -2260 2245 0
2261 2260 -2245 0
-2262 2261 2246 0
-2262 -2261 -2246 0
2262 -2261 2246 0
2262 2261 -2246 0
-2263 2262 2247 0
-2263 -2262 -2247 0
2263 -2262 2247 0
2263 2262 -2247 0
-2264 2263 2248 0
-2264 -2263 -2248 0
2264 -2263 2248 0
2264 2263 -2248 0
-2265 2264 2249 0
-2265 -2264 -2249 0
2265 -2264 2249 0
2265 2264 -2249 0
-2266 2265 2250 0
-2266 -2265 -2250 0
2266 -2265 2250 0
2266 2265 -2250 0
-2267 2266 2251 0
-2267 -2266 -2251 0
2267 -2266 2251 0
2267 2266 -2251 0
-2268 2267 2252 0
-2268 -2267 -2252 0
2268 -2267 2252 0
2268 2267 -2252 0
-2269 2268 2253 0
-2269 -2268 -2253 0
2269 -2268 2253 0
2269 2268 -2253 0
-2270 2269 2254 0
-2270 -2269 -2254 0
2270 -2269 2254 0
2270 2269 -2254 0
-2271 2270 2255 0
-2271 -2270 -2255 0
2271 -2270 2255 0
2271 2270 -2255 0
-2272 2271 2256 0
-2272 -2271 -2256 0
2272 -2271 2256 0
2272 2271 -2256 0
-2273 2272 2257 0
-2273 -2272 -2257 0
2273 -2272 2257 0
2273 2272 -2257 0
-2274 2273 2258 0
-2274 -2273 -2258 0
2274 -2273 2258 0
2274 2273 -2258 0
-2275 2274 2259 0
-2275 -2274 -2259 0
2275 -2274 2259 0
2275 2274 -2259 0
-2275 0
-2276 2127 0
-2276 37 0
2276 -2127 -37 0
-2277 2129 0
-2277 37 0
2277 -2129 -37 0
-2278 2131 0
-2278 41 0
2278 -2131 -41 0
-2279 2133 0
-2279 34 0
2279 -2133 -34 0
-2280 2135 0
-2280 34 0
2280 -2135 -34 0
-2281 2137 0
-2281 35 0
2281 -2137 -35 0
-2282 2139 0
-2282 85 0
2282 -2139 -85 0
-2283 2141 0
-2283 93 0
2283 -2141 -93 0
-2284 2143 0
-2284 82 0
2284 -2143 -82 0
-2285 2145 0
-2285 84 0
2285 -2145 -84 0
-2286 2147 0
-2286 133 0
2286 -2147 -133 0
-2287 2149 0
-2287 141 0
2287 -2149 -141 0
-2288 2151 0
-2288 130 0
2288 -2151 -130 0
-2289 2153 0
-2289 132 0
2289 -2153 -132 0
-2290 2155 0
-2290 181 0
2290 -2155 -181 0
-2291 2157 0
-2291 181 0
2291 -2157 -181 0
-2292 2159 0
-2292 185 0
2292 -2159 -185 0
-2293 2276 2277 0
-2293 -2276 -2277 0
2293 -2276 2277 0
2293 2276 -2277 0
-2294 2293 2278 0
-2294 -2293 -2278 0
2294 -2293 2278 0
2294 2293 -2278 0
-2295 2294 2279 0
-2295 -2294 -2279 0
2295 -2294 2279 0
2295 2294 -2279 0
-2296 2295 2280 0
-2296 -2295 -2280 0
2296 -2295 2280 0
2296 2295 -2280 0
-2297 2296 2281 0
-2297 -2296 -2281 0
2297 -2296 2281 0
2297 2296 -2281 0
-2298 2297 2282 0
-2298 -2297 -2282 0
2298 -2297 2282 0
2298 2297 -2282 0
-2299 2298 2283 0
-2299 -2298 -2283 0
2299 -2298 2283 0
2299 2298 -2283 0
-2300 2299 2284 0
-2300 -2299 -2284 0
2300 -2299 2284 0
2300 2299 -2284 0
-2301 2300 2285 0
-2301 -2300 -2285 0
2301 -2300 2285 0
2301 2300 -2285 0
-2302 2301 2286 0
-2302 -2301 -2286 0
2302 -2301 2286 0
2302 2301 -2286 0
-2303 2302 2287 0
-2303 -2302 -2287 0
2303 -2302 2287 0
2303 2302 -2287 0
-2304 2303 2288 0
-2304 -2303 -2288 0
2304 -2303 2288 0
2304 2303 -2288 0
-2305 2304 2289 0
-2305 -2304 -2289 0
2305 -2304 2289 0
2305 2304 -2289 0
-2306 2305 2290 0
-2306 -2305 -2290 0
2306 -2305 2290 0
2306 2305 -2290 0
-2307 2306 2291 0
-2307 -2306 -2291 0
2307 -2306 2291 0
2307 2306 -2291 0
-2308 2307 2292 0
-2308 -2307 -2292 0
2308 -2307 2292 0
2308 2307 -2292 0
-2308 0
-2309 2127 0
-2309 38 0
2309 -2127 -38 0
-2310 2129 0
-2310 38 0
2310 -2129 -38 0
-2311 2131 0
-2311 43 0
2311 -2131 -43 0
-2312 2133 0
-2312 38 0
2312 -2133 -38 0
-2313 2135 0
-2313 38 0
2313 -2135 -38 0
-2314 2137 0
-2314 43 0
2314 -2137 -43 0
-2315 2139 0
-2315 86 0
2315 -2139 -86 0
-2316 2141 0
-2316 96 0
2316 -2141 -96 0
-2317 2143 0
-2317 86 0
2317 -2143 -86 0
-2318 2145 0
-2318 96 0
2318 -2145 -96 0
-2319 2147 0
-2319 134 0
2319 -2147 -134 0
-2320 2149 0
-2320 144 0
2320 -2149 -144 0
-2321 2151 0
-2321 134 0
2321 -2151 -134 0
-2322 2153 0
-2322 144 0
2322 -2153 -144 0
-2323 2155 0
-2323 182 0
2323 -2155 -182 0
-2324 2157 0
-2324 182 0
2324 -2157 -182 0
-2325 2159 0
-2325 187 0
2325 -2159 -187 0
-2326 2309 2310 0
-2326 -2309 -2310 0
2326 -2309 2310 0
2326 2309 -2310 0
-2327 2326 2311 0
-2327 -2326 -2311 0
2327 -2326 2311 0
2327 2326 -2311 0
-2328 2327 2312 0
-2328 -2327 -2312 0
2328 -2327 2312 0
2328 2327 -2312 0
-2329 2328 2313 0
-2329 -2328 -2313 0
2329 -2328 2313 0
2329 2328 -2313 0
-2330 2329 2314 0
-2330 -2329 -2314 0
2330 -2329 2314 0
2330 2329 -2314 0
-2331 2330 2315 0
-2331 -2330 -2315 0
2331 -2330 2315 0
2331 2330 -2315 0
-2332 2331 2316 0
-2332 -2331 -2316 0
2332 -2331 2316 0
2332 2331 -2316 0
-2333 2332 2317 0
-2333 -2332 -2317 0
2333 -2332 2317 0
2333 2332 -2317 0
-2334 2333 2318 0
-2334 -2333 -2318 0
2334 -2333 2318 0
2334 2333 -2318 0
-2335 2334 2319 0
-2335 -2334 -2319 0
2335 -2334 2319 0
2335 2334 -2319 0
-2336 2335 2320 0
-2336 -2335 -2320 0
2336 -2335 2320 0
2336 2335 -2320 0
-2337 2336 2321 0
-2337 -2336 -2321 0
2337 -2336 2321 0
2337 2336 -2321 0
-2338 2337 2322 0
-2338 -2337 -2322 0
2338 -2337 2322 0
2338 2337 -2322 0
-2339 2338 2323 0
-2339 -2338 -2323 0
2339 -2338 2323 0
2339 2338 -2323 0
-2340 2339 2324 0
-2340 -2339 -2324 0
2340 -2339 2324 0
2340 2339 -2324 0
-2341 2340 2325 0
-2341 -2340 -2325 0
2341 -2340 2325 0
2341 2340 -2325 0
-2341 0
-2342 2127 0
-2342 39 0
2342 -2127 -39 0
-2343 2129 0
-2343 40 0
2343 -2129 -40 0
-2344 2131 0
-2344 44 0
2344 -2131 -44 0
-2345 2133 0
-2345 42 0
2345 -2133 -42 0
-2346 2135 0
-2346 46 0
2346 -2135 -46 0
-2347 2137 0
-2347 47 0
2347 -2137 -47 0
-2348 2139 0
-2348 87 0
2348 -2139 -87 0
-2349 2141 0
-2349 95 0
2349 -2141 -95 0
-2350 2143 0
-2350 90 0
2350 -2143 -90 0
-2351 2145 0
-2351 92 0
2351 -2145 -92 0
-2352 2147 0
-2352 135 0
2352 -2147 -135 0
-2353 2149 0
-2353 143 0
2353 -2149 -143 0
-2354 2151 0
-2354 138 0
2354 -2151 -138 0
-2355 2153 0
-2355 140 0
2355 -2153 -140 0
-2356 2155 0
-2356 183 0
2356 -2155 -183 0
-2357 2157 0
-2357 184 0
2357 -2157 -184 0
-2358 2159 0
-2358 188 0
2358 -2159 -188 0
-2359 2342 2343 0
-2359 -2342 -2343 0
2359 -2342 2343 0
2359 2342 -2343 0
-2360 2359 2344 0
-2360 -2359 -2344 0
2360 -2359 2344 0
2360 2359 -2344 0
-2361 2360 2345 0
-2361 -2360 -2345 0
2361 -2360 2345 0
2361 2360 -2345 0
-2362 2361 2346 0
-2362 -2361 -2346 0
2362 -2361 2346 0
2362 2361 -2346 0
-2363 2362 2347 0
-2363 -2362 -2347 0
2363 -2362 2347 0
2363 2362 -2347 0
-2364 2363 2348 0
-2364 -2363 -2348 0
2364 -2363 2348 0
2364 2363 -2348 0
-2365 2364 2349 0
-2365 -2364 -2349 0
2365 -2364 2349 0
2365 2364 -2349 0
-2366 2365 2350 0
-2366 -2365 -2350 0
2366 -2365 2350 0
2366 2365 -2350 0
-2367 2366 2351 0
-2367 -2366 -2351 0
2367 -2366 2351 0
2367 2366 -2351 0
-2368 2367 2352 0
-2368 -2367 -2352 0
2368 -2367 2352 0
2368 2367 -2352 0
-2369 2368 2353 0
-2369 -2368 -2353 0
2369 -2368 2353 0
2369 2368 -2353 0
-2370 2369 2354 0
-2370 -2369 -2354 0
2370 -2369 2354 0
2370 2369 -2354 0
-2371 2370 2355 0
-2371 -2370 -2355 0
2371 -2370 2355 0
2371 2370 -2355 0
-2372 2371 2356 0
-2372 -2371 -2356 0
2372 -2371 2356 0
2372 2371 -2356 0
-2373 2372 2357 0
-2373 -2372 -2357 0
2373 -2372 2357 0
2373 2372 -2357 0
-2374 2373 2358 0
-2374 -2373 -2358 0
2374 -2373 2358 0
2374 2373 -2358 0
-2374 0
-2375 2127 0
-2375 40 0
2375 -2127 -40 0
-2376 2129 0
-2376 39 0
2376 -2129 -39 0
-2377 2131 0
-2377 42 0
2377 -2131 -42 0
-2378 2133 0
-2378 46 0
2378 -2133 -46 0
-2379 2135 0
-2379 42 0
2379 -2135 -42 0
-2380 2137 0
-2380 39 0
2380 -2137 -39 0
-2381 2139 0
-2381 88 0
2381 -2139 -88 0
-2382 2141 0
-2382 94 0
2382 -2141 -94 0
-2383 2143 0
-2383 94 0
2383 -2143 -94 0
-2384 2145 0
-2384 88 0
2384 -2145 -88 0
-2385 2147 0
-2385 136 0
2385 -2147 -136 0
-2386 2149 0
-2386 142 0
2386 -2149 -142 0
-2387 2151 0
-2387 142 0
2387 -2151 -142 0
-2388 2153 0
-2388 136 0
2388 -2153 -136 0
-2389 2155 0
-2389 184 0
2389 -2155 -184 0
-2390 2157 0
-2390 183 0
2390 -2157 -183 0
-2391 2159 0
-2391 186 0
2391 -2159 -186 0
-2392 2375 2376 0
-2392 -2375 -2376 0
2392 -2375 2376 0
2392 2375 -2376 0
-2393 2392 2377 0
-2393 -2392 -2377 0
2393 -2392 2377 0
2393 2392 -2377 0
-2394 2393 2378 0
-2394 -2393 -2378 0
2394 -2393 2378 0
2394 2393 -2378 0
-2395 2394 2379 0
-2395 -2394 -2379 0
2395 -2394 2379 0
2395 2394 -2379 0
-2396 2395 2380 0
-2396 -2395 -2380 0
2396 -2395 2380 0
2396 2395 -2380 0
-2397 2396 2381 0
-2397 -2396 -2381 0
2397 -2396 2381 0
2397 2396 -2381 0
-2398 2397 2382 0
-2398 -2397 -2382 0
2398 -2397 2382 0
2398 2397 -2382 0
-2399 2398 2383 0
-2399 -2398 -2383 0
2399 -2398 2383 0
2399 2398 -2383 0
-2400 2399 2384 0
-2400 -2399 -2384 0
2400 -2399 2384 0
2400 2399 -2384 0
-2401 2400 2385 0
-2401 -2400 -2385 0
2401 -2400 2385 0
2401 2400 -2385 0
-2402 2401 2386 0
-2402 -2401 -2386 0
2402 -2401 2386 0
2402 2401 -2386 0
-2403 2402 2387 0
-2403 -2402 -2387 0
2403 -2402 2387 0
2403 2402 -2387 0
-2404 2403 2388 0
-2404 -2403 -2388 0
2404 -2403 2388 0
2404 2403 -2388 0
-2405 2404 2389 0
-2405 -2404 -2389 0
2405 -2404 2389 0
2405 2404 -2389 0
-2406 2405 2390 0
-2406 -2405 -2390 0
2406 -2405 2390 0
2406 2405 -2390 0
-2407 2406 2391 0
-2407 -2406 -2391 0
2407 -2406 2391 0
2407 2406 -2391 0
-2407 0
-2408 2127 0
-2408 41 0
2408 -2127 -41 0
-2409 2129 0
-2409 45 0
2409 -2129 -45 0
-2410 2131 0
-2410 45 0
2410 -2131 -45 0
-2411 2133 0
-2411 35 0
2411 -2133 -35 0
-2412 2135 0
-2412 36 0
2412 -2135 -36 0
-2413 2137 0
-2413 36 0
2413 -2137 -36 0
-2414 2139 0
-2414 89 0
2414 -2139 -89 0
-2415 2141 0
-2415 89 0
2415 -2141 -89 0
-2416 2143 0
-2416 83 0
2416 -2143 -83 0
-2417 2145 0
-2417 83 0
2417 -2145 -83 0
-2418 2147 0
-2418 137 0
2418 -2147 -137 0
-2419 2149 0
-2419 137 0
2419 -2149 -137 0
-2420 2151 0
-2420 131 0
2420 -2151 -131 0
-2421 2153 0
-2421 131 0
2421 -2153 -131 0
-2422 2155 0
-2422 185 0
2422 -2155 -185 0
-2423 2157 0
-2423 189 0
2423 -2157 -189 0
-2424 2159 0
-2424 189 0
2424 -2159 -189 0
-2425 2408 2409 0
-2425 -2408 -2409 0
2425 -2408 2409 0
2425 2408 -2409 0
-2426 2425 2410 0
-2426 -2425 -2410 0
2426 -2425 2410 0
2426 2425 -2410 0
-2427 2426 2411 0
-2427 -2426 -2411 0
2427 -2426 2411 0
2427 2426 -2411 0
-2428 2427 2412 0
-2428 -2427 -2412 0
2428 -2427 2412 0
2428 2427 -2412 0
-2429 2428 2413 0
-2429 -2428 -2413 0
2429 -2428 2413 0
2429 2428 -2413 0
-2430 2429 2414 0
-2430 -2429 -2414 0
2430 -2429 2414 0
2430 2429 -2414 0
-2431 2430 2415 0
-2431 -2430 -2415 0
2431 -2430 2415 0
2431 2430 -2415 0
-2432 2431 2416 0
-2432 -2431 -2416 0
2432 -2431 2416 0
2432 2431 -2416 0
-2433 2432 2417 0
-2433 -2432 -2417 0
2433 -2432 2417 0
2433 2432 -2417 0
-2434 2433 2418 0
-2434 -2433 -2418 0
2434 -2433 2418 0
2434 2433 -2418 0
-2435 2434 2419 0
-2435 -2434 -2419 0
2435 -2434 2419 0
2435 2434 -2419 0
-2436 2435 2420 0
-2436 -2435 -2420 0
2436 -2435 2420 0
2436 2435 -2420 0
-2437 2436 2421 0
-2437 -2436 -2421 0
2437 -2436 2421 0
2437 2436 -2421 0
-2438 2437 2422 0
-2438 -2437 -2422 0
2438 -2437 2422 0
2438 2437 -2422 0
-2439 2438 2423 0
-2439 -2438 -2423 0
2439 -2438 2423 0
2439 2438 -2423 0
-2440 2439 2424 0
-2440 -2439 -2424 0
2440 -2439 2424 0
2440 2439 -2424 0
-2440 0
-2441 2127 0
-2441 42 0
2441 -2127 -42 0
-2442 2129 0
-2442 46 0
2442 -2129 -46 0
-2443 2131 0
-2443 47 0
2443 -2131 -47 0
-2444 2133 0
-2444 39 0
2444 -2133 -39 0
-2445 2135 0
-2445 40 0
2445 -2135 -40 0
-2446 2137 0
-2446 44 0
2446 -2137 -44 0
-2447 2139 0
-2447 90 0
2447 -2139 -90 0
-2448 2141 0
-2448 92 0
2448 -2141 -92 0
-2449 2143 0
-2449 87 0
2449 -2143 -87 0
-2450 2145 0
-2450 95 0
2450 -2145 -95 0
-2451 2147 0
-2451 138 0
2451 -2147 -138 0
-2452 2149 0
-2452 140 0
2452 -2149 -140 0
-2453 2151 0
-2453 135 0
2453 -2151 -135 0
-2454 2153 0
-2454 143 0
2454 -2153 -143 0
-2455 2155 0
-2455 186 0
2455 -2155 -186 0
-2456 2157 0
-2456 190 0
2456 -2157 -190 0
-2457 2159 0
-2457 191 0
2457 -2159 -191 0
-2458 2441 2442 0
-2458 -2441 -2442 0
2458 -2441 2442 0
2458 2441 -2442 0
-2459 2458 2443 0
-2459 -2458 -2443 0
2459 -2458 2443 0
2459 2458 -2443 0
-2460 2459 2444 0
-2460 -2459 -2444 0
2460 -2459 2444 0
2460 2459 -2444 0
-2461 2460 2445 0
-2461 -2460 -2445 0
2461 -2460 2445 0
2461 2460 -2445 0
-2462 2461 2446 0
-2462 -2461 -2446 0
2462 -2461 2446 0
2462 2461 -2446 0
-2463 2462 2447 0
-2463 -2462 -2447 0
2463 -2462 2447 0
2463 2462 -2447 0
-2464 2463 2448 0
-2464 -2463 -2448 0
2464 -2463 2448 0
2464 2463 -2448 0
-2465 2464 2449 0
-2465 -2464 -2449 0
2465 -2464 2449 0
2465 2464 -2449 0
-2466 2465 2450 0
-2466 -2465 -2450 0
2466 -2465 2450 0
2466 2465 -2450 0
-2467 2466 2451 0
-2467 -2466 -2451 0
2467 -2466 2451 0
2467 2466 -2451 0
-2468 2467 2452 0
-2468 -2467 -2452 0
2468 -2467 2452 0
2468 2467 -2452 0
-2469 2468 2453 0
-2469 -2468 -2453 0
2469 -2468 2453 0
2469 2468 -2453 0
-2470 2469 2454 0
-2470 -2469 -2454 0
2470 -2469 2454 0
2470 2469 -2454 0
-2471 2470 2455 0
-2471 -2470 -2455 0
2471 -2470 2455 0
2471 2470 -2455 0
-2472 2471 2456 0
-2472 -2471 -2456 0
2472 -2471 2456 0
2472 2471 -2456 0
-2473 2472 2457 0
-2473 -2472 -2457 0
2473 -2472 2457 0
2473 2472 -2457 0
-2473 0
-2474 2127 0
-2474 43 0
2474 -2127 -43 0
-2475 2129 0
-2475 48 0
2475 -2129 -48 0
-2476 2131 0
-2476 48 0
2476 -2131 -48 0
-2477 2133 0
-2477 43 0
2477 -2133 -43 0
-2478 2135 0
-2478 48 0
2478 -2135 -48 0
-2479 2137 0
-2479 48 0
2479 -2137 -48 0
-2480 2139 0
-2480 91 0
2480 -2139 -91 0
-2481 2141 0
-2481 91 0
2481 -2141 -91 0
-2482 2143 0
-2482 91 0
2482 -2143 -91 0
-2483 2145 0
-2483 91 0
2483 -2145 -91 0
-2484 2147 0
-2484 139 0
2484 -2147 -139 0
-2485 2149 0
-2485 139 0
2485 -2149 -139 0
-2486 2151 0
-2486 139 0
2486 -2151 -139 0
-2487 2153 0
-2487 139 0
2487 -2153 -139 0
-2488 2155 0
-2488 187 0
2488 -2155 -187 0
-2489 2157 0
-2489 192 0
2489 -2157 -192 0
-2490 2159 0
-2490 192 0
2490 -2159 -192 0
-2491 2474 2475 0
-2491 -2474 -2475 0
2491 -2474 2475 0
2491 2474 -2475 0
-2492 2491 2476 0
-2492 -2491 -2476 0
2492 -2491 2476 0
2492 2491 -2476 0
-2493 2492 2477 0
-2493 -2492 -2477 0
2493 -2492 2477 0
2493 2492 -2477 0
-2494 2493 2478 0
-2494 -2493 -2478 0
2494 -2493 2478 0
2494 2493 -2478 0
-2495 2494 2479 0
-2495 -2494 -2479 0
2495 -2494 2479 0
2495 2494 -2479 0
-2496 2495 2480 0
-2496 -2495 -2480 0
2496 -2495 2480 0
2496 2495 -2480 0
-2497 2496 2481 0
-2497 -2496 -2481 0
2497 -2496 2481 0
2497 2496 -2481 0
-2498 2497 2482 0
-2498 -2497 -2482 0
2498 -2497 2482 0
2498 2497 -2482 0
-2499 2498 2483 0
-2499 -2498 -2483 0
2499 -2498 2483 0
2499 2498 -2483 0
-2500 2499 2484 0
-2500 -2499 -2484 0
2500 -2499 2484 0
2500 2499 -2484 0
-2501 2500 2485 0
-2501 -2500 -2485 0
2501 -2500 2485 0
2501 2500 -2485 0
-2502 2501 2486 0
-2502 -2501 -2486 0
2502 -2501 2486 0
2502 2501 -2486 0
-2503 2502 2487 0
-2503 -2502 -2487 0
2503 -2502 2487 0
2503 2502 -2487 0
-2504 2503 2488 0
-2504 -2503 -2488 0
2504 -2503 2488 0
2504 2503 -2488 0
-2505 2504 2489 0
-2505 -2504 -2489 0
2505 -2504 2489 0
2505 2504 -2489 0
-2506 2505 2490 0
-2506 -2505 -2490 0
2506 -2505 2490 0
2506 2505 -2490 0
-2506 0
-2507 2127 0
-2507 44 0
2507 -2127 -44 0
-2508 2129 0
-2508 47 0
2508 -2129 -47 0
-2509 2131 0
-2509 46 0
2509 -2131 -46 0
-2510 2133 0
-2510 47 0
2510 -2133 -47 0
-2511 2135 0
-2511 44 0
2511 -2135 -44 0
-2512 2137 0
-2512 40 0
2512 -2137 -40 0
-2513 2139 0
-2513 92 0
2513 -2139 -92 0
-2514 2141 0
-2514 90 0
2514 -2141 -90 0
-2515 2143 0
-2515 95 0
2515 -2143 -95 0
-2516 2145 0
-2516 87 0
2516 -2145 -87 0
-2517 2147 0
-2517 140 0
2517 -2147 -140 0
-2518 2149 0
-2518 138 0
2518 -2149 -138 0
-2519 2151 0
-2519 143 0
2519 -2151 -143 0
-2520 2153 0
-2520 135 0
2520 -2153 -135 0
-2521 2155 0
-2521 188 0
2521 -2155 -188 0
-2522 2157 0
-2522 191 0
2522 -2157 -191 0
-2523 2159 0
-2523 190 0
2523 -2159 -190 0
-2524 2507 2508 0
-2524 -2507 -2508 0
2524 -2507 2508 0
2524 2507 -2508 0
-2525 2524 2509 0
-2525 -2524 -2509 0
2525 -2524 2509 0
2525 2524 -2509 0
-2526 2525 2510 0
-2526 -2525 -2510 0
2526 -2525 2510 0
2526 2525 -2510 0
-2527 2526 2511 0
-2527 -2526 -2511 0
2527 -2526 2511 0
2527 2526 -2511 0
-2528 2527 2512 0
-2528 -2527 -2512 0
2528 -2527 2512 0
2528 2527 -2512 0
-2529 2528 2513 0
-2529 -2528 -2513 0
2529 -2528 2513 0
2529 2528 -2513 0
-2530 2529 2514 0
-2530 -2529 -2514 0
2530 -2529 2514 0
2530 2529 -2514 0
-2531 2530 2515 0
-2531 -2530 -2515 0
2531 -2530 2515 0
2531 2530 -2515 0
-2532 2531 2516 0
-2532 -2531 -2516 0
2532 -2531 2516 0
2532 2531 -2516 0
-2533 2532 2517 0
-2533 -2532 -2517 0
2533 -2532 2517 0
2533 2532 -2517 0
-2534 2533 2518 0
-2534 -2533 -2518 0
2534 -2533 2518 0
2534 2533 -2518 0
-2535 2534 2519 0
-2535 -2534 -2519 0
2535 -2534 2519 0
2535 2534 -2519 0
-2536 2535 2520 0
-2536 -2535 -2520 0
2536 -2535 2520 0
2536 2535 -2520 0
-2537 2536 2521 0
-2537 -2536 -2521 0
2537 -2536 2521 0
2537 2536 -2521 0
-2538 2537 2522 0
-2538 -2537 -2522 0
2538 -2537 2522 0
2538 2537 -2522 0
-2539 2538 2523 0
-2539 -2538 -2523 0
2539 -2538 2523 0
2539 2538 -2523 0
-2539 0
-2540 2127 0
-2540 45 0
2540 -2127 -45 0
-2541 2129 0
-2541 41 0
2541 -2129 -41 0
-2542 2131 0
-2542 37 0
2542 -2131 -37 0
-2543 2133 0
-2543 36 0
2543 -2133 -36 0
-2544 2135 0
-2544 35 0
2544 -2135 -35 0
-2545 2137 0
-2545 34 0
2545 -2137 -34 0
-2546 2139 0
-2546 93 0
2546 -2139 -93 0
-2547 2141 0
-2547 85 0
2547 -2141 -85 0
-2548 2143 0
-2548 84 0
2548 -2143 -84 0
-2549 2145 0
-2549 82 0
2549 -2145 -82 0
-2550 2147 0
-2550 141 0
2550 -2147 -141 0
-2551 2149 0
-2551 133 0
2551 -2149 -133 0
-2552 2151 0
-2552 132 0
2552 -2151 -132 0
-2553 2153 0
-2553 130 0
2553 -2153 -130 0
-2554 2155 0
-2554 189 0
2554 -2155 -189 0
-2555 2157 0
-2555 185 0
2555 -2157 -185 0
-2556 2159 0
-2556 181 0
2556 -2159 -181 0
-2557 2540 2541 0
-2557 -2540 -2541 0
2557 -2540 2541 0
2557 2540 -2541 0
-2558 2557 2542 0
-2558 -2557 -2542 0
2558 -2557 2542 0
2558 2557 -2542 0
-2559 2558 2543 0
-2559 -2558 -2543 0
2559 -2558 2543 0
2559 2558 -2543 0
-2560 2559 2544 0
-2560 -2559 -2544 0
2560 -2559 2544 0
2560 2559 -2544 0
-2561 2560 2545 0
-2561 -2560 -2545 0
2561 -2560 2545 0
2561 2560 -2545 0
-2562 2561 2546 0
-2562 -2561 -2546 0
2562 -2561 2546 0
2562 2561 -2546 0
-2563 2562 2547 0
-2563 -2562 -2547 0
2563 -2562 2547 0
2563 2562 -2547 0
-2564 2563 2548 0
-2564 -2563 -2548 0
2564 -2563 2548 0
2564 2563 -2548 0
-2565 2564 2549 0
-2565 -2564 -2549 0
2565 -2564 2549 0
2565 2564 -2549 0
-2566 2565 2550 0
-2566 -2565 -2550 0
2566 -2565 2550 0
2566 2565 -2550 0
-2567 2566 2551 0
-2567 -2566 -2551 0
2567 -2566 2551 0
2567 2566 -2551 0
-2568 2567 2552 0
-2568 -2567 -2552 0
2568 -2567 2552 0
2568 2567 -2552 0
-2569 2568 2553 0
-2569 -2568 -2553 0
2569 -2568 2553 0
2569 2568 -2553 0
-2570 2569 2554 0
-2570 -2569 -2554 0
2570 -2569 2554 0
2570 2569 -2554 0
-2571 2570 2555 0
-2571 -2570 -2555 0
2571 -2570 2555 0
2571 2570 -2555 0
-2572 2571 2556 0
-2572 -2571 -2556 0
2572 -2571 2556 0
2572 2571 -2556 0
-2572 0
-2573 2127 0
-2573 46 0
2573 -2127 -46 0
-2574 2129 0
-2574 42 0
2574 -2129 -42 0
-2575 2131 0
-2575 39 0
2575 -2131 -39 0
-2576 2133 0
-2576 40 0
2576 -2133 -40 0
-2577 2135 0
-2577 39 0
2577 -2135 -39 0
-2578 2137 0
-2578 42 0
2578 -2137 -42 0
-2579 2139 0
-2579 94 0
2579 -2139 -94 0
-2580 2141 0
-2580 88 0
2580 -2141 -88 0
-2581 2143 0
-2581 88 0
2581 -2143 -88 0
-2582 2145 0
-2582 94 0
2582 -2145 -94 0
-2583 2147 0
-2583 142 0
2583 -2147 -142 0
-2584 2149 0
-2584 136 0
2584 -2149 -136 0
-2585 2151 0
-2585 136 0
2585 -2151 -136 0
-2586 2153 0
-2586 142 0
2586 -2153 -142 0
-2587 2155 0
-2587 190 0
2587 -2155 -190 0
-2588 2157 0
-2588 186 0
2588 -2157 -186 0
-2589 2159 0
-2589 183 0
2589 -2159 -183 0
-2590 2573 2574 0
-2590 -2573 -2574 0
2590 -2573 2574 0
2590 2573 -2574 0
-2591 2590 2575 0
-2591 -2590 -2575 0
2591 -2590 2575 0
2591 2590 -2575 0
-2592 2591 2576 0
-2592 -2591 -2576 0
2592 -2591 2576 0
2592 2591 -2576 0
-2593 2592 2577 0
-2593 -2592 -2577 0
2593 -2592 2577 0
2593 2592 -2577 0
-2594 2593 2578 0
-2594 -2593 -2578 0
2594 -2593 2578 0
2594 2593 -2578 0
-2595 2594 2579 0
-2595 -2594 -2579 0
2595 -2594 2579 0
2595 2594 -2579 0
-2596 2595 2580 0
-2596 -2595 -2580 0
2596 -2595 2580 0
2596 2595 -2580 0
-2597 2596 2581 0
-2597 -2596 -2581 0
2597 -2596 2581 0
2597 2596 -2581 0
-2598 2597 2582 0
-2598 -2597 -2582 0
2598 -2597 2582 0
2598 2597 -2582 0
-2599 2598 2583 0
-2599 -2598 -2583 0
2599 -2598 2583 0
2599 2598 -2583 0
-2600 2599 2584 0
-2600 -2599 -2584 0
2600 -2599 2584 0
2600 2599 -2584 0
-2601 2600 2585 0
-2601 -2600 -2585 0
2601 -2600 2585 0
2601 2600 -2585 0
-2602 2601 2586 0
-2602 -2601 -2586 0
2602 -2601 2586 0
2602 2601 -2586 0
-2603 2602 2587 0
-2603 -2602 -2587 0
2603 -2602 2587 0
2603 2602 -2587 0
-2604 2603 2588 0
-2604 -2603 -2588 0
2604 -2603 2588 0
2604 2603 -2588 0
-2605 2604 2589 0
-2605 -2604 -2589 0
2605 -2604 2589 0
2605 2604 -2589 0
-2605 0
-2606 2127 0
-2606 47 0
2606 -2127 -47 0
-2607 2129 0
-2607 44 0
2607 -2129 -44 0
-2608 2131 0
-2608 40 0
2608 -2131 -40 0
-2609 2133 0
-2609 44 0
2609 -2133 -44 0
-2610 2135 0
-2610 47 0
2610 -2135 -47 0
-2611 2137 0
-2611 46 0
2611 -2137 -46 0
-2612 2139 0
-2612 95 0
2612 -2139 -95 0
-2613 2141 0
-2613 87 0
2613 -2141 -87 0
-2614 2143 0
-2614 92 0
2614 -2143 -92 0
-2615 2145 0
-2615 90 0
2615 -2145 -90 0
-2616 2147 0
-2616 143 0
2616 -2147 -143 0
-2617 2149 0
-2617 135 0
2617 -2149 -135 0
-2618 2151 0
-2618 140 0
2618 -2151 -140 0
-2619 2153 0
-2619 138 0
2619 -2153 -138 0
-2620 2155 0
-2620 191 0
2620 -2155 -191 0
-2621 2157 0
-2621 188 0
2621 -2157 -188 0
-2622 2159 0
-2622 184 0
2622 -2159 -184 0
-2623 2606 2607 0
-2623 -2606 -2607 0
2623 -2606 2607 0
2623 2606 -2607 0
-2624 2623 2608 0
-2624 -2623 -2608 0
2624 -2623 2608 0
2624 2623 -2608 0
-2625 2624 2609 0
-2625 -2624 -2609 0
2625 -2624 2609 0
2625 2624 -2609 0
-2626 2625 2610 0
-2626 -2625 -2610 0
2626 -2625 2610 0
2626 2625 -2610 0
-2627 2626 2611 0
-2627 -2626 -2611 0
2627 -2626 2611 0
2627 2626 -2611 0
-2628 2627 2612 0
-2628 -2627 -2612 0
2628 -2627 2612 0
2628 2627 -2612 0
-2629 2628 2613 0
-2629 -2628 -2613 0
2629 -2628 2613 0
2629 2628 -2613 0
-2630 2629 2614 0
-2630 -2629 -2614 0
2630 -2629 2614 0
2630 2629 -2614 0
-2631 2630 2615 0
-2631 -2630 -2615 0
2631 -2630 2615 0
2631 2630 -2615 0
-2632 2631 2616 0
-2632 -2631 -2616 0
2632 -2631 2616 0
2632 2631 -2616 0
-2633 2632 2617 0
-2633 -2632 -2617 0
2633 -2632 2617 0
2633 2632 -2617 0
-2634 2633 2618 0
-2634 -2633 -2618 0
2634 -2633 2618 0
2634 2633 -2618 0
-2635 2634 2619 0
-2635 -2634 -2619 0
2635 -2634 2619 0
2635 2634 -2619 0
-2636 2635 2620 0
-2636 -2635 -2620 0
2636 -2635 2620 0
2636 2635 -2620 0
-2637 2636 2621 0
-2637 -2636 -2621 0
2637 -2636 2621 0
2637 2636 -2621 0
-2638 2637 2622 0
-2638 -2637 -2622 0
2638 -2637 2622 0
2638 2637 -2622 0
-2638 0
-2639 2127 0
-2639 48 0
2639 -2127 -48 0
-2640 2129 0
-2640 43 0
2640 -2129 -43 0
-2641 2131 0
-2641 38 0
2641 -2131 -38 0
-2642 2133 0
-2642 48 0
2642 -2133 -48 0
-2643 2135 0
-2643 43 0
2643 -2135 -43 0
-2644 2137 0
-2644 38 0
2644 -2137 -38 0
-2645 2139 0
-2645 96 0
2645 -2139 -96 0
-2646 2141 0
-2646 86 0
2646 -2141 -86 0
-2647 2143 0
-2647 96 0
2647 -2143 -96 0
-2648 2145 0
-2648 86 0
2648 -2145 -86 0
-2649 2147 0
-2649 144 0
2649 -2147 -144 0
-2650 2149 0
-2650 134 0
2650 -2149 -134 0
-2651 2151 0
-2651 144 0
2651 -2151 -144 0
-2652 2153 0
-2652 134 0
2652 -2153 -134 0
-2653 2155 0
-2653 192 0
2653 -2155 -192 0
-2654 2157 0
-2654 187 0
2654 -2157 -187 0
-2655 2159 0
-2655 182 0
2655 -2159 -182 0
-2656 2639 2640 0
-2656 -2639 -2640 0
2656 -2639 2640 0
2656 2639 -2640 0
-2657 2656 2641 0
-2657 -2656 -2641 0
2657 -2656 2641 0
2657 2656 -2641 0
-2658 2657 2642 0
-2658 -2657 -2642 0
2658 -2657 2642 0
2658 2657 -2642 0
-2659 2658 2643 0
-2659 -2658 -2643 0
2659 -2658 2643 0
2659 2658 -2643 0
-2660 2659 2644 0
-2660 -2659 -2644 0
2660 -2659 2644 0
2660 2659 -2644 0
-2661 2660 2645 0
-2661 -2660 -2645 0
2661 -2660 2645 0
2661 2660 -2645 0
-2662 2661 2646 0
-2662 -2661 -2646 0
2662 -2661 2646 0
2662 2661 -2646 0
-2663 2662 2647 0
-2663 -2662 -2647 0
2663 -2662 2647 0
2663 2662 -2647 0
-2664 2663 2648 0
-2664 -2663 -2648 0
2664 -2663 2648 0
2664 2663 -2648 0
-2665 2664 2649 0
-2665 -2664 -2649 0
2665 -2664 2649 0
2665 2664 -2649 0
-2666 2665 2650 0
-2666 -2665 -2650 0
2666 -2665 2650 0
2666 2665 -2650 0
-2667 2666 2651 0
-2667 -2666 -2651 0
2667 -2666 2651 0
2667 2666 -2651 0
-2668 2667 2652 0
-2668 -2667 -2652 0
2668 -2667 2652 0
2668 2667 -2652 0
-2669 2668 2653 0
-2669 -2668 -2653 0
2669 -2668 2653 0
2669 2668 -2653 0
-2670 2669 2654 0
-2670 -2669 -2654 0
2670 -2669 2654 0
2670 2669 -2654 0
-2671 2670 2655 0
-2671 -2670 -2655 0
2671 -2670 2655 0
2671 2670 -2655 0
-2671 0
-2672 1 0
-2672 24 0
2672 -1 -24 0
-2673 2672 0
-2673 33 0
2673 -2672 -33 0
-2674 2 0
-2674 19 0
2674 -2 -19 0
-2675 2674 0
-2675 33 0
2675 -2674 -33 0
-2676 2 0
-2676 26 0
2676 -2 -26 0
-2677 2676 0
-2677 33 0
2677 -2676 -33 0
-2678 17 0
-2678 14 0
2678 -17 -14 0
-2679 2678 0
-2679 33 0
2679 -2678 -33 0
-2680 21 0
-2680 9 0
2680 -21 -9 0
-2681 2680 0
-2681 33 0
2681 -2680 -33 0
-2682 21 0
-2682 7 0
2682 -21 -7 0
-2683 2682 0
-2683 33 0
2683 -2682 -33 0
-2684 49 0
-2684 72 0
2684 -49 -72 0
-2685 2684 0
-2685 81 0
2685 -2684 -81 0
-2686 49 0
-2686 74 0
2686 -49 -74 0
-2687 2686 0
-2687 81 0
2687 -2686 -81 0
-2688 65 0
-2688 62 0
2688 -65 -62 0
-2689 2688 0
-2689 81 0
2689 -2688 -81 0
-2690 65 0
-2690 55 0
2690 -65 -55 0
-2691 2690 0
-2691 81 0
2691 -2690 -81 0
-2692 97 0
-2692 120 0
2692 -97 -120 0
-2693 2692 0
-2693 129 0
2693 -2692 -129 0
-2694 97 0
-2694 122 0
2694 -97 -122 0
-2695 2694 0
-2695 129 0
2695 -2694 -129 0
-2696 113 0
-2696 110 0
2696 -113 -110 0
-2697 2696 0
-2697 129 0
2697 -2696 -129 0
-2698 113 0
-2698 103 0
2698 -113 -103 0
-2699 2698 0
-2699 129 0
2699 -2698 -129 0
-2700 145 0
-2700 168 0
2700 -145 -168 0
-2701 2700 0
-2701 177 0
2701 -2700 -177 0
-2702 146 0
-2702 163 0
2702 -146 -163 0
-2703 2702 0
-2703 177 0
2703 -2702 -177 0
-2704 146 0
-2704 170 0
2704 -146 -170 0
-2705 2704 0
-2705 177 0
2705 -2704 -177 0
-2706 2673 2675 0
-2706 -2673 -2675 0
2706 -2673 2675 0
2706 2673 -2675 0
-2707 2706 2677 0
-2707 -2706 -2677 0
2707 -2706 2677 0
2707 2706 -2677 0
-2708 2707 2679 0
-2708 -2707 -2679 0
2708 -2707 2679 0
2708 2707 -2679 0
-2709 2708 2681 0
-2709 -2708 -2681 0
2709 -2708 2681 0
2709 2708 -2681 0
-2710 2709 2683 0
-2710 -2709 -2683 0
2710 -2709 2683 0
2710 2709 -2683 0
-2711 2710 2685 0
-2711 -2710 -2685 0
2711 -2710 2685 0
2711 2710 -2685 0
-2712 2711 2687 0
-2712 -2711 -2687 0
2712 -2711 2687 0
2712 2711 -2687 0
-2713 2712 2689 0
-2713 -2712 -2689 0
2713 -2712 2689 0
2713 2712 -2689 0
-2714 2713 2691 0
-2714 -2713 -2691 0
2714 -2713 2691 0
2714 2713 -2691 0
-2715 2714 2693 0
-2715 -2714 -2693 0
2715 -2714 2693 0
2715 2714 -2693 0
-2716 2715 2695 0
-2716 -2715 -2695 0
2716 -2715 2695 0
2716 2715 -2695 0
-2717 2716 2697 0
-2717 -2716 -2697 0
2717 -2716 2697 0
2717 2716 -2697 0
-2718 2717 2699 0
-2718 -2717 -2699 0
2718 -2717 2699 0
2718 2717 -2699 0
-2719 2718 2701 0
-2719 -2718 -2701 0
2719 -2718 2701 0
2719 2718 -2701 0
-2720 2719 2703 0
-2720 -2719 -2703 0
2720 -2719 2703 0
2720 2719 -2703 0
-2721 2720 2705 0
-2721 -2720 -2705 0
2721 -2720 2705 0
2721 2720 -2705 0
-2721 0
-2722 2672 0
-2722 34 0
2722 -2672 -34 0
-2723 2674 0
-2723 34 0
2723 -2674 -34 0
-2724 2676 0
-2724 35 0
2724 -2676 -35 0
-2725 2678 0
-2725 37 0
2725 -2678 -37 0
-2726 2680 0
-2726 37 0
2726 -2680 -37 0
-2727 2682 0
-2727 41 0
2727 -2682 -41 0
-2728 2684 0
-2728 82 0
2728 -2684 -82 0
-2729 2686 0
-2729 84 0
2729 -2686 -84 0
-2730 2688 0
-2730 85 0
2730 -2688 -85 0
-2731 2690 0
-2731 93 0
2731 -2690 -93 0
-2732 2692 0
-2732 130 0
2732 -2692 -130 0
-2733 2694 0
-2733 132 0
2733 -2694 -132 0
-2734 2696 0
-2734 133 0
2734 -2696 -133 0
-2735 2698 0
-2735 141 0
2735 -2698 -141 0
-2736 2700 0
-2736 178 0
2736 -2700 -178 0
-2737 2702 0
-2737 178 0
2737 -2702 -178 0
-2738 2704 0
-2738 179 0
2738 -2704 -179 0
-2739 2722 2723 0
-2739 -2722 -2723 0
2739 -2722 2723 0
2739 2722 -2723 0
-2740 2739 2724 0
-2740 -2739 -2724 0
2740 -2739 2724 0
2740 2739 -2724 0
-2741 2740 2725 0
-2741 -2740 -2725 0
2741 -2740 2725 0
2741 2740 -2725 0
-2742 2741 2726 0
-2742 -2741 -2726 0
2742 -2741 2726 0
2742 2741 -2726 0
-2743 2742 2727 0
-2743 -2742 -2727 0
2743 -2742 2727 0
2743 2742 -2727 0
-2744 2743 2728 0
-2744 -2743 -2728 0
2744 -2743 2728 0
2744 2743 -2728 0
-2745 2744 2729 0
-2745 -2744 -2729 0
2745 -2744 2729 0
2745 2744 -2729 0
-2746 2745 2730 0
-2746 -2745 -2730 0
2746 -2745 2730 0
2746 2745 -2730 0
-2747 2746 2731 0
-2747 -2746 -2731 0
2747 -2746 2731 0
2747 2746 -2731 0
-2748 2747 2732 0
-2748 -2747 -2732 0
2748 -2747 2732 0
2748 2747 -2732 0
-2749 2748 2733 0
-2749 -2748 -2733 0
2749 -2748 2733 0
2749 2748 -2733 0
-2750 2749 2734 0
-2750 -2749 -2734 0
2750 -2749 2734 0
2750 2749 -2734 0
-2751 2750 2735 0
-2751 -2750 -2735 0
2751 -2750 2735 0
2751 2750 -2735 0
-2752 2751 2736 0
-2752 -2751 -2736 0
2752 -2751 2736 0
2752 2751 -2736 0
-2753 2752 2737 0
-2753 -2752 -2737 0
2753 -2752 2737 0
2753 2752 -2737 0
-2754 2753 2738 0
-2754 -2753 -2738 0
2754 -2753 2738 0
2754 2753 -2738 0
-2754 0
-2755 2672 0
-2755 35 0
2755 -2672 -35 0
-2756 2674 0
-2756 36 0
2756 -2674 -36 0
-2757 2676 0
-2757 36 0
2757 -2676 -36 0
-2758 2678 0
-2758 41 0
2758 -2678 -41 0
-2759 2680 0
-2759 45 0
2759 -2680 -45 0
-2760 2682 0
-2760 45 0
2760 -2682 -45 0
-2761 2684 0
-2761 83 0
2761 -2684 -83 0
-2762 2686 0
-2762 83 0
2762 -2686 -83 0
-2763 2688 0
-2763 89 0
2763 -2688 -89 0
-2764 2690 0
-2764 89 0
2764 -2690 -89 0
-2765 2692 0
-2765 131 0
2765 -2692 -131 0
-2766 2694 0
-2766 131 0
2766 -2694 -131 0
-2767 2696 0
-2767 137 0
2767 -2696 -137 0
-2768 2698 0
-2768 137 0
2768 -2698 -137 0
-2769 2700 0
-2769 179 0
2769 -2700 -179 0
-2770 2702 0
-2770 180 0
2770 -2702 -180 0
-2771 2704 0
-2771 180 0
2771 -2704 -180 0
-2772 2755 2756 0
-2772 -2755 -2756 0
2772 -2755 2756 0
2772 2755 -2756 0
-2773 2772 2757 0
-2773 -2772 -2757 0
2773 -2772 2757 0
2773 2772 -2757 0
-2774 2773 2758 0
-2774 -2773 -2758 0
2774 -2773 2758 0
2774 2773 -2758 0
-2775 2774 2759 0
-2775 -2774 -2759 0
2775 -2774 2759 0
2775 2774 -2759 0
-2776 2775 2760 0
-2776 -2775 -2760 0
2776 -2775 2760 0
2776 2775 -2760 0
-2777 2776 2761 0
-2777 -2776 -2761 0
2777 -2776 2761 0
2777 2776 -2761 0
-2778 2777 2762 0
-2778 -2777 -2762 0
2778 -2777 2762 0
2778 2777 -2762 0
-2779 2778 2763 0
-2779 -2778 -2763 0
2779 -2778 2763 0
2779 2778 -2763 0
-2780 2779 2764 0
-2780 -2779 -2764 0
2780 -2779 2764 0
2780 2779 -2764 0
-2781 2780 2765 0
-2781 -2780 -2765 0
2781 -2780 2765 0
2781 2780 -2765 0
-2782 2781 2766 0
-2782 -2781 -2766 0
2782 -2781 2766 0
2782 2781 -2766 0
-2783 2782 2767 0
-2783 -2782 -2767 0
2783 -2782 2767 0
2783 2782 -2767 0
-2784 2783 2768 0
-2784 -2783 -2768 0
2784 -2783 2768 0
2784 2783 -2768 0
-2785 2784 2769 0
-2785 -2784 -2769 0
2785 -2784 2769 0
2785 2784 -2769 0
-2786 2785 2770 0
-2786 -2785 -2770 0
2786 -2785 2770 0
2786 2785 -2770 0
-2787 2786 2771 0
-2787 -2786 -2771 0
2787 -2786 2771 0
2787 2786 -2771 0
2787 0
-2788 2672 0
-2788 36 0
2788 -2672 -36 0
-2789 2674 0
-2789 35 0
2789 -2674 -35 0
-2790 2676 0
-2790 34 0
2790 -2676 -34 0
-2791 2678 0
-2791 45 0
2791 -2678 -45 0
-2792 2680 0
-2792 41 0
2792 -2680 -41 0
-2793 2682 0
-2793 37 0
2793 -2682 -37 0
-2794 2684 0
-2794 84 0
2794 -2684 -84 0
-2795 2686 0
-2795 82 0
2795 -2686 -82 0
-2796 2688 0
-2796 93 0
2796 -2688 -93 0
-2797 2690 0
-2797 85 0
2797 -2690 -85 0
-2798 2692 0
-2798 132 0
2798 -2692 -132 0
-2799 2694 0
-2799 130 0
2799 -2694 -130 0
-2800 2696 0
-2800 141 0
2800 -2696 -141 0
-2801 2698 0
-2801 133 0
2801 -2698 -133 0
-2802 2700 0
-2802 180 0
2802 -2700 -180 0
-2803 2702 0
-2803 179 0
2803 -2702 -179 0
-2804 2704 0
-2804 178 0
2804 -2704 -178 0
-2805 2788 2789 0
-2805 -2788 -2789 0
2805 -2788 2789 0
2805 2788 -2789 0
-2806 2805 2790 0
-2806 -2805 -2790 0
2806 -2805 2790 0
2806 2805 -2790 0
-2807 2806 2791 0
-2807 -2806 -2791 0
2807 -2806 2791 0
2807 2806 -2791 0
-2808 2807 2792 0
-2808 -2807 -2792 0
2808 -2807 2792 0
2808 2807 -2792 0
-2809 2808 2793 0
-2809 -2808 -2793 0
2809 -2808 2793 0
2809 2808 -2793 0
-2810 2809 2794 0
-2810 -2809 -2794 0
2810 -2809 2794 0
2810 2809 -2794 0
-2811 2810 2795 0
-2811 -2810 -2795 0
2811 -2810 2795 0
2811 2810 -2795 0
-2812 2811 2796 0
-2812 -2811 -2796 0
2812 -2811 2796 0
2812 2811 -2796 0
-2813 2812 2797 0
-2813 -2812 -2797 0
2813 -2812 2797 0
2813 2812 -2797 0
-2814 2813 2798 0
-2814 -2813 -2798 0
2814 -2813 2798 0
2814 2813 -2798 0
-2815 2814 2799 0
-2815 -2814 -2799 0
2815 -2814 2799 0
2815 2814 -2799 0
-2816 2815 2800 0
-2816 -2815 -2800 0
2816 -2815 2800 0
2816 2815 -2800 0
-2817 2816 2801 0
-2817 -2816 -2801 0
2817 -2816 2801 0
2817 2816 -2801 0
-2818 2817 2802 0
-2818 -2817 -2802 0
2818 -2817 2802 0
2818 2817 -2802 0
-2819 2818 2803 0
-2819 -2818 -2803 0
2819 -2818 2803 0
2819 2818 -2803 0
-2820 2819 2804 0
-2820 -2819 -2804 0
2820 -2819 2804 0
2820 2819 -2804 0
-2820 0
-2821 2672 0
-2821 37 0
2821 -2672 -37 0
-2822 2674 0
-2822 37 0
2822 -2674 -37 0
-2823 2676 0
-2823 41 0
2823 -2676 -41 0
-2824 2678 0
-2824 34 0
2824 -2678 -34 0
-2825 2680 0
-2825 34 0
2825 -2680 -34 0
-2826 2682 0
-2826 35 0
2826 -2682 -35 0
-2827 2684 0
-2827 85 0
2827 -2684 -85 0
-2828 2686 0
-2828 93 0
2828 -2686 -93 0
-2829 2688 0
-2829 82 0
2829 -2688 -82 0
-2830 2690 0
-2830 84 0
2830 -2690 -84 0
-2831 2692 0
-2831 133 0
2831 -2692 -133 0
-2832 2694 0
-2832 141 0
2832 -2694 -141 0
-2833 2696 0
-2833 130 0
2833 -2696 -130 0
-2834 2698 0
-2834 132 0
2834 -2698 -132 0
-2835 2700 0
-2835 181 0
2835 -2700 -181 0
-2836 2702 0
-2836 181 0
2836 -2702 -181 0
-2837 2704 0
-2837 185 0
2837 -2704 -185 0
-2838 2821 2822 0
-2838 -2821 -2822 0
2838 -2821 2822 0
2838 2821 -2822 0
-2839 2838 2823 0
-2839 -2838 -2823 0
2839 -2838 2823 0
2839 2838 -2823 0
-2840 2839 2824 0
-2840 -2839 -2824 0
2840 -2839 2824 0
2840 2839 -2824 0
-2841 2840 2825 0
-2841 -2840 -2825 0
2841 -2840 2825 0
2841 2840 -2825 0
-2842 2841 2826 0
-2842 -2841 -2826 0
2842 -2841 2826 0
2842 2841 -2826 0
-2843 2842 2827 0
-2843 -2842 -2827 0
2843 -2842 2827 0
2843 2842 -2827 0
-2844 2843 2828 0
-2844 -2843 -2828 0
2844 -2843 2828 0
2844 2843 -2828 0
-2845 2844 2829 0
-2845 -2844 -2829 0
2845 -2844 2829 0
2845 2844 -2829 0
-2846 2845 2830 0
-2846 -2845 -2830 0
2846 -2845 2830 0
2846 2845 -2830 0
-2847 2846 2831 0
-2847 -2846 -2831 0
2847 -2846 2831 0
2847 2846 -2831 0
-2848 2847 2832 0
-2848 -2847 -2832 0
2848 -2847 2832 0
2848 2847 -2832 0
-2849 2848 2833 0
-2849 -2848 -2833 0
2849 -2848 2833 0
2849 2848 -2833 0
-2850 2849 2834 0
-2850 -2849 -2834 0
2850 -2849 2834 0
2850 2849 -2834 0
-2851 2850 2835 0
-2851 -2850 -2835 0
2851 -2850 2835 0
2851 2850 -2835 0
-2852 2851 2836 0
-2852 -2851 -2836 0
2852 -2851 2836 0
2852 2851 -2836 0
-2853 2852 2837 0
-2853 -2852 -2837 0
2853 -2852 2837 0
2853 2852 -2837 0
-2853 0
-2854 2672 0
-2854 38 0
2854 -2672 -38 0
-2855 2674 0
-2855 38 0
2855 -2674 -38 0
-2856 2676 0
-2856 43 0
2856 -2676 -43 0
-2857 2678 0
-2857 38 0
2857 -2678 -38 0
-2858 2680 0
-2858 38 0
2858 -2680 -38 0
-2859 2682 0
-2859 43 0
2859 -2682 -43 0
-2860 2684 0
-2860 86 0
2860 -2684 -86 0
-2861 2686 0
-2861 96 0
2861 -2686 -96 0
-2862 2688 0
-2862 86 0
2862 -2688 -86 0
-2863 2690 0
-2863 96 0
2863 -2690 -96 0
-2864 2692 0
-2864 134 0
2864 -2692 -134 0
-2865 2694 0
-2865 144 0
2865 -2694 -144 0
-2866 2696 0
-2866 134 0
2866 -2696 -134 0
-2867 2698 0
-2867 144 0
2867 -2698 -144 0
-2868 2700 0
-2868 182 0
2868 -2700 -182 0
-2869 2702 0
-2869 182 0
2869 -2702 -182 0
-2870 2704 0
-2870 187 0
2870 -2704 -187 0
-2871 2854 2855 0
-2871 -2854 -2855 0
2871 -2854 2855 0
2871 2854 -2855 0
-2872 2871 2856 0
-2872 -2871 -2856 0
2872 -2871 2856 0
2872 2871 -2856 0
-2873 2872 2857 0
-2873 -2872 -2857 0
2873 -2872 2857 0
2873 2872 -2857 0
-2874 2873 2858 0
-2874 -2873 -2858 0
2874 -2873 2858 0
2874 2873 -2858 0
-2875 2874 2859 0
-2875 -2874 -2859 0
2875 -2874 2859 0
2875 2874 -2859 0
-2876 2875 2860 0
-2876 -2875 -2860 0
2876 -2875 2860 0
2876 2875 -2860 0
-2877 2876 2861 0
-2877 -2876 -2861 0
2877 -2876 2861 0
2877 2876 -2861 0
-2878 2877 2862 0
-2878 -2877 -2862 0
2878 -2877 2862 0
2878 2877 -2862 0
-2879 2878 2863 0
-2879 -2878 -2863 0
2879 -2878 2863 0
2879 2878 -2863 0
-2880 2879 2864 0
-2880 -2879 -2864 0
2880 -2879 2864 0
2880 2879 -2864 0
-2881 2880 2865 0
-2881 -2880 -2865 0
2881 -2880 2865 0
2881 2880 -2865 0
-2882 2881 2866 0
-2882 -2881 -2866 0
2882 -2881 2866 0
2882 2881 -2866 0
-2883 2882 2867 0
-2883 -2882 -2867 0
2883 -2882 2867 0
2883 2882 -2867 0
-2884 2883 2868 0
-2884 -2883 -2868 0
2884 -2883 2868 0
2884 2883 -2868 0
-2885 2884 2869 0
-2885 -2884 -2869 0
2885 -2884 2869 0
2885 2884 -2869 0
-2886 2885 2870 0
-2886 -2885 -2870 0
2886 -2885 2870 0
2886 2885 -2870 0
-2886 0
-2887 2672 0
-2887 39 0
2887 -2672 -39 0
-2888 2674 0
-2888 40 0
2888 -2674 -40 0
-2889 2676 0
-2889 44 0
2889 -2676 -44 0
-2890 2678 0
-2890 42 0
2890 -2678 -42 0
-2891 2680 0
-2891 46 0
2891 -2680 -46 0
-2892 2682 0
-2892 47 0
2892 -2682 -47 0
-2893 2684 0
-2893 87 0
2893 -2684 -87 0
-2894 2686 0
-2894 95 0
2894 -2686 -95 0
-2895 2688 0
-2895 90 0
2895 -2688 -90 0
-2896 2690 0
-2896 92 0
2896 -2690 -92 0
-2897 2692 0
-2897 135 0
2897 -2692 -135 0
-2898 2694 0
-2898 143 0
2898 -2694 -143 0
-2899 2696 0
-2899 138 0
2899 -2696 -138 0
-2900 2698 0
-2900 140 0
2900 -2698 -140 0
-2901 2700 0
-2901 183 0
2901 -2700 -183 0
-2902 2702 0
-2902 184 0
2902 -2702 -184 0
-2903 2704 0
-2903 188 0
2903 -2704 -188 0
-2904 2887 2888 0
-2904 -2887 -2888 0
2904 -2887 2888 0
2904 2887 -2888 0
-2905 2904 2889 0
-2905 -2904 -2889 0
2905 -2904 2889 0
2905 2904 -2889 0
-2906 2905 2890 0
-2906 -2905 -2890 0
2906 -2905 2890 0
2906 2905 -2890 0
-2907 2906 2891 0
-2907 -2906 -2891 0
2907 -2906 2891 0
2907 2906 -2891 0
-2908 2907 2892 0
-2908 -2907 -2892 0
2908 -2907 2892 0
2908 2907 -2892 0
-2909 2908 2893 0
-2909 -2908 -2893 0
2909 -2908 2893 0
2909 2908 -2893 0
-2910 2909 2894 0
-2910 -2909 -2894 0
2910 -2909 2894 0
2910 2909 -2894 0
-2911 2910 2895 0
-2911 -2910 -2895 0
2911 -2910 2895 0
2911 2910 -2895 0
-2912 2911 2896 0
-2912 -2911 -2896 0
2912 -2911 2896 0
2912 2911 -2896 0
-2913 2912 2897 0
-2913 -2912 -2897 0
2913 -2912 2897 0
2913 2912 -2897 0
-2914 2913 2898 0
-2914 -2913 -2898 0
2914 -2913 2898 0
2914 2913 -2898 0
-2915 2914 2899 0
-2915 -2914 -2899 0
2915 -2914 2899 0
2915 2914 -2899 0
-2916 2915 2900 0
-2916 -2915 -2900 0
2916 -2915 2900 0
2916 2915 -2900 0
-2917 2916 2901 0
-2917 -2916 -2901 0
2917 -2916 2901 0
2917 2916 -2901 0
-2918 2917 2902 0
-2918 -2917 -2902 0
2918 -2917 2902 0
2918 2917 -2902 0
-2919 2918 2903 0
-2919 -2918 -2903 0
2919 -2918 2903 0
2919 2918 -2903 0
-2919 0
-2920 2672 0
-2920 40 0
2920 -2672 -40 0
-2921 2674 0
-2921 39 0
2921 -2674 -39 0
-2922 2676 0
-2922 42 0
2922 -2676 -42 0
-2923 2678 0
-2923 46 0
2923 -2678 -46 0
-2924 2680 0
-2924 42 0
2924 -2680 -42 0
-2925 2682 0
-2925 39 0
2925 -2682 -39 0
-2926 2684 0
-2926 88 0
2926 -2684 -88 0
-2927 2686 0
-2927 94 0
2927 -2686 -94 0
-2928 2688 0
-2928 94 0
2928 -2688 -94 0
-2929 2690 0
-2929 88 0
2929 -2690 -88 0
-2930 2692 0
-2930 136 0
2930 -2692 -136 0
-2931 2694 0
-2931 142 0
2931 -2694 -142 0
-2932 2696 0
-2932 142 0
2932 -2696 -142 0
-2933 2698 0
-2933 136 0
2933 -2698 -136 0
-2934 2700 0
-2934 184 0
2934 -2700 -184 0
-2935 2702 0
-2935 183 0
2935 -2702 -183 0
-2936 2704 0
-2936 186 0
2936 -2704 -186 0
-2937 2920 2921 0
-2937 -2920 -2921 0
2937 -2920 2921 0
2937 2920 -2921 0
-2938 2937 2922 0
-2938 -2937 -2922 0
2938 -2937 2922 0
2938 2937 -2922 0
-2939 2938 2923 0
-2939 -2938 -2923 0
2939 -2938 2923 0
2939 2938 -2923 0
-2940 2939 2924 0
-2940 -2939 -2924 0
2940 -2939 2924 0
2940 2939 -2924 0
-2941 2940 2925 0
-2941 -2940 -2925 0
2941 -2940 2925 0
2941 2940 -2925 0
-2942 2941 2926 0
-2942 -2941 -2926 0
2942 -2941 2926 0
2942 2941 -2926 0
-2943 2942 2927 0
-2943 -2942 -2927 0
2943 -2942 2927 0
2943 2942 -2927 0
-2944 2943 2928 0
-2944 -2943 -2928 0
2944 -2943 2928 0
2944 2943 -2928 0
-2945 2944 2929 0
-2945 -2944 -2929 0
2945 -2944 2929 0
2945 2944 -2929 0
-2946 2945 2930 0
-2946 -2945 -2930 0
2946 -2945 2930 0
2946 2945 -2930 0
-2947 2946 2931 0
-2947 -2946 -2931 0
2947 -2946 2931 0
2947 2946 -2931 0
-2948 2947 2932 0
-2948 -2947 -2932 0
2948 -2947 2932 0
2948 2947 -2932 0
-2949 2948 2933 0
-2949 -2948 -2933 0
2949 -2948 2933 0
2949 2948 -2933 0
-2950 2949 2934 0
-2950 -2949 -2934 0
2950 -2949 2934 0
2950 2949 -2934 0
-2951 2950 2935 0
-2951 -2950 -2935 0
2951 -2950 2935 0
2951 2950 -2935 0
-2952 2951 2936 0
-2952 -2951 -2936 0
2952 -2951 2936 0
2952 2951 -2936 0
-2952 0
-2953 2672 0
-2953 41 0
2953 -2672 -41 0
-2954 2674 0
-2954 45 0
2954 -2674 -45 0
-2955 2676 0
-2955 45 0
2955 -2676 -45 0
-2956 2678 0
-2956 35 0
2956 -2678 -35 0
-2957 2680 0
-2957 36 0
2957 -2680 -36 0
-2958 2682 0
-2958 36 0
2958 -2682 -36 0
-2959 2684 0
-2959 89 0
2959 -2684 -89 0
-2960 2686 0
-2960 89 0
2960 -2686 -89 0
-2961 2688 0
-2961 83 0
2961 -2688 -83 0
-2962 2690 0
-2962 83 0
2962 -2690 -83 0
-2963 2692 0
-2963 137 0
2963 -2692 -137 0
-2964 2694 0
-2964 137 0
2964 -2694 -137 0
-2965 2696 0
-2965 131 0
2965 -2696 -131 0
-2966 2698 0
-2966 131 0
2966 -2698 -131 0
-2967 2700 0
-2967 185 0
2967 -2700 -185 0
-2968 2702 0
-2968 189 0
2968 -2702 -189 0
-2969 2704 0
-2969 189 0
2969 -2704 -189 0
-2970 2953 2954 0
-2970 -2953 -2954 0
2970 -2953 2954 0
2970 2953 -2954 0
-2971 2970 2955 0
-2971 -2970 -2955 0
2971 -2970 2955 0
2971 2970 -2955 0
-2972 2971 2956 0
-2972 -2971 -2956 0
2972 -2971 2956 0
2972 2971 -2956 0
-2973 2972 2957 0
-2973 -2972 -2957 0
2973 -2972 2957 0
2973 2972 -2957 0
-2974 2973 2958 0
-2974 -2973 -2958 0
2974 -2973 2958 0
2974 2973 -2958 0
-2975 2974 2959 0
-2975 -2974 -2959 0
2975 -2974 2959 0
2975 2974 -2959 0
-2976 2975 2960 0
-2976 -2975 -2960 0
2976 -2975 2960 0
2976 2975 -2960 0
-2977 2976 2961 0
-2977 -2976 -2961 0
2977 -2976 2961 0
2977 2976 -2961 0
-2978 2977 2962 0
-2978 -2977 -2962 0
2978 -2977 2962 0
2978 2977 -2962 0
-2979 2978 2963 0
-2979 -2978 -2963 0
2979 -2978 2963 0
2979 2978 -2963 0
-2980 2979 2964 0
-2980 -2979 -2964 0
2980 -2979 2964 0
2980 2979 -2964 0
-2981 2980 2965 0
-2981 -2980 -2965 0
2981 -2980 2965 0
2981 2980 -2965 0
-2982 2981 2966 0
-2982 -2981 -2966 0
2982 -2981 2966 0
2982 2981 -2966 0
-2983 2982 2967 0
-2983 -2982 -2967 0
2983 -2982 2967 0
2983 2982 -2967 0
-2984 2983 2968 0
-2984 -2983 -2968 0
2984 -2983 2968 0
2984 2983 -2968 0
-2985 2984 2969 0
-2985 -2984 -2969 0
2985 -2984 2969 0
2985 2984 -2969 0
-2985 0
-2986 2672 0
-2986 42 0
2986 -2672 -42 0
-2987 2674 0
-2987 46 0
2987 -2674 -46 0
-2988 2676 0
-2988 47 0
2988 -2676 -47 0
-2989 2678 0
-2989 39 0
2989 -2678 -39 0
-2990 2680 0
-2990 40 0
2990 -2680 -40 0
-2991 2682 0
-2991 44 0
2991 -2682 -44 0
-2992 2684 0
-2992 90 0
2992 -2684 -90 0
-2993 2686 0
-2993 92 0
2993 -2686 -92 0
-2994 2688 0
-2994 87 0
2994 -2688 -87 0
-2995 2690 0
-2995 95 0
2995 -2690 -95 0
-2996 2692 0
-2996 138 0
2996 -2692 -138 0
-2997 2694 0
-2997 140 0
2997 -2694 -140 0
-2998 2696 0
-2998 135 0
2998 -2696 -135 0
-2999 2698 0
-2999 143 0
2999 -2698 -143 0
-3000 2700 0
-3000 186 0
3000 -2700 -186 0
-3001 2702 0
-3001 190 0
3001 -2702 -190 0
-3002 2704 0
-3002 191 0
3002 -2704 -191 0
-3003 2986 2987 0
-3003 -2986 -2987 0
3003 -2986 2987 0
3003 2986 -2987 0
-3004 3003 2988 0
-3004 -3003 -2988 0
3004 -3003 2988 0
3004 3003 -2988 0
-3005 3004 2989 0
-3005 -3004 -2989 0
3005 -3004 2989 0
3005 3004 -2989 0
-3006 3005 2990 0
-3006 -3005 -2990 0
3006 -3005 2990 0
3006 3005 -2990 0
-3007 3006 2991 0
-3007 -3006 -2991 0
3007 -3006 2991 0
3007 3006 -2991 0
-3008 3007 2992 0
-3008 -3007 -2992 0
3008 -3007 2992 0
3008 3007 -2992 0
-3009 3008 2993 0
-3009 -3008 -2993 0
3009 -3008 2993 0
3009 3008 -2993 0
-3010 3009 2994 0
-3010 -3009 -2994 0
3010 -3009 2994 0
3010 3009 -2994 0
-3011 3010 2995 0
-3011 -3010 -2995 0
3011 -3010 2995 0
3011 3010 -2995 0
-3012 3011 2996 0
-3012 -3011 -2996 0
3012 -3011 2996 0
3012 3011 -2996 0
-3013 3012 2997 0
-3013 -3012 -2997 0
3013 -3012 2997 0
3013 3012 -2997 0
-3014 3013 2998 0
-3014 -3013 -2998 0
3014 -3013 2998 0
3014 3013 -2998 0
-3015 3014 2999 0
-3015 -3014 -2999 0
3015 -3014 2999 0
3015 3014 -2999 0
-3016 3015 3000 0
-3016 -3015 -3000 0
3016 -3015 3000 0
3016 3015 -3000 0
-3017 3016 3001 0
-3017 -3016 -3001 0
3017 -3016 3001 0
3017 3016 -3001 0
-3018 3017 3002 0
-3018 -3017 -3002 0
3018 -3017 3002 0
3018 3017 -3002 0
-3018 0
-3019 2672 0
-3019 43 0
3019 -2672 -43 0
-3020 2674 0
-3020 48 0
3020 -2674 -48 0
-3021 2676 0
-3021 48 0
3021 -2676 -48 0
-3022 2678 0
-3022 43 0
3022 -2678 -43 0
-3023 2680 0
-3023 48 0
3023 -2680 -48 0
-3024 2682 0
-3024 48 0
3024 -2682 -48 0
-3025 2684 0
-3025 91 0
3025 -2684 -91 0
-3026 2686 0
-3026 91 0
3026 -2686 -91 0
-3027 2688 0
-3027 91 0
3027 -2688 -91 0
-3028 2690 0
-3028 91 0
3028 -2690 -91 0
-3029 2692 0
-3029 139 0
3029 -2692 -139 0
-3030 2694 0
-3030 139 0
3030 -2694 -139 0
-3031 2696 0
-3031 139 0
3031 -2696 -139 0
-3032 2698 0
-3032 139 0
3032 -2698 -139 0
-3033 2700 0
-3033 187 0
3033 -2700 -187 0
-3034 2702 0
-3034 192 0
3034 -2702 -192 0
-3035 2704 0
-3035 192 0
3035 -2704 -192 0
-3036 3019 3020 0
-3036 -3019 -3020 0
3036 -3019 3020 0
3036 3019 -3020 0
-3037 3036 3021 0
-3037 -3036 -3021 0
3037 -3036 3021 0
3037 3036 -3021 0
-3038 3037 3022 0
-3038 -3037 -3022 0
3038 -3037 3022 0
3038 3037 -3022 0
-3039 3038 3023 0
-3039 -3038 -3023 0
3039 -3038 3023 0
3039 3038 -3023 0
-3040 3039 3024 0
-3040 -3039 -3024 0
3040 -3039 3024 0
3040 3039 -3024 0
-3041 3040 3025 0
-3041 -3040 -3025 0
3041 -3040 3025 0
3041 3040 -3025 0
-3042 3041 3026 0
-3042 -3041 -3026 0
3042 -3041 3026 0
3042 3041 -3026 0
-3043 3042 3027 0
-3043 -3042 -3027 0
3043 -3042 3027 0
3043 3042 -3027 0
-3044 3043 3028 0
-3044 -3043 -3028 0
3044 -3043 3028 0
3044 3043 -3028 0
-3045 3044 3029 0
-3045 -3044 -3029 0
3045 -3044 3029 0
3045 3044 -3029 0
-3046 3045 3030 0
-3046 -3045 -3030 0
3046 -3045 3030 0
3046 3045 -3030 0
-3047 3046 3031 0
-3047 -3046 -3031 0
3047 -3046 3031 0
3047 3046 -3031 0
-3048 3047 3032 0
-3048 -3047 -3032 0
3048 -3047 3032 0
3048 3047 -3032 0
-3049 3048 3033 0
-3049 -3048 -3033 0
3049 -3048 3033 0
3049 3048 -3033 0
-3050 3049 3034 0
-3050 -3049 -3034 0
3050 -3049 3034 0
3050 3049 -3034 0
-3051 3050 3035 0
-3051 -3050 -3035 0
3051 -3050 3035 0
3051 3050 -3035 0
-3051 0
-3052 2672 0
-3052 44 0
3052 -2672 -44 0
-3053 2674 0
-3053 47 0
3053 -2674 -47 0
-3054 2676 0
-3054 46 0
3054 -2676 -46 0
-3055 2678 0
-3055 47 0
3055 -2678 -47 0
-3056 2680 0
-3056 44 0
3056 -2680 -44 0
-3057 2682 0
-3057 40 0
3057 -2682 -40 0
-3058 2684 0
-3058 92 0
3058 -2684 -92 0
-3059 2686 0
-3059 90 0
3059 -2686 -90 0
-3060 2688 0
-3060 95 0
3060 -2688 -95 0
-3061 2690 0
-3061 87 0
3061 -2690 -87 0
-3062 2692 0
-3062 140 0
3062 -2692 -140 0
-3063 2694 0
-3063 138 0
3063 -2694 -138 0
-3064 2696 0
-3064 143 0
3064 -2696 -143 0
-3065 2698 0
-3065 135 0
3065 -2698 -135 0
-3066 2700 0
-3066 188 0
3066 -2700 -188 0
-3067 2702 0
-3067 191 0
3067 -2702 -191 0
-3068 2704 0
-3068 190 0
3068 -2704 -190 0
-3069 3052 3053 0
-3069 -3052 -3053 0
3069 -3052 3053 0
3069 3052 -3053 0
-3070 3069 3054 0
-3070 -3069 -3054 0
3070 -3069 3054 0
3070 3069 -3054 0
-3071 3070 3055 0
-3071 -3070 -3055 0
3071 -3070 3055 0
3071 3070 -3055 0
-3072 3071 3056 0
-3072 -3071 -3056 0
3072 -3071 3056 0
3072 3071 -3056 0
-3073 3072 3057 0
-3073 -3072 -3057 0
3073 -3072 3057 0
3073 3072 -3057 0
-3074 3073 3058 0
-3074 -3073 -3058 0
3074 -3073 3058 0
3074 3073 -3058 0
-3075 3074 3059 0
-3075 -3074 -3059 0
3075 -3074 3059 0
3075 3074 -3059 0
-3076 3075 3060 0
-3076 -3075 -3060 0
3076 -3075 3060 0
3076 3075 -3060 0
-3077 3076 3061 0
-3077 -3076 -3061 0
3077 -3076 3061 0
3077 3076 -3061 0
-3078 3077 3062 0
-3078 -3077 -3062 0
3078 -3077 3062 0
3078 3077 -3062 0
-3079 3078 3063 0
-3079 -3078 -3063 0
3079 -3078 3063 0
3079 3078 -3063 0
-3080 3079 3064 0
-3080 -3079 -3064 0
3080 -3079 3064 0
3080 3079 -3064 0
-3081 3080 3065 0
-3081 -3080 -3065 0
3081 -3080 3065 0
3081 3080 -3065 0
-3082 3081 3066 0
-3082 -3081 -3066 0
3082 -3081 3066 0
3082 3081 -3066 0
-3083 3082 3067 0
-3083 -3082 -3067 0
3083 -3082 3067 0
3083 3082 -3067 0
-3084 3083 3068 0
-3084 -3083 -3068 0
3084 -3083 3068 0
3084 3083 -3068 0
-3084 0
-3085 2672 0
-3085 45 0
3085 -2672 -45 0
-3086 2674 0
-3086 41 0
3086 -2674 -41 0
-3087 2676 0
-3087 37 0
3087 -2676 -37 0
-3088 2678 0
-3088 36 0
3088 -2678 -36 0
-3089 2680 0
-3089 35 0
3089 -2680 -35 0
-3090 2682 0
-3090 34 0
3090 -2682 -34 0
-3091 2684 0
-3091 93 0
3091 -2684 -93 0
-3092 2686 0
-3092 85 0
3092 -2686 -85 0
-3093 2688 0
-3093 84 0
3093 -2688 -84 0
-3094 2690 0
-3094 82 0
3094 -2690 -82 0
-3095 2692 0
-3095 141 0
3095 -2692 -141 0
-3096 2694 0
-3096 133 0
3096 -2694 -133 0
-3097 2696 0
-3097 132 0
3097 -2696 -132 0
-3098 2698 0
-3098 130 0
3098 -2698 -130 0
-3099 2700 0
-3099 189 0
3099 -2700 -189 0
-3100 2702 0
-3100 185 0
3100 -2702 -185 0
-3101 2704 0
-3101 181 0
3101 -2704 -181 0
-3102 3085 3086 0
-3102 -3085 -3086 0
3102 -3085 3086 0
3102 3085 -3086 0
-3103 3102 3087 0
-3103 -3102 -3087 0
3103 -3102 3087 0
3103 3102 -3087 0
-3104 3103 3088 0
-3104 -3103 -3088 0
3104 -3103 3088 0
3104 3103 -3088 0
-3105 3104 3089 0
-3105 -3104 -3089 0
3105 -3104 3089 0
3105 3104 -3089 0
-3106 3105 3090 0
-3106 -3105 -3090 0
3106 -3105 3090 0
3106 3105 -3090 0
-3107 3106 3091 0
-3107 -3106 -3091 0
3107 -3106 3091 0
3107 3106 -3091 0
-3108 3107 3092 0
-3108 -3107 -3092 0
3108 -3107 3092 0
3108 3107 -3092 0
-3109 3108 3093 0
-3109 -3108 -3093 0
3109 -3108 3093 0
3109 3108 -3093 0
-3110 3109 3094 0
-3110 -3109 -3094 0
3110 -3109 3094 0
3110 3109 -3094 0
-3111 3110 3095 0
-3111 -3110 -3095 0
3111 -3110 3095 0
3111 3110 -3095 0
-3112 3111 3096 0
-3112 -3111 -3096 0
3112 -3111 3096 0
3112 3111 -3096 0
-3113 3112 3097 0
-3113 -3112 -3097 0
3113 -3112 3097 0
3113 3112 -3097 0
-3114 3113 3098 0
-3114 -3113 -3098 0
3114 -3113 3098 0
3114 3113 -3098 0
-3115 3114 3099 0
-3115 -3114 -3099 0
3115 -3114 3099 0
3115 3114 -3099 0
-3116 3115 3100 0
-3116 -3115 -3100 0
3116 -3115 3100 0
3116 3115 -3100 0
-3117 3116 3101 0
-3117 -3116 -3101 0
3117 -3116 3101 0
3117 3116 -3101 0
3117 0
-3118 2672 0
-3118 46 0
3118 -2672 -46 0
-3119 2674 0
-3119 42 0
3119 -2674 -42 0
-3120 2676 0
-3120 39 0
3120 -2676 -39 0
-3121 2678 0
-3121 40 0
3121 -2678 -40 0
-3122 2680 0
-3122 39 0
3122 -2680 -39 0
-3123 2682 0
-3123 42 0
3123 -2682 -42 0
-3124 2684 0
-3124 94 0
3124 -2684 -94 0
-3125 2686 0
-3125 88 0
3125 -2686 -88 0
-3126 2688 0
-3126 88 0
3126 -2688 -88 0
-3127 2690 0
-3127 94 0
3127 -2690 -94 0
-3128 2692 0
-3128 142 0
3128 -2692 -142 0
-3129 2694 0
-3129 136 0
3129 -2694 -136 0
-3130 2696 0
-3130 136 0
3130 -2696 -136 0
-3131 2698 0
-3131 142 0
3131 -2698 -142 0
-3132 2700 0
-3132 190 0
3132 -2700 -190 0
-3133 2702 0
-3133 186 0
3133 -2702 -186 0
-3134 2704 0
-3134 183 0
3134 -2704 -183 0
-3135 3118 3119 0
-3135 -3118 -3119 0
3135 -3118 3119 0
3135 3118 -3119 0
-3136 3135 3120 0
-3136 -3135 -3120 0
3136 -3135 3120 0
3136 3135 -3120 0
-3137 3136 3121 0
-3137 -3136 -3121 0
3137 -3136 3121 0
3137 3136 -3121 0
-3138 3137 3122 0
-3138 -3137 -3122 0
3138 -3137 3122 0
3138 3137 -3122 0
-3139 3138 3123 0
-3139 -3138 -3123 0
3139 -3138 3123 0
3139 3138 -3123 0
-3140 3139 3124 0
-3140 -3139 -3124 0
3140 -3139 3124 0
3140 3139 -3124 0
-3141 3140 3125 0
-3141 -3140 -3125 0
3141 -3140 3125 0
3141 3140 -3125 0
-3142 3141 3126 0
-3142 -3141 -3126 0
3142 -3141 3126 0
3142 3141 -3126 0
-3143 3142 3127 0
-3143 -3142 -3127 0
3143 -3142 3127 0
3143 3142 -3127 0
-3144 3143 3128 0
-3144 -3143 -3128 0
3144 -3143 3128 0
3144 3143 -3128 0
-3145 3144 3129 0
-3145 -3144 -3129 0
3145 -3144 3129 0
3145 3144 -3129 0
-3146 3145 3130 0
-3146 -3145 -3130 0
3146 -3145 3130 0
3146 3145 -3130 0
-3147 3146 3131 0
-3147 -3146 -3131 0
3147 -3146 3131 0
3147 3146 -3131 0
-3148 3147 3132 0
-3148 -3147 -3132 0
3148 -3147 3132 0
3148 3147 -3132 0
-3149 3148 3133 0
-3149 -3148 -3133 0
3149 -3148 3133 0
3149 3148 -3133 0
-3150 3149 3134 0
-3150 -3149 -3134 0
3150 -3149 3134 0
3150 3149 -3134 0
-3150 0
-3151 2672 0
-3151 47 0
3151 -2672 -47 0
-3152 2674 0
-3152 44 0
3152 -2674 -44 0
-3153 2676 0
-3153 40 0
3153 -2676 -40 0
-3154 2678 0
-3154 44 0
3154 -2678 -44 0
-3155 2680 0
-3155 47 0
3155 -2680 -47 0
-3156 2682 0
-3156 46 0
3156 -2682 -46 0
-3157 2684 0
-3157 95 0
3157 -2684 -95 0
-3158 2686 0
-3158 87 0
3158 -2686 -87 0
-3159 2688 0
-3159 92 0
3159 -2688 -92 0
-3160 2690 0
-3160 90 0
3160 -2690 -90 0
-3161 2692 0
-3161 143 0
3161 -2692 -143 0
-3162 2694 0
-3162 135 0
3162 -2694 -135 0
-3163 2696 0
-3163 140 0
3163 -2696 -140 0
-3164 2698 0
-3164 138 0
3164 -2698 -138 0
-3165 2700 0
-3165 191 0
3165 -2700 -191 0
-3166 2702 0
-3166 188 0
3166 -2702 -188 0
-3167 2704 0
-3167 184 0
3167 -2704 -184 0
-3168 3151 3152 0
-3168 -3151 -3152 0
3168 -3151 3152 0
3168 3151 -3152 0
-3169 3168 3153 0
-3169 -3168 -3153 0
3169 -3168 3153 0
3169 3168 -3153 0
-3170 3169 3154 0
-3170 -3169 -3154 0
3170 -3169 3154 0
3170 3169 -3154 0
-3171 3170 3155 0
-3171 -3170 -3155 0
3171 -3170 3155 0
3171 3170 -3155 0
-3172 3171 3156 0
-3172 -3171 -3156 0
3172 -3171 3156 0
3172 3171 -3156 0
-3173 3172 3157 0
-3173 -3172 -3157 0
3173 -3172 3157 0
3173 3172 -3157 0
-3174 3173 3158 0
-3174 -3173 -3158 0
3174 -3173 3158 0
3174 3173 -3158 0
-3175 3174 3159 0
-3175 -3174 -3159 0
3175 -3174 3159 0
3175 3174 -3159 0
-3176 3175 3160 0
-3176 -3175 -3160 0
3176 -3175 3160 0
3176 3175 -3160 0
-3177 3176 3161 0
-3177 -3176 -3161 0
3177 -3176 3161 0
3177 3176 -3161 0
-3178 3177 3162 0
-3178 -3177 -3162 0
3178 -3177 3162 0
3178 3177 -3162 0
-3179 3178 3163 0
-3179 -3178 -3163 0
3179 -3178 3163 0
3179 3178 -3163 0
-3180 3179 3164 0
-3180 -3179 -3164 0
3180 -3179 3164 0
3180 3179 -3164 0
-3181 3180 3165 0
-3181 -3180 -3165 0
3181 -3180 3165 0
3181 3180 -3165 0
-3182 3181 3166 0
-3182 -3181 -3166 0
3182 -3181 3166 0
3182 3181 -3166 0
-3183 3182 3167 0
-3183 -3182 -3167 0
3183 -3182 3167 0
3183 3182 -3167 0
-3183 0
-3184 2672 0
-3184 48 0
3184 -2672 -48 0
-3185 2674 0
-3185 43 0
3185 -2674 -43 0
-3186 2676 0
-3186 38 0
3186 -2676 -38 0
-3187 2678 0
-3187 48 0
3187 -2678 -48 0
-3188 2680 0
-3188 43 0
3188 -2680 -43 0
-3189 2682 0
-3189 38 0
3189 -2682 -38 0
-3190 2684 0
-3190 96 0
3190 -2684 -96 0
-3191 2686 0
-3191 86 0
3191 -2686 -86 0
-3192 2688 0
-3192 96 0
3192 -2688 -96 0
-3193 2690 0
-3193 86 0
3193 -2690 -86 0
-3194 2692 0
-3194 144 0
3194 -2692 -144 0
-3195 2694 0
-3195 134 0
3195 -2694 -134 0
-3196 2696 0
-3196 144 0
3196 -2696 -144 0
-3197 2698 0
-3197 134 0
3197 -2698 -134 0
-3198 2700 0
-3198 192 0
3198 -2700 -192 0
-3199 2702 0
-3199 187 0
3199 -2702 -187 0
-3200 2704 0
-3200 182 0
3200 -2704 -182 0
-3201 3184 3185 0
-3201 -3184 -3185 0
3201 -3184 3185 0
3201 3184 -3185 0
-3202 3201 3186 0
-3202 -3201 -3186 0
3202 -3201 3186 0
3202 3201 -3186 0
-3203 3202 3187 0
-3203 -3202 -3187 0
3203 -3202 3187 0
3203 3202 -3187 0
-3204 3203 3188 0
-3204 -3203 -3188 0
3204 -3203 3188 0
3204 3203 -3188 0
-3205 3204 3189 0
-3205 -3204 -3189 0
3205 -3204 3189 0
3205 3204 -3189 0
-3206 3205 3190 0
-3206 -3205 -3190 0
3206 -3205 3190 0
3206 3205 -3190 0
-3207 3206 3191 0
-3207 -3206 -3191 0
3207 -3206 3191 0
3207 3206 -3191 0
-3208 3207 3192 0
-3208 -3207 -3192 0
3208 -3207 3192 0
3208 3207 -3192 0
-3209 3208 3193 0
-3209 -3208 -3193 0
3209 -3208 3193 0
3209 3208 -3193 0
-3210 3209 3194 0
-3210 -3209 -3194 0
3210 -3209 3194 0
3210 3209 -3194 0
-3211 3210 3195 0
-3211 -3210 -3195 0
3211 -3210 3195 0
3211 3210 -3195 0
-3212 3211 3196 0
-3212 -3211 -3196 0
3212 -3211 3196 0
3212 3211 -3196 0
-3213 3212 3197 0
-3213 -3212 -3197 0
3213 -3212 3197 0
3213 3212 -3197 0
-3214 3213 3198 0
-3214 -3213 -3198 0
3214 -3213 3198 0
3214 3213 -3198 0
-3215 3214 3199 0
-3215 -3214 -3199 0
3215 -3214 3199 0
3215 3214 -3199 0
-3216 3215 3200 0
-3216 -3215 -3200 0
3216 -3215 3200 0
3216 3215 -3200 0
-3216 0
-3217 1 0
-3217 29 0
3217 -1 -29 0
-3218 3217 0
-3218 33 0
3218 -3217 -33 0
-3219 2 0
-3219 29 0
3219 -2 -29 0
-3220 3219 0
-3220 33 0
3220 -3219 -33 0
-3221 17 0
-3221 4 0
3221 -17 -4 0
-3222 3221 0
-3222 33 0
3222 -3221 -33 0
-3223 21 0
-3223 4 0
3223 -21 -4 0
-3224 3223 0
-3224 33 0
3224 -3223 -33 0
-3225 49 0
-3225 77 0
3225 -49 -77 0
-3226 3225 0
-3226 81 0
3226 -3225 -81 0
-3227 65 0
-3227 52 0
3227 -65 -52 0
-3228 3227 0
-3228 81 0
3228 -3227 -81 0
-3229 97 0
-3229 125 0
3229 -97 -125 0
-3230 3229 0
-3230 129 0
3230 -3229 -129 0
-3231 113 0
-3231 100 0
3231 -113 -100 0
-3232 3231 0
-3232 129 0
3232 -3231 -129 0
-3233 145 0
-3233 173 0
3233 -145 -173 0
-3234 3233 0
-3234 177 0
3234 -3233 -177 0
-3235 146 0
-3235 173 0
3235 -146 -173 0
-3236 3235 0
-3236 177 0
3236 -3235 -177 0
-3237 3218 3220 0
-3237 -3218 -3220 0
3237 -3218 3220 0
3237 3218 -3220 0
-3238 3237 3220 0
-3238 -3237 -3220 0
3238 -3237 3220 0
3238 3237 -3220 0
-3239 3238 3222 0
-3239 -3238 -3222 0
3239 -3238 3222 0
3239 3238 -3222 0
-3240 3239 3224 0
-3240 -3239 -3224 0
3240 -3239 3224 0
3240 3239 -3224 0
-3241 3240 3224 0
-3241 -3240 -3224 0
3241 -3240 3224 0
3241 3240 -3224 0
-3242 3241 3226 0
-3242 -3241 -3226 0
3242 -3241 3226 0
3242 3241 -3226 0
-3243 3242 3226 0
-3243 -3242 -3226 0
3243 -3242 3226 0
3243 3242 -3226 0
-3244 3243 3228 0
-3244 -3243 -3228 0
3244 -3243 3228 0
3244 3243 -3228 0
-3245 3244 3228 0
-3245 -3244 -3228 0
3245 -3244 3228 0
3245 3244 -3228 0
-3246 3245 3230 0
-3246 -3245 -3230 0
3246 -3245 3230 0
3246 3245 -3230 0
-3247 3246 3230 0
-3247 -3246 -3230 0
3247 -3246 3230 0
3247 3246 -3230 0
-3248 3247 3232 0
-3248 -3247 -3232 0
3248 -3247 3232 0
3248 3247 -3232 0
-3249 3248 3232 0
-3249 -3248 -3232 0
3249 -3248 3232 0
3249 3248 -3232 0
-3250 3249 3234 0
-3250 -3249 -3234 0
3250 -3249 3234 0
3250 3249 -3234 0
-3251 3250 3236 0
-3251 -3250 -3236 0
3251 -3250 3236 0
3251 3250 -3236 0
-3252 3251 3236 0
-3252 -3251 -3236 0
3252 -3251 3236 0
3252 3251 -3236 0
-3252 0
-3253 3217 0
-3253 34 0
3253 -3217 -34 0
-3254 3219 0
-3254 34 0
3254 -3219 -34 0
-3255 3219 0
-3255 35 0
3255 -3219 -35 0
-3256 3221 0
-3256 37 0
3256 -3221 -37 0
-3257 3223 0
-3257 37 0
3257 -3223 -37 0
-3258 3223 0
-3258 41 0
3258 -3223 -41 0
-3259 3225 0
-3259 82 0
3259 -3225 -82 0
-3260 3225 0
-3260 84 0
3260 -3225 -84 0
-3261 3227 0
-3261 85 0
3261 -3227 -85 0
-3262 3227 0
-3262 93 0
3262 -3227 -93 0
-3263 3229 0
-3263 130 0
3263 -3229 -130 0
-3264 3229 0
-3264 132 0
3264 -3229 -132 0
-3265 3231 0
-3265 133 0
3265 -3231 -133 0
-3266 3231 0
-3266 141 0
3266 -3231 -141 0
-3267 3233 0
-3267 178 0
3267 -3233 -178 0
-3268 3235 0
-3268 178 0
3268 -3235 -178 0
-3269 3235 0
-3269 179 0
3269 -3235 -179 0
-3270 3253 3254 0
-3270 -3253 -3254 0
3270 -3253 3254 0
3270 3253 -3254 0
-3271 3270 3255 0
-3271 -3270 -3255 0
3271 -3270 3255 0
3271 3270 -3255 0
-3272 3271 3256 0
-3272 -3271 -3256 0
3272 -3271 3256 0
3272 3271 -3256 0
-3273 3272 3257 0
-3273 -3272 -3257 0
3273 -3272 3257 0
3273 3272 -3257 0
-3274 3273 3258 0
-3274 -3273 -3258 0
3274 -3273 3258 0
3274 3273 -3258 0
-3275 3274 3259 0
-3275 -3274 -3259 0
3275 -3274 3259 0
3275 3274 -3259 0
-3276 3275 3260 0
-3276 -3275 -3260 0
3276 -3275 3260 0
3276 3275 -3260 0
-3277 3276 3261 0
-3277 -3276 -3261 0
3277 -3276 3261 0
3277 3276 -3261 0
-3278 3277 3262 0
-3278 -3277 -3262 0
3278 -3277 3262 0
3278 3277 -3262 0
-3279 3278 3263 0
-3279 -3278 -3263 0
3279 -3278 3263 0
3279 3278 -3263 0
-3280 3279 3264 0
-3280 -3279 -3264 0
3280 -3279 3264 0
3280 3279 -3264 0
-3281 3280 3265 0
-3281 -3280 -3265 0
3281 -3280 3265 0
3281 3280 -3265 0
-3282 3281 3266 0
-3282 -3281 -3266 0
3282 -3281 3266 0
3282 3281 -3266 0
-3283 3282 3267 0
-3283 -3282 -3267 0
3283 -3282 3267 0
3283 3282 -3267 0
-3284 3283 3268 0
-3284 -3283 -3268 0
3284 -3283 3268 0
3284 3283 -3268 0
-3285 3284 3269 0
-3285 -3284 -3269 0
3285 -3284 3269 0
3285 3284 -3269 0
-3285 0
-3286 3217 0
-3286 35 0
3286 -3217 -35 0
-3287 3219 0
-3287 36 0
3287 -3219 -36 0
-3288 3221 0
-3288 41 0
3288 -3221 -41 0
-3289 3223 0
-3289 45 0
3289 -3223 -45 0
-3290 3225 0
-3290 83 0
3290 -3225 -83 0
-3291 3227 0
-3291 89 0
3291 -3227 -89 0
-3292 3229 0
-3292 131 0
3292 -3229 -131 0
-3293 3231 0
-3293 137 0
3293 -3231 -137 0
-3294 3233 0
-3294 179 0
3294 -3233 -179 0
-3295 3235 0
-3295 180 0
3295 -3235 -180 0
-3296 3286 3287 0
-3296 -3286 -3287 0
3296 -3286 3287 0
3296 3286 -3287 0
-3297 3296 3287 0
-3297 -3296 -3287 0
3297 -3296 3287 0
3297 3296 -3287 0
-3298 3297 3288 0
-3298 -3297 -3288 0
3298 -3297 3288 0
3298 3297 -3288 0
-3299 3298 3289 0
-3299 -3298 -3289 0
3299 -3298 3289 0
3299 3298 -3289 0
-3300 3299 3289 0
-3300 -3299 -3289 0
3300 -3299 3289 0
3300 3299 -3289 0
-3301 3300 3290 0
-3301 -3300 -3290 0
3301 -3300 3290 0
3301 3300 -3290 0
-3302 3301 3290 0
-3302 -3301 -3290 0
3302 -3301 3290 0
3302 3301 -3290 0
-3303 3302 3291 0
-3303 -3302 -3291 0
3303 -3302 3291 0
3303 3302 -3291 0
-3304 3303 3291 0
-3304 -3303 -3291 0
3304 -3303 3291 0
3304 3303 -3291 0
-3305 3304 3292 0
-3305 -3304 -3292 0
3305 -3304 3292 0
3305 3304 -3292 0
-3306 3305 3292 0
-3306 -3305 -3292 0
3306 -3305 3292 0
3306 3305 -3292 0
-3307 3306 3293 0
-3307 -3306 -3293 0
3307 -3306 3293 0
3307 3306 -3293 0
-3308 3307 3293 0
-3308 -3307 -3293 0
3308 -3307 3293 0
3308 3307 -3293 0
-3309 3308 3294 0
-3309 -3308 -3294 0
3309 -3308 3294 0
3309 3308 -3294 0
-3310 3309 3295 0
-3310 -3309 -3295 0
3310 -3309 3295 0
3310 3309 -3295 0
-3311 3310 3295 0
-3311 -3310 -3295 0
3311 -3310 3295 0
3311 3310 -3295 0
-3311 0
-3312 3217 0
-3312 37 0
3312 -3217 -37 0
-3313 3219 0
-3313 37 0
3313 -3219 -37 0
-3314 3219 0
-3314 41 0
3314 -3219 -41 0
-3315 3221 0
-3315 34 0
3315 -3221 -34 0
-3316 3223 0
-3316 34 0
3316 -3223 -34 0
-3317 3223 0
-3317 35 0
3317 -3223 -35 0
-3318 3225 0
-3318 85 0
3318 -3225 -85 0
-3319 3225 0
-3319 93 0
3319 -3225 -93 0
-3320 3227 0
-3320 82 0
3320 -3227 -82 0
-3321 3227 0
-3321 84 0
3321 -3227 -84 0
-3322 3229 0
-3322 133 0
3322 -3229 -133 0
-3323 3229 0
-3323 141 0
3323 -3229 -141 0
-3324 3231 0
-3324 130 0
3324 -3231 -130 0
-3325 3231 0
-3325 132 0
3325 -3231 -132 0
-3326 3233 0
-3326 181 0
3326 -3233 -181 0
-3327 3235 0
-3327 181 0
3327 -3235 -181 0
-3328 3235 0
-3328 185 0
3328 -3235 -185 0
-3329 3312 3313 0
-3329 -3312 -3313 0
3329 -3312 3313 0
3329 3312 -3313 0
-3330 3329 3314 0
-3330 -3329 -3314 0
3330 -3329 3314 0
3330 3329 -3314 0
-3331 3330 3315 0
-3331 -3330 -3315 0
3331 -3330 3315 0
3331 3330 -3315 0
-3332 3331 3316 0
-3332 -3331 -3316 0
3332 -3331 3316 0
3332 3331 -3316 0
-3333 3332 3317 0
-3333 -3332 -3317 0
3333 -3332 3317 0
3333 3332 -3317 0
-3334 3333 3318 0
-3334 -3333 -3318 0
3334 -3333 3318 0
3334 3333 -3318 0
-3335 3334 3319 0
-3335 -3334 -3319 0
3335 -3334 3319 0
3335 3334 -3319 0
-3336 3335 3320 0
-3336 -3335 -3320 0
3336 -3335 3320 0
3336 3335 -3320 0
-3337 3336 3321 0
-3337 -3336 -3321 0
3337 -3336 3321 0
3337 3336 -3321 0
-3338 3337 3322 0
-3338 -3337 -3322 0
3338 -3337 3322 0
3338 3337 -3322 0
-3339 3338 3323 0
-3339 -3338 -3323 0
3339 -3338 3323 0
3339 3338 -3323 0
-3340 3339 3324 0
-3340 -3339 -3324 0
3340 -3339 3324 0
3340 3339 -3324 0
-3341 3340 3325 0
-3341 -3340 -3325 0
3341 -3340 3325 0
3341 3340 -3325 0
-3342 3341 3326 0
-3342 -3341 -3326 0
3342 -3341 3326 0
3342 3341 -3326 0
-3343 3342 3327 0
-3343 -3342 -3327 0
3343 -3342 3327 0
3343 3342 -3327 0
-3344 3343 3328 0
-3344 -3343 -3328 0
3344 -3343 3328 0
3344 3343 -3328 0
-3344 0
-3345 3217 0
-3345 38 0
3345 -3217 -38 0
-3346 3219 0
-3346 38 0
3346 -3219 -38 0
-3347 3219 0
-3347 43 0
3347 -3219 -43 0
-3348 3221 0
-3348 38 0
3348 -3221 -38 0
-3349 3223 0
-3349 38 0
3349 -3223 -38 0
-3350 3223 0
-3350 43 0
3350 -3223 -43 0
-3351 3225 0
-3351 86 0
3351 -3225 -86 0
-3352 3225 0
-3352 96 0
3352 -3225 -96 0
-3353 3227 0
-3353 86 0
3353 -3227 -86 0
-3354 3227 0
-3354 96 0
3354 -3227 -96 0
-3355 3229 0
-3355 134 0
3355 -3229 -134 0
-3356 3229 0
-3356 144 0
3356 -3229 -144 0
-3357 3231 0
-3357 134 0
3357 -3231 -134 0
-3358 3231 0
-3358 144 0
3358 -3231 -144 0
-3359 3233 0
-3359 182 0
3359 -3233 -182 0
-3360 3235 0
-3360 182 0
3360 -3235 -182 0
-3361 3235 0
-3361 187 0
3361 -3235 -187 0
-3362 3345 3346 0
-3362 -3345 -3346 0
3362 -3345 3346 0
3362 3345 -3346 0
-3363 3362 3347 0
-3363 -3362 -3347 0
3363 -3362 3347 0
3363 3362 -3347 0
-3364 3363 3348 0
-3364 -3363 -3348 0
3364 -3363 3348 0
3364 3363 -3348 0
-3365 3364 3349 0
-3365 -3364 -3349 0
3365 -3364 3349 0
3365 3364 -3349 0
-3366 3365 3350 0
-3366 -3365 -3350 0
3366 -3365 3350 0
3366 3365 -3350 0
-3367 3366 3351 0
-3367 -3366 -3351 0
3367 -3366 3351 0
3367 3366 -3351 0
-3368 3367 3352 0
-3368 -3367 -3352 0
3368 -3367 3352 0
3368 3367 -3352 0
-3369 3368 3353 0
-3369 -3368 -3353 0
3369 -3368 3353 0
3369 3368 -3353 0
-3370 3369 3354 0
-3370 -3369 -3354 0
3370 -3369 3354 0
3370 3369 -3354 0
-3371 3370 3355 0
-3371 -3370 -3355 0
3371 -3370 3355 0
3371 3370 -3355 0
-3372 3371 3356 0
-3372 -3371 -3356 0
3372 -3371 3356 0
3372 3371 -3356 0
-3373 3372 3357 0
-3373 -3372 -3357 0
3373 -3372 3357 0
3373 3372 -3357 0
-3374 3373 3358 0
-3374 -3373 -3358 0
3374 -3373 3358 0
3374 3373 -3358 0
-3375 3374 3359 0
-3375 -3374 -3359 0
3375 -3374 3359 0
3375 3374 -3359 0
-3376 3375 3360 0
-3376 -3375 -3360 0
3376 -3375 3360 0
3376 3375 -3360 0
-3377 3376 3361 0
-3377 -3376 -3361 0
3377 -3376 3361 0
3377 3376 -3361 0
-3377 0
-3378 3217 0
-3378 39 0
3378 -3217 -39 0
-3379 3219 0
-3379 40 0
3379 -3219 -40 0
-3380 3219 0
-3380 44 0
3380 -3219 -44 0
-3381 3221 0
-3381 42 0
3381 -3221 -42 0
-3382 3223 0
-3382 46 0
3382 -3223 -46 0
-3383 3223 0
-3383 47 0
3383 -3223 -47 0
-3384 3225 0
-3384 87 0
3384 -3225 -87 0
-3385 3225 0
-3385 95 0
3385 -3225 -95 0
-3386 3227 0
-3386 90 0
3386 -3227 -90 0
-3387 3227 0
-3387 92 0
3387 -3227 -92 0
-3388 3229 0
-3388 135 0
3388 -3229 -135 0
-3389 3229 0
-3389 143 0
3389 -3229 -143 0
-3390 3231 0
-3390 138 0
3390 -3231 -138 0
-3391 3231 0
-3391 140 0
3391 -3231 -140 0
-3392 3233 0
-3392 183 0
3392 -3233 -183 0
-3393 3235 0
-3393 184 0
3393 -3235 -184 0
-3394 3235 0
-3394 188 0
3394 -3235 -188 0
-3395 3378 3379 0
-3395 -3378 -3379 0
3395 -3378 3379 0
3395 3378 -3379 0
-3396 3395 3380 0
-3396 -3395 -3380 0
3396 -3395 3380 0
3396 3395 -3380 0
-3397 3396 3381 0
-3397 -3396 -3381 0
3397 -3396 3381 0
3397 3396 -3381 0
-3398 3397 3382 0
-3398 -3397 -3382 0
3398 -3397 3382 0
3398 3397 -3382 0
-3399 3398 3383 0
-3399 -3398 -3383 0
3399 -3398 3383 0
3399 3398 -3383 0
-3400 3399 3384 0
-3400 -3399 -3384 0
3400 -3399 3384 0
3400 3399 -3384 0
-3401 3400 3385 0
-3401 -3400 -3385 0
3401 -3400 3385 0
3401 3400 -3385 0
-3402 3401 3386 0
-3402 -3401 -3386 0
3402 -3401 3386 0
3402 3401 -3386 0
-3403 3402 3387 0
-3403 -3402 -3387 0
3403 -3402 3387 0
3403 3402 -3387 0
-3404 3403 3388 0
-3404 -3403 -3388 0
3404 -3403 3388 0
3404 3403 -3388 0
-3405 3404 3389 0
-3405 -3404 -3389 0
3405 -3404 3389 0
3405 3404 -3389 0
-3406 3405 3390 0
-3406 -3405 -3390 0
3406 -3405 3390 0
3406 3405 -3390 0
-3407 3406 3391 0
-3407 -3406 -3391 0
3407 -3406 3391 0
3407 3406 -3391 0
-3408 3407 3392 0
-3408 -3407 -3392 0
3408 -3407 3392 0
3408 3407 -3392 0
-3409 3408 3393 0
-3409 -3408 -3393 0
3409 -3408 3393 0
3409 3408 -3393 0
-3410 3409 3394 0
-3410 -3409 -3394 0
3410 -3409 3394 0
3410 3409 -3394 0
-3410 0
-3411 3217 0
-3411 40 0
3411 -3217 -40 0
-3412 3219 0
-3412 39 0
3412 -3219 -39 0
-3413 3219 0
-3413 42 0
3413 -3219 -42 0
-3414 3221 0
-3414 46 0
3414 -3221 -46 0
-3415 3223 0
-3415 42 0
3415 -3223 -42 0
-3416 3223 0
-3416 39 0
3416 -3223 -39 0
-3417 3225 0
-3417 88 0
3417 -3225 -88 0
-3418 3225 0
-3418 94 0
3418 -3225 -94 0
-3419 3227 0
-3419 94 0
3419 -3227 -94 0
-3420 3227 0
-3420 88 0
3420 -3227 -88 0
-3421 3229 0
-3421 136 0
3421 -3229 -136 0
-3422 3229 0
-3422 142 0
3422 -3229 -142 0
-3423 3231 0
-3423 142 0
3423 -3231 -142 0
-3424 3231 0
-3424 136 0
3424 -3231 -136 0
-3425 3233 0
-3425 184 0
3425 -3233 -184 0
-3426 3235 0
-3426 183 0
3426 -3235 -183 0
-3427 3235 0
-3427 186 0
3427 -3235 -186 0
-3428 3411 3412 0
-3428 -3411 -3412 0
3428 -3411 3412 0
3428 3411 -3412 0
-3429 3428 3413 0
-3429 -3428 -3413 0
3429 -3428 3413 0
3429 3428 -3413 0
-3430 3429 3414 0
-3430 -3429 -3414 0
3430 -3429 3414 0
3430 3429 -3414 0
-3431 3430 3415 0
-3431 -3430 -3415 0
3431 -3430 3415 0
3431 3430 -3415 0
-3432 3431 3416 0
-3432 -3431 -3416 0
3432 -3431 3416 0
3432 3431 -3416 0
-3433 3432 3417 0
-3433 -3432 -3417 0
3433 -3432 3417 0
3433 3432 -3417 0
-3434 3433 3418 0
-3434 -3433 -3418 0
3434 -3433 3418 0
3434 3433 -3418 0
-3435 3434 3419 0
-3435 -3434 -3419 0
3435 -3434 3419 0
3435 3434 -3419 0
-3436 3435 3420 0
-3436 -3435 -3420 0
3436 -3435 3420 0
3436 3435 -3420 0
-3437 3436 3421 0
-3437 -3436 -3421 0
3437 -3436 3421 0
3437 3436 -3421 0
-3438 3437 3422 0
-3438 -3437 -3422 0
3438 -3437 3422 0
3438 3437 -3422 0
-3439 3438 3423 0
-3439 -3438 -3423 0
3439 -3438 3423 0
3439 3438 -3423 0
-3440 3439 3424 0
-3440 -3439 -3424 0
3440 -3439 3424 0
3440 3439 -3424 0
-3441 3440 3425 0
-3441 -3440 -3425 0
3441 -3440 3425 0
3441 3440 -3425 0
-3442 3441 3426 0
-3442 -3441 -3426 0
3442 -3441 3426 0
3442 3441 -3426 0
-3443 3442 3427 0
-3443 -3442 -3427 0
3443 -3442 3427 0
3443 3442 -3427 0
-3443 0
-3444 3217 0
-3444 41 0
3444 -3217 -41 0
-3445 3219 0
-3445 45 0
3445 -3219 -45 0
-3446 3221 0
-3446 35 0
3446 -3221 -35 0
-3447 3223 0
-3447 36 0
3447 -3223 -36 0
-3448 3225 0
-3448 89 0
3448 -3225 -89 0
-3449 3227 0
-3449 83 0
3449 -3227 -83 0
-3450 3229 0
-3450 137 0
3450 -3229 -137 0
-3451 3231 0
-3451 131 0
3451 -3231 -131 0
-3452 3233 0
-3452 185 0
3452 -3233 -185 0
-3453 3235 0
-3453 189 0
3453 -3235 -189 0
-3454 3444 3445 0
-3454 -3444 -3445 0
3454 -3444 3445 0
3454 3444 -3445 0
-3455 3454 3445 0
-3455 -3454 -3445 0
3455 -3454 3445 0
3455 3454 -3445 0
-3456 3455 3446 0
-3456 -3455 -3446 0
3456 -3455 3446 0
3456 3455 -3446 0
-3457 3456 3447 0
-3457 -3456 -3447 0
3457 -3456 3447 0
3457 3456 -3447 0
-3458 3457 3447 0
-3458 -3457 -3447 0
3458 -3457 3447 0
3458 3457 -3447 0
-3459 3458 3448 0
-3459 -3458 -3448 0
3459 -3458 3448 0
3459 3458 -3448 0
-3460 3459 3448 0
-3460 -3459 -3448 0
3460 -3459 3448 0
3460 3459 -3448 0
-3461 3460 3449 0
-3461 -3460 -3449 0
3461 -3460 3449 0
3461 3460 -3449 0
-3462 3461 3449 0
-3462 -3461 -3449 0
3462 -3461 3449 0
3462 3461 -3449 0
-3463 3462 3450 0
-3463 -3462 -3450 0
3463 -3462 3450 0
3463 3462 -3450 0
-3464 3463 3450 0
-3464 -3463 -3450 0
3464 -3463 3450 0
3464 3463 -3450 0
-3465 3464 3451 0
-3465 -3464 -3451 0
3465 -3464 3451 0
3465 3464 -3451 0
-3466 3465 3451 0
-3466 -3465 -3451 0
3466 -3465 3451 0
3466 3465 -3451 0
-3467 3466 3452 0
-3467 -3466 -3452 0
3467 -3466 3452 0
3467 3466 -3452 0
-3468 3467 3453 0
-3468 -3467 -3453 0
3468 -3467 3453 0
3468 3467 -3453 0
-3469 3468 3453 0
-3469 -3468 -3453 0
3469 -3468 3453 0
3469 3468 -3453 0
-3469 0
-3470 3217 0
-3470 42 0
3470 -3217 -42 0
-3471 3219 0
-3471 46 0
3471 -3219 -46 0
-3472 3219 0
-3472 47 0
3472 -3219 -47 0
-3473 3221 0
-3473 39 0
3473 -3221 -39 0
-3474 3223 0
-3474 40 0
3474 -3223 -40 0
-3475 3223 0
-3475 44 0
3475 -3223 -44 0
-3476 3225 0
-3476 90 0
3476 -3225 -90 0
-3477 3225 0
-3477 92 0
3477 -3225 -92 0
-3478 3227 0
-3478 87 0
3478 -3227 -87 0
-3479 3227 0
-3479 95 0
3479 -3227 -95 0
-3480 3229 0
-3480 138 0
3480 -3229 -138 0
-3481 3229 0
-3481 140 0
3481 -3229 -140 0
-3482 3231 0
-3482 135 0
3482 -3231 -135 0
-3483 3231 0
-3483 143 0
3483 -3231 -143 0
-3484 3233 0
-3484 186 0
3484 -3233 -186 0
-3485 3235 0
-3485 190 0
3485 -3235 -190 0
-3486 3235 0
-3486 191 0
3486 -3235 -191 0
-3487 3470 3471 0
-3487 -3470 -3471 0
3487 -3470 3471 0
3487 3470 -3471 0
-3488 3487 3472 0
-3488 -3487 -3472 0
3488 -3487 3472 0
3488 3487 -3472 0
-3489 3488 3473 0
-3489 -3488 -3473 0
3489 -3488 3473 0
3489 3488 -3473 0
-3490 3489 3474 0
-3490 -3489 -3474 0
3490 -3489 3474 0
3490 3489 -3474 0
-3491 3490 3475 0
-3491 -3490 -3475 0
3491 -3490 3475 0
3491 3490 -3475 0
-3492 3491 3476 0
-3492 -3491 -3476 0
3492 -3491 3476 0
3492 3491 -3476 0
-3493 3492 3477 0
-3493 -3492 -3477 0
3493 -3492 3477 0
3493 3492 -3477 0
-3494 3493 3478 0
-3494 -3493 -3478 0
3494 -3493 3478 0
3494 3493 -3478 0
-3495 3494 3479 0
-3495 -3494 -3479 0
3495 -3494 3479 0
3495 3494 -3479 0
-3496 3495 3480 0
-3496 -3495 -3480 0
3496 -3495 3480 0
3496 3495 -3480 0
-3497 3496 3481 0
-3497 -3496 -3481 0
3497 -3496 3481 0
3497 3496 -3481 0
-3498 3497 3482 0
-3498 -3497 -3482 0
3498 -3497 3482 0
3498 3497 -3482 0
-3499 3498 3483 0
-3499 -3498 -3483 0
3499 -3498 3483 0
3499 3498 -3483 0
-3500 3499 3484 0
-3500 -3499 -3484 0
3500 -3499 3484 0
3500 3499 -3484 0
-3501 3500 3485 0
-3501 -3500 -3485 0
3501 -3500 3485 0
3501 3500 -3485 0
-3502 3501 3486 0
-3502 -3501 -3486 0
3502 -3501 3486 0
3502 3501 -3486 0
-3502 0
-3503 3217 0
-3503 43 0
3503 -3217 -43 0
-3504 3219 0
-3504 48 0
3504 -3219 -48 0
-3505 3221 0
-3505 43 0
3505 -3221 -43 0
-3506 3223 0
-3506 48 0
3506 -3223 -48 0
-3507 3225 0
-3507 91 0
3507 -3225 -91 0
-3508 3227 0
-3508 91 0
3508 -3227 -91 0
-3509 3229 0
-3509 139 0
3509 -3229 -139 0
-3510 3231 0
-3510 139 0
3510 -3231 -139 0
-3511 3233 0
-3511 187 0
3511 -3233 -187 0
-3512 3235 0
-3512 192 0
3512 -3235 -192 0
-3513 3503 3504 0
-3513 -3503 -3504 0
3513 -3503 3504 0
3513 3503 -3504 0
-3514 3513 3504 0
-3514 -3513 -3504 0
3514 -3513 3504 0
3514 3513 -3504 0
-3515 3514 3505 0
-3515 -3514 -3505 0
3515 -3514 3505 0
3515 3514 -3505 0
-3516 3515 3506 0
-3516 -3515 -3506 0
3516 -3515 3506 0
3516 3515 -3506 0
-3517 3516 3506 0
-3517 -3516 -3506 0
3517 -3516 3506 0
3517 3516 -3506 0
-3518 3517 3507 0
-3518 -3517 -3507 0
3518 -3517 3507 0
3518 3517 -3507 0
-3519 3518 3507 0
-3519 -3518 -3507 0
3519 -3518 3507 0
3519 3518 -3507 0
-3520 3519 3508 0
-3520 -3519 -3508 0
3520 -3519 3508 0
3520 3519 -3508 0
-3521 3520 3508 0
-3521 -3520 -3508 0
3521 -3520 3508 0
3521 3520 -3508 0
-3522 3521 3509 0
-3522 -3521 -3509 0
3522 -3521 3509 0
3522 3521 -3509 0
-3523 3522 3509 0
-3523 -3522 -3509 0
3523 -3522 3509 0
3523 3522 -3509 0
-3524 3523 3510 0
-3524 -3523 -3510 0
3524 -3523 3510 0
3524 3523 -3510 0
-3525 3524 3510 0
-3525 -3524 -3510 0
3525 -3524 3510 0
3525 3524 -3510 0
-3526 3525 3511 0
-3526 -3525 -3511 0
3526 -3525 3511 0
3526 3525 -3511 0
-3527 3526 3512 0
-3527 -3526 -3512 0
3527 -3526 3512 0
3527 3526 -3512 0
-3528 3527 3512 0
-3528 -3527 -3512 0
3528 -3527 3512 0
3528 3527 -3512 0
-3528 0
-3529 1 0
-3529 30 0
3529 -1 -30 0
-3530 3529 0
-3530 33 0
3530 -3529 -33 0
-3531 2 0
-3531 30 0
3531 -2 -30 0
-3532 3531 0
-3532 33 0
3532 -3531 -33 0
-3533 2 0
-3533 31 0
3533 -2 -31 0
-3534 3533 0
-3534 33 0
3534 -3533 -33 0
-3535 17 0
-3535 8 0
3535 -17 -8 0
-3536 3535 0
-3536 33 0
3536 -3535 -33 0
-3537 21 0
-3537 8 0
3537 -21 -8 0
-3538 3537 0
-3538 33 0
3538 -3537 -33 0
-3539 21 0
-3539 12 0
3539 -21 -12 0
-3540 3539 0
-3540 33 0
3540 -3539 -33 0
-3541 49 0
-3541 78 0
3541 -49 -78 0
-3542 3541 0
-3542 81 0
3542 -3541 -81 0
-3543 49 0
-3543 80 0
3543 -49 -80 0
-3544 3543 0
-3544 81 0
3544 -3543 -81 0
-3545 65 0
-3545 56 0
3545 -65 -56 0
-3546 3545 0
-3546 81 0
3546 -3545 -81 0
-3547 65 0
-3547 64 0
3547 -65 -64 0
-3548 3547 0
-3548 81 0
3548 -3547 -81 0
-3549 97 0
-3549 126 0
3549 -97 -126 0
-3550 3549 0
-3550 129 0
3550 -3549 -129 0
-3551 97 0
-3551 128 0
3551 -97 -128 0
-3552 3551 0
-3552 129 0
3552 -3551 -129 0
-3553 113 0
-3553 104 0
3553 -113 -104 0
-3554 3553 0
-3554 129 0
3554 -3553 -129 0
-3555 113 0
-3555 112 0
3555 -113 -112 0
-3556 3555 0
-3556 129 0
3556 -3555 -129 0
-3557 145 0
-3557 174 0
3557 -145 -174 0
-3558 3557 0
-3558 177 0
3558 -3557 -177 0
-3559 146 0
-3559 174 0
3559 -146 -174 0
-3560 3559 0
-3560 177 0
3560 -3559 -177 0
-3561 146 0
-3561 175 0
3561 -146 -175 0
-3562 3561 0
-3562 177 0
3562 -3561 -177 0
-3563 3530 3532 0
-3563 -3530 -3532 0
3563 -3530 3532 0
3563 3530 -3532 0
-3564 3563 3534 0
-3564 -3563 -3534 0
3564 -3563 3534 0
3564 3563 -3534 0
-3565 3564 3536 0
-3565 -3564 -3536 0
3565 -3564 3536 0
3565 3564 -3536 0
-3566 3565 3538 0
-3566 -3565 -3538 0
3566 -3565 3538 0
3566 3565 -3538 0
-3567 3566 3540 0
-3567 -3566 -3540 0
3567 -3566 3540 0
3567 3566 -3540 0
-3568 3567 3542 0
-3568 -3567 -3542 0
3568 -3567 3542 0
3568 3567 -3542 0
-3569 3568 3544 0
-3569 -3568 -3544 0
3569 -3568 3544 0
3569 3568 -3544 0
-3570 3569 3546 0
-3570 -3569 -3546 0
3570 -3569 3546 0
3570 3569 -3546 0
-3571 3570 3548 0
-3571 -3570 -3548 0
3571 -3570 3548 0
3571 3570 -3548 0
-3572 3571 3550 0
-3572 -3571 -3550 0
3572 -3571 3550 0
3572 3571 -3550 0
-3573 3572 3552 0
-3573 -3572 -3552 0
3573 -3572 3552 0
3573 3572 -3552 0
-3574 3573 3554 0
-3574 -3573 -3554 0
3574 -3573 3554 0
3574 3573 -3554 0
-3575 3574 3556 0
-3575 -3574 -3556 0
3575 -3574 3556 0
3575 3574 -3556 0
-3576 3575 3558 0
-3576 -3575 -3558 0
3576 -3575 3558 0
3576 3575 -3558 0
-3577 3576 3560 0
-3577 -3576 -3560 0
3577 -3576 3560 0
3577 3576 -3560 0
-3578 3577 3562 0
-3578 -3577 -3562 0
3578 -3577 3562 0
3578 3577 -3562 0
-3578 0
-3579 3529 0
-3579 34 0
3579 -3529 -34 0
-3580 3531 0
-3580 34 0
3580 -3531 -34 0
-3581 3533 0
-3581 35 0
3581 -3533 -35 0
-3582 3535 0
-3582 37 0
3582 -3535 -37 0
-3583 3537 0
-3583 37 0
3583 -3537 -37 0
-3584 3539 0
-3584 41 0
3584 -3539 -41 0
-3585 3541 0
-3585 82 0
3585 -3541 -82 0
-3586 3543 0
-3586 84 0
3586 -3543 -84 0
-3587 3545 0
-3587 85 0
3587 -3545 -85 0
-3588 3547 0
-3588 93 0
3588 -3547 -93 0
-3589 3549 0
-3589 130 0
3589 -3549 -130 0
-3590 3551 0
-3590 132 0
3590 -3551 -132 0
-3591 3553 0
-3591 133 0
3591 -3553 -133 0
-3592 3555 0
-3592 141 0
3592 -3555 -141 0
-3593 3557 0
-3593 178 0
3593 -3557 -178 0
-3594 3559 0
-3594 178 0
3594 -3559 -178 0
-3595 3561 0
-3595 179 0
3595 -3561 -179 0
-3596 3579 3580 0
-3596 -3579 -3580 0
3596 -3579 3580 0
3596 3579 -3580 0
-3597 3596 3581 0
-3597 -3596 -3581 0
3597 -3596 3581 0
3597 3596 -3581 0
-3598 3597 3582 0
-3598 -3597 -3582 0
3598 -3597 3582 0
3598 3597 -3582 0
-3599 3598 3583 0
-3599 -3598 -3583 0
3599 -3598 3583 0
3599 3598 -3583 0
-3600 3599 3584 0
-3600 -3599 -3584 0
3600 -3599 3584 0
3600 3599 -3584 0
-3601 3600 3585 0
-3601 -3600 -3585 0
3601 -3600 3585 0
3601 3600 -3585 0
-3602 3601 3586 0
-3602 -3601 -3586 0
3602 -3601 3586 0
3602 3601 -3586 0
-3603 3602 3587 0
-3603 -3602 -3587 0
3603 -3602 3587 0
3603 3602 -3587 0
-3604 3603 3588 0
-3604 -3603 -3588 0
3604 -3603 3588 0
3604 3603 -3588 0
-3605 3604 3589 0
-3605 -3604 -3589 0
3605 -3604 3589 0
3605 3604 -3589 0
-3606 3605 3590 0
-3606 -3605 -3590 0
3606 -3605 3590 0
3606 3605 -3590 0
-3607 3606 3591 0
-3607 -3606 -3591 0
3607 -3606 3591 0
3607 3606 -3591 0
-3608 3607 3592 0
-3608 -3607 -3592 0
3608 -3607 3592 0
3608 3607 -3592 0
-3609 3608 3593 0
-3609 -3608 -3593 0
3609 -3608 3593 0
3609 3608 -3593 0
-3610 3609 3594 0
-3610 -3609 -3594 0
3610 -3609 3594 0
3610 3609 -3594 0
-3611 3610 3595 0
-3611 -3610 -3595 0
3611 -3610 3595 0
3611 3610 -3595 0
-3611 0
-3612 3529 0
-3612 35 0
3612 -3529 -35 0
-3613 3531 0
-3613 36 0
3613 -3531 -36 0
-3614 3533 0
-3614 36 0
3614 -3533 -36 0
-3615 3535 0
-3615 41 0
3615 -3535 -41 0
-3616 3537 0
-3616 45 0
3616 -3537 -45 0
-3617 3539 0
-3617 45 0
3617 -3539 -45 0
-3618 3541 0
-3618 83 0
3618 -3541 -83 0
-3619 3543 0
-3619 83 0
3619 -3543 -83 0
-3620 3545 0
-3620 89 0
3620 -3545 -89 0
-3621 3547 0
-3621 89 0
3621 -3547 -89 0
-3622 3549 0
-3622 131 0
3622 -3549 -131 0
-3623 3551 0
-3623 131 0
3623 -3551 -131 0
-3624 3553 0
-3624 137 0
3624 -3553 -137 0
-3625 3555 0
-3625 137 0
3625 -3555 -137 0
-3626 3557 0
-3626 179 0
3626 -3557 -179 0
-3627 3559 0
-3627 180 0
3627 -3559 -180 0
-3628 3561 0
-3628 180 0
3628 -3561 -180 0
-3629 3612 3613 0
-3629 -3612 -3613 0
3629 -3612 3613 0
3629 3612 -3613 0
-3630 3629 3614 0
-3630 -3629 -3614 0
3630 -3629 3614 0
3630 3629 -3614 0
-3631 3630 3615 0
-3631 -3630 -3615 0
3631 -3630 3615 0
3631 3630 -3615 0
-3632 3631 3616 0
-3632 -3631 -3616 0
3632 -3631 3616 0
3632 3631 -3616 0
-3633 3632 3617 0
-3633 -3632 -3617 0
3633 -3632 3617 0
3633 3632 -3617 0
-3634 3633 3618 0
-3634 -3633 -3618 0
3634 -3633 3618 0
3634 3633 -3618 0
-3635 3634 3619 0
-3635 -3634 -3619 0
3635 -3634 3619 0
3635 3634 -3619 0
-3636 3635 3620 0
-3636 -3635 -3620 0
3636 -3635 3620 0
3636 3635 -3620 0
-3637 3636 3621 0
-3637 -3636 -3621 0
3637 -3636 3621 0
3637 3636 -3621 0
-3638 3637 3622 0
-3638 -3637 -3622 0
3638 -3637 3622 0
3638 3637 -3622 0
-3639 3638 3623 0
-3639 -3638 -3623 0
3639 -3638 3623 0
3639 3638 -3623 0
-3640 3639 3624 0
-3640 -3639 -3624 0
3640 -3639 3624 0
3640 3639 -3624 0
-3641 3640 3625 0
-3641 -3640 -3625 0
3641 -3640 3625 0
3641 3640 -3625 0
-3642 3641 3626 0
-3642 -3641 -3626 0
3642 -3641 3626 0
3642 3641 -3626 0
-3643 3642 3627 0
-3643 -3642 -3627 0
3643 -3642 3627 0
3643 3642 -3627 0
-3644 3643 3628 0
-3644 -3643 -3628 0
3644 -3643 3628 0
3644 3643 -3628 0
-3644 0
-3645 3529 0
-3645 36 0
3645 -3529 -36 0
-3646 3531 0
-3646 35 0
3646 -3531 -35 0
-3647 3533 0
-3647 34 0
3647 -3533 -34 0
-3648 3535 0
-3648 45 0
3648 -3535 -45 0
-3649 3537 0
-3649 41 0
3649 -3537 -41 0
-3650 3539 0
-3650 37 0
3650 -3539 -37 0
-3651 3541 0
-3651 84 0
3651 -3541 -84 0
-3652 3543 0
-3652 82 0
3652 -3543 -82 0
-3653 3545 0
-3653 93 0
3653 -3545 -93 0
-3654 3547 0
-3654 85 0
3654 -3547 -85 0
-3655 3549 0
-3655 132 0
3655 -3549 -132 0
-3656 3551 0
-3656 130 0
3656 -3551 -130 0
-3657 3553 0
-3657 141 0
3657 -3553 -141 0
-3658 3555 0
-3658 133 0
3658 -3555 -133 0
-3659 3557 0
-3659 180 0
3659 -3557 -180 0
-3660 3559 0
-3660 179 0
3660 -3559 -179 0
-3661 3561 0
-3661 178 0
3661 -3561 -178 0
-3662 3645 3646 0
-3662 -3645 -3646 0
3662 -3645 3646 0
3662 3645 -3646 0
-3663 3662 3647 0
-3663 -3662 -3647 0
3663 -3662 3647 0
3663 3662 -3647 0
-3664 3663 3648 0
-3664 -3663 -3648 0
3664 -3663 3648 0
3664 3663 -3648 0
-3665 3664 3649 0
-3665 -3664 -3649 0
3665 -3664 3649 0
3665 3664 -3649 0
-3666 3665 3650 0
-3666 -3665 -3650 0
3666 -3665 3650 0
3666 3665 -3650 0
-3667 3666 3651 0
-3667 -3666 -3651 0
3667 -3666 3651 0
3667 3666 -3651 0
-3668 3667 3652 0
-3668 -3667 -3652 0
3668 -3667 3652 0
3668 3667 -3652 0
-3669 3668 3653 0
-3669 -3668 -3653 0
3669 -3668 3653 0
3669 3668 -3653 0
-3670 3669 3654 0
-3670 -3669 -3654 0
3670 -3669 3654 0
3670 3669 -3654 0
-3671 3670 3655 0
-3671 -3670 -3655 0
3671 -3670 3655 0
3671 3670 -3655 0
-3672 3671 3656 0
-3672 -3671 -3656 0
3672 -3671 3656 0
3672 3671 -3656 0
-3673 3672 3657 0
-3673 -3672 -3657 0
3673 -3672 3657 0
3673 3672 -3657 0
-3674 3673 3658 0
-3674 -3673 -3658 0
3674 -3673 3658 0
3674 3673 -3658 0
-3675 3674 3659 0
-3675 -3674 -3659 0
3675 -3674 3659 0
3675 3674 -3659 0
-3676 3675 3660 0
-3676 -3675 -3660 0
3676 -3675 3660 0
3676 3675 -3660 0
-3677 3676 3661 0
-3677 -3676 -3661 0
3677 -3676 3661 0
3677 3676 -3661 0
-3677 0
-3678 3529 0
-3678 37 0
3678 -3529 -37 0
-3679 3531 0
-3679 37 0
3679 -3531 -37 0
-3680 3533 0
-3680 41 0
3680 -3533 -41 0
-3681 3535 0
-3681 34 0
3681 -3535 -34 0
-3682 3537 0
-3682 34 0
3682 -3537 -34 0
-3683 3539 0
-3683 35 0
3683 -3539 -35 0
-3684 3541 0
-3684 85 0
3684 -3541 -85 0
-3685 3543 0
-3685 93 0
3685 -3543 -93 0
-3686 3545 0
-3686 82 0
3686 -3545 -82 0
-3687 3547 0
-3687 84 0
3687 -3547 -84 0
-3688 3549 0
-3688 133 0
3688 -3549 -133 0
-3689 3551 0
-3689 141 0
3689 -3551 -141 0
-3690 3553 0
-3690 130 0
3690 -3553 -130 0
-3691 3555 0
-3691 132 0
3691 -3555 -132 0
-3692 3557 0
-3692 181 0
3692 -3557 -181 0
-3693 3559 0
-3693 181 0
3693 -3559 -181 0
-3694 3561 0
-3694 185 0
3694 -3561 -185 0
-3695 3678 3679 0
-3695 -3678 -3679 0
3695 -3678 3679 0
3695 3678 -3679 0
-3696 3695 3680 0
-3696 -3695 -3680 0
3696 -3695 3680 0
3696 3695 -3680 0
-3697 3696 3681 0
-3697 -3696 -3681 0
3697 -3696 3681 0
3697 3696 -3681 0
-3698 3697 3682 0
-3698 -3697 -3682 0
3698 -3697 3682 0
3698 3697 -3682 0
-3699 3698 3683 0
-3699 -3698 -3683 0
3699 -3698 3683 0
3699 3698 -3683 0
-3700 3699 3684 0
-3700 -3699 -3684 0
3700 -3699 3684 0
3700 3699 -3684 0
-3701 3700 3685 0
-3701 -3700 -3685 0
3701 -3700 3685 0
3701 3700 -3685 0
-3702 3701 3686 0
-3702 -3701 -3686 0
3702 -3701 3686 0
3702 3701 -3686 0
-3703 3702 3687 0
-3703 -3702 -3687 0
3703 -3702 3687 0
3703 3702 -3687 0
-3704 3703 3688 0
-3704 -3703 -3688 0
3704 -3703 3688 0
3704 3703 -3688 0
-3705 3704 3689 0
-3705 -3704 -3689 0
3705 -3704 3689 0
3705 3704 -3689 0
-3706 3705 3690 0
-3706 -3705 -3690 0
3706 -3705 3690 0
3706 3705 -3690 0
-3707 3706 3691 0
-3707 -3706 -3691 0
3707 -3706 3691 0
3707 3706 -3691 0
-3708 3707 3692 0
-3708 -3707 -3692 0
3708 -3707 3692 0
3708 3707 -3692 0
-3709 3708 3693 0
-3709 -3708 -3693 0
3709 -3708 3693 0
3709 3708 -3693 0
-3710 3709 3694 0
-3710 -3709 -3694 0
3710 -3709 3694 0
3710 3709 -3694 0
-3710 0
-3711 3529 0
-3711 38 0
3711 -3529 -38 0
-3712 3531 0
-3712 38 0
3712 -3531 -38 0
-3713 3533 0
-3713 43 0
3713 -3533 -43 0
-3714 3535 0
-3714 38 0
3714 -3535 -38 0
-3715 3537 0
-3715 38 0
3715 -3537 -38 0
-3716 3539 0
-3716 43 0
3716 -3539 -43 0
-3717 3541 0
-3717 86 0
3717 -3541 -86 0
-3718 3543 0
-3718 96 0
3718 -3543 -96 0
-3719 3545 0
-3719 86 0
3719 -3545 -86 0
-3720 3547 0
-3720 96 0
3720 -3547 -96 0
-3721 3549 0
-3721 134 0
3721 -3549 -134 0
-3722 3551 0
-3722 144 0
3722 -3551 -144 0
-3723 3553 0
-3723 134 0
3723 -3553 -134 0
-3724 3555 0
-3724 144 0
3724 -3555 -144 0
-3725 3557 0
-3725 182 0
3725 -3557 -182 0
-3726 3559 0
-3726 182 0
3726 -3559 -182 0
-3727 3561 0
-3727 187 0
3727 -3561 -187 0
-3728 3711 3712 0
-3728 -3711 -3712 0
3728 -3711 3712 0
3728 3711 -3712 0
-3729 3728 3713 0
-3729 -3728 -3713 0
3729 -3728 3713 0
3729 3728 -3713 0
-3730 3729 3714 0
-3730 -3729 -3714 0
3730 -3729 3714 0
3730 3729 -3714 0
-3731 3730 3715 0
-3731 -3730 -3715 0
3731 -3730 3715 0
3731 3730 -3715 0
-3732 3731 3716 0
-3732 -3731 -3716 0
3732 -3731 3716 0
3732 3731 -3716 0
-3733 3732 3717 0
-3733 -3732 -3717 0
3733 -3732 3717 0
3733 3732 -3717 0
-3734 3733 3718 0
-3734 -3733 -3718 0
3734 -3733 3718 0
3734 3733 -3718 0
-3735 3734 3719 0
-3735 -3734 -3719 0
3735 -3734 3719 0
3735 3734 -3719 0
-3736 3735 3720 0
-3736 -3735 -3720 0
3736 -3735 3720 0
3736 3735 -3720 0
-3737 3736 3721 0
-3737 -3736 -3721 0
3737 -3736 3721 0
3737 3736 -3721 0
-3738 3737 3722 0
-3738 -3737 -3722 0
3738 -3737 3722 0
3738 3737 -3722 0
-3739 3738 3723 0
-3739 -3738 -3723 0
3739 -3738 3723 0
3739 3738 -3723 0
-3740 3739 3724 0
-3740 -3739 -3724 0
3740 -3739 3724 0
3740 3739 -3724 0
-3741 3740 3725 0
-3741 -3740 -3725 0
3741 -3740 3725 0
3741 3740 -3725 0
-3742 3741 3726 0
-3742 -3741 -3726 0
3742 -3741 3726 0
3742 3741 -3726 0
-3743 3742 3727 0
-3743 -3742 -3727 0
3743 -3742 3727 0
3743 3742 -3727 0
-3743 0
-3744 3529 0
-3744 39 0
3744 -3529 -39 0
-3745 3531 0
-3745 40 0
3745 -3531 -40 0
-3746 3533 0
-3746 44 0
3746 -3533 -44 0
-3747 3535 0
-3747 42 0
3747 -3535 -42 0
-3748 3537 0
-3748 46 0
3748 -3537 -46 0
-3749 3539 0
-3749 47 0
3749 -3539 -47 0
-3750 3541 0
-3750 87 0
3750 -3541 -87 0
-3751 3543 0
-3751 95 0
3751 -3543 -95 0
-3752 3545 0
-3752 90 0
3752 -3545 -90 0
-3753 3547 0
-3753 92 0
3753 -3547 -92 0
-3754 3549 0
-3754 135 0
3754 -3549 -135 0
-3755 3551 0
-3755 143 0
3755 -3551 -143 0
-3756 3553 0
-3756 138 0
3756 -3553 -138 0
-3757 3555 0
-3757 140 0
3757 -3555 -140 0
-3758 3557 0
-3758 183 0
3758 -3557 -183 0
-3759 3559 0
-3759 184 0
3759 -3559 -184 0
-3760 3561 0
-3760 188 0
3760 -3561 -188 0
-3761 3744 3745 0
-3761 -3744 -3745 0
3761 -3744 3745 0
3761 3744 -3745 0
-3762 3761 3746 0
-3762 -3761 -3746 0
3762 -3761 3746 0
3762 3761 -3746 0
-3763 3762 3747 0
-3763 -3762 -3747 0
3763 -3762 3747 0
3763 3762 -3747 0
-3764 3763 3748 0
-3764 -3763 -3748 0
3764 -3763 3748 0
3764 3763 -3748 0
-3765 3764 3749 0
-3765 -3764 -3749 0
3765 -3764 3749 0
3765 3764 -3749 0
-3766 3765 3750 0
-3766 -3765 -3750 0
3766 -3765 3750 0
3766 3765 -3750 0
-3767 3766 3751 0
-3767 -3766 -3751 0
3767 -3766 3751 0
3767 3766 -3751 0
-3768 3767 3752 0
-3768 -3767 -3752 0
3768 -3767 3752 0
3768 3767 -3752 0
-3769 3768 3753 0
-3769 -3768 -3753 0
3769 -3768 3753 0
3769 3768 -3753 0
-3770 3769 3754 0
-3770 -3769 -3754 0
3770 -3769 3754 0
3770 3769 -3754 0
-3771 3770 3755 0
-3771 -3770 -3755 0
3771 -3770 3755 0
3771 3770 -3755 0
-3772 3771 3756 0
-3772 -3771 -3756 0
3772 -3771 3756 0
3772 3771 -3756 0
-3773 3772 3757 0
-3773 -3772 -3757 0
3773 -3772 3757 0
3773 3772 -3757 0
-3774 3773 3758 0
-3774 -3773 -3758 0
3774 -3773 3758 0
3774 3773 -3758 0
-3775 3774 3759 0
-3775 -3774 -3759 0
3775 -3774 3759 0
3775 3774 -3759 0
-3776 3775 3760 0
-3776 -3775 -3760 0
3776 -3775 3760 0
3776 3775 -3760 0
-3776 0
-3777 3529 0
-3777 40 0
3777 -3529 -40 0
-3778 3531 0
-3778 39 0
3778 -3531 -39 0
-3779 3533 0
-3779 42 0
3779 -3533 -42 0
-3780 3535 0
-3780 46 0
3780 -3535 -46 0
-3781 3537 0
-3781 42 0
3781 -3537 -42 0
-3782 3539 0
-3782 39 0
3782 -3539 -39 0
-3783 3541 0
-3783 88 0
3783 -3541 -88 0
-3784 3543 0
-3784 94 0
3784 -3543 -94 0
-3785 3545 0
-3785 94 0
3785 -3545 -94 0
-3786 3547 0
-3786 88 0
3786 -3547 -88 0
-3787 3549 0
-3787 136 0
3787 -3549 -136 0
-3788 3551 0
-3788 142 0
3788 -3551 -142 0
-3789 3553 0
-3789 142 0
3789 -3553 -142 0
-3790 3555 0
-3790 136 0
3790 -3555 -136 0
-3791 3557 0
-3791 184 0
3791 -3557 -184 0
-3792 3559 0
-3792 183 0
3792 -3559 -183 0
-3793 3561 0
-3793 186 0
3793 -3561 -186 0
-3794 3777 3778 0
-3794 -3777 -3778 0
3794 -3777 3778 0
3794 3777 -3778 0
-3795 3794 3779 0
-3795 -3794 -3779 0
3795 -3794 3779 0
3795 3794 -3779 0
-3796 3795 3780 0
-3796 -3795 -3780 0
3796 -3795 3780 0
3796 3795 -3780 0
-3797 3796 3781 0
-3797 -3796 -3781 0
3797 -3796 3781 0
3797 3796 -3781 0
-3798 3797 3782 0
-3798 -3797 -3782 0
3798 -3797 3782 0
3798 3797 -3782 0
-3799 3798 3783 0
-3799 -3798 -3783 0
3799 -3798 3783 0
3799 3798 -3783 0
-3800 3799 3784 0
-3800 -3799 -3784 0
3800 -3799 3784 0
3800 3799 -3784 0
-3801 3800 3785 0
-3801 -3800 -3785 0
3801 -3800 3785 0
3801 3800 -3785 0
-3802 3801 3786 0
-3802 -3801 -3786 0
3802 -3801 3786 0
3802 3801 -3786 0
-3803 3802 3787 0
-3803 -3802 -3787 0
3803 -3802 3787 0
3803 3802 -3787 0
-3804 3803 3788 0
-3804 -3803 -3788 0
3804 -3803 3788 0
3804 3803 -3788 0
-3805 3804 3789 0
-3805 -3804 -3789 0
3805 -3804 3789 0
3805 3804 -3789 0
-3806 3805 3790 0
-3806 -3805 -3790 0
3806 -3805 3790 0
3806 3805 -3790 0
-3807 3806 3791 0
-3807 -3806 -3791 0
3807 -3806 3791 0
3807 3806 -3791 0
-3808 3807 3792 0
-3808 -3807 -3792 0
3808 -3807 3792 0
3808 3807 -3792 0
-3809 3808 3793 0
-3809 -3808 -3793 0
3809 -3808 3793 0
3809 3808 -3793 0
-3809 0
-3810 3529 0
-3810 41 0
3810 -3529 -41 0
-3811 3531 0
-3811 45 0
3811 -3531 -45 0
-3812 3533 0
-3812 45 0
3812 -3533 -45 0
-3813 3535 0
-3813 35 0
3813 -3535 -35 0
-3814 3537 0
-3814 36 0
3814 -3537 -36 0
-3815 3539 0
-3815 36 0
3815 -3539 -36 0
-3816 3541 0
-3816 89 0
3816 -3541 -89 0
-3817 3543 0
-3817 89 0
3817 -3543 -89 0
-3818 3545 0
-3818 83 0
3818 -3545 -83 0
-3819 3547 0
-3819 83 0
3819 -3547 -83 0
-3820 3549 0
-3820 137 0
3820 -3549 -137 0
-3821 3551 0
-3821 137 0
3821 -3551 -137 0
-3822 3553 0
-3822 131 0
3822 -3553 -131 0
-3823 3555 0
-3823 131 0
3823 -3555 -131 0
-3824 3557 0
-3824 185 0
3824 -3557 -185 0
-3825 3559 0
-3825 189 0
3825 -3559 -189 0
-3826 3561 0
-3826 189 0
3826 -3561 -189 0
-3827 3810 3811 0
-3827 -3810 -3811 0
3827 -3810 3811 0
3827 3810 -3811 0
-3828 3827 3812 0
-3828 -3827 -3812 0
3828 -3827 3812 0
3828 3827 -3812 0
-3829 3828 3813 0
-3829 -3828 -3813 0
3829 -3828 3813 0
3829 3828 -3813 0
-3830 3829 3814 0
-3830 -3829 -3814 0
3830 -3829 3814 0
3830 3829 -3814 0
-3831 3830 3815 0
-3831 -3830 -3815 0
3831 -3830 3815 0
3831 3830 -3815 0
-3832 3831 3816 0
-3832 -3831 -3816 0
3832 -3831 3816 0
3832 3831 -3816 0
-3833 3832 3817 0
-3833 -3832 -3817 0
3833 -3832 3817 0
3833 3832 -3817 0
-3834 3833 3818 0
-3834 -3833 -3818 0
3834 -3833 3818 0
3834 3833 -3818 0
-3835 3834 3819 0
-3835 -3834 -3819 0
3835 -3834 3819 0
3835 3834 -3819 0
-3836 3835 3820 0
-3836 -3835 -3820 0
3836 -3835 3820 0
3836 3835 -3820 0
-3837 3836 3821 0
-3837 -3836 -3821 0
3837 -3836 3821 0
3837 3836 -3821 0
-3838 3837 3822 0
-3838 -3837 -3822 0
3838 -3837 3822 0
3838 3837 -3822 0
-3839 3838 3823 0
-3839 -3838 -3823 0
3839 -3838 3823 0
3839 3838 -3823 0
-3840 3839 3824 0
-3840 -3839 -3824 0
3840 -3839 3824 0
3840 3839 -3824 0
-3841 3840 3825 0
-3841 -3840 -3825 0
3841 -3840 3825 0
3841 3840 -3825 0
-3842 3841 3826 0
-3842 -3841 -3826 0
3842 -3841 3826 0
3842 3841 -3826 0
-3842 0
-3843 3529 0
-3843 42 0
3843 -3529 -42 0
-3844 3531 0
-3844 46 0
3844 -3531 -46 0
-3845 3533 0
-3845 47 0
3845 -3533 -47 0
-3846 3535 0
-3846 39 0
3846 -3535 -39 0
-3847 3537 0
-3847 40 0
3847 -3537 -40 0
-3848 3539 0
-3848 44 0
3848 -3539 -44 0
-3849 3541 0
-3849 90 0
3849 -3541 -90 0
-3850 3543 0
-3850 92 0
3850 -3543 -92 0
-3851 3545 0
-3851 87 0
3851 -3545 -87 0
-3852 3547 0
-3852 95 0
3852 -3547 -95 0
-3853 3549 0
-3853 138 0
3853 -3549 -138 0
-3854 3551 0
-3854 140 0
3854 -3551 -140 0
-3855 3553 0
-3855 135 0
3855 -3553 -135 0
-3856 3555 0
-3856 143 0
3856 -3555 -143 0
-3857 3557 0
-3857 186 0
3857 -3557 -186 0
-3858 3559 0
-3858 190 0
3858 -3559 -190 0
-3859 3561 0
-3859 191 0
3859 -3561 -191 0
-3860 3843 3844 0
-3860 -3843 -3844 0
3860 -3843 3844 0
3860 3843 -3844 0
-3861 3860 3845 0
-3861 -3860 -3845 0
3861 -3860 3845 0
3861 3860 -3845 0
-3862 3861 3846 0
-3862 -3861 -3846 0
3862 -3861 3846 0
3862 3861 -3846 0
-3863 3862 3847 0
-3863 -3862 -3847 0
3863 -3862 3847 0
3863 3862 -3847 0
-3864 3863 3848 0
-3864 -3863 -3848 0
3864 -3863 3848 0
3864 3863 -3848 0
-3865 3864 3849 0
-3865 -3864 -3849 0
3865 -3864 3849 0
3865 3864 -3849 0
-3866 3865 3850 0
-3866 -3865 -3850 0
3866 -3865 3850 0
3866 3865 -3850 0
-3867 3866 3851 0
-3867 -3866 -3851 0
3867 -3866 3851 0
3867 3866 -3851 0
-3868 3867 3852 0
-3868 -3867 -3852 0
3868 -3867 3852 0
3868 3867 -3852 0
-3869 3868 3853 0
-3869 -3868 -3853 0
3869 -3868 3853 0
3869 3868 -3853 0
-3870 3869 3854 0
-3870 -3869 -3854 0
3870 -3869 3854 0
3870 3869 -3854 0
-3871 3870 3855 0
-3871 -3870 -3855 0
3871 -3870 3855 0
3871 3870 -3855 0
-3872 3871 3856 0
-3872 -3871 -3856 0
3872 -3871 3856 0
3872 3871 -3856 0
-3873 3872 3857 0
-3873 -3872 -3857 0
3873 -3872 3857 0
3873 3872 -3857 0
-3874 3873 3858 0
-3874 -3873 -3858 0
3874 -3873 3858 0
3874 3873 -3858 0
-3875 3874 3859 0
-3875 -3874 -3859 0
3875 -3874 3859 0
3875 3874 -3859 0
-3875 0
-3876 3529 0
-3876 43 0
3876 -3529 -43 0
-3877 3531 0
-3877 48 0
3877 -3531 -48 0
-3878 3533 0
-3878 48 0
3878 -3533 -48 0
-3879 3535 0
-3879 43 0
3879 -3535 -43 0
-3880 3537 0
-3880 48 0
3880 -3537 -48 0
-3881 3539 0
-3881 48 0
3881 -3539 -48 0
-3882 3541 0
-3882 91 0
3882 -3541 -91 0
-3883 3543 0
-3883 91 0
3883 -3543 -91 0
-3884 3545 0
-3884 91 0
3884 -3545 -91 0
-3885 3547 0
-3885 91 0
3885 -3547 -91 0
-3886 3549 0
-3886 139 0
3886 -3549 -139 0
-3887 3551 0
-3887 139 0
3887 -3551 -139 0
-3888 3553 0
-3888 139 0
3888 -3553 -139 0
-3889 3555 0
-3889 139 0
3889 -3555 -139 0
-3890 3557 0
-3890 187 0
3890 -3557 -187 0
-3891 3559 0
-3891 192 0
3891 -3559 -192 0
-3892 3561 0
-3892 192 0
3892 -3561 -192 0
-3893 3876 3877 0
-3893 -3876 -3877 0
3893 -3876 3877 0
3893 3876 -3877 0
-3894 3893 3878 0
-3894 -3893 -3878 0
3894 -3893 3878 0
3894 3893 -3878 0
-3895 3894 3879 0
-3895 -3894 -3879 0
3895 -3894 3879 0
3895 3894 -3879 0
-3896 3895 3880 0
-3896 -3895 -3880 0
3896 -3895 3880 0
3896 3895 -3880 0
-3897 3896 3881 0
-3897 -3896 -3881 0
3897 -3896 3881 0
3897 3896 -3881 0
-3898 3897 3882 0
-3898 -3897 -3882 0
3898 -3897 3882 0
3898 3897 -3882 0
-3899 3898 3883 0
-3899 -3898 -3883 0
3899 -3898 3883 0
3899 3898 -3883 0
-3900 3899 3884 0
-3900 -3899 -3884 0
3900 -3899 3884 0
3900 3899 -3884 0
-3901 3900 3885 0
-3901 -3900 -3885 0
3901 -3900 3885 0
3901 3900 -3885 0
-3902 3901 3886 0
-3902 -3901 -3886 0
3902 -3901 3886 0
3902 3901 -3886 0
-3903 3902 3887 0
-3903 -3902 -3887 0
3903 -3902 3887 0
3903 3902 -3887 0
-3904 3903 3888 0
-3904 -3903 -3888 0
3904 -3903 3888 0
3904 3903 -3888 0
-3905 3904 3889 0
-3905 -3904 -3889 0
3905 -3904 3889 0
3905 3904 -3889 0
-3906 3905 3890 0
-3906 -3905 -3890 0
3906 -3905 3890 0
3906 3905 -3890 0
-3907 3906 3891 0
-3907 -3906 -3891 0
3907 -3906 3891 0
3907 3906 -3891 0
-3908 3907 3892 0
-3908 -3907 -3892 0
3908 -3907 3892 0
3908 3907 -3892 0
-3908 0
-3909 3529 0
-3909 44 0
3909 -3529 -44 0
-3910 3531 0
-3910 47 0
3910 -3531 -47 0
-3911 3533 0
-3911 46 0
3911 -3533 -46 0
-3912 3535 0
-3912 47 0
3912 -3535 -47 0
-3913 3537 0
-3913 44 0
3913 -3537 -44 0
-3914 3539 0
-3914 40 0
3914 -3539 -40 0
-3915 3541 0
-3915 92 0
3915 -3541 -92 0
-3916 3543 0
-3916 90 0
3916 -3543 -90 0
-3917 3545 0
-3917 95 0
3917 -3545 -95 0
-3918 3547 0
-3918 87 0
3918 -3547 -87 0
-3919 3549 0
-3919 140 0
3919 -3549 -140 0
-3920 3551 0
-3920 138 0
3920 -3551 -138 0
-3921 3553 0
-3921 143 0
3921 -3553 -143 0
-3922 3555 0
-3922 135 0
3922 -3555 -135 0
-3923 3557 0
-3923 188 0
3923 -3557 -188 0
-3924 3559 0
-3924 191 0
3924 -3559 -191 0
-3925 3561 0
-3925 190 0
3925 -3561 -190 0
-3926 3909 3910 0
-3926 -3909 -3910 0
3926 -3909 3910 0
3926 3909 -3910 0
-3927 3926 3911 0
-3927 -3926 -3911 0
3927 -3926 3911 0
3927 3926 -3911 0
-3928 3927 3912 0
-3928 -3927 -3912 0
3928 -3927 3912 0
3928 3927 -3912 0
-3929 3928 3913 0
-3929 -3928 -3913 0
3929 -3928 3913 0
3929 3928 -3913 0
-3930 3929 3914 0
-3930 -3929 -3914 0
3930 -3929 3914 0
3930 3929 -3914 0
-3931 3930 3915 0
-3931 -3930 -3915 0
3931 -3930 3915 0
3931 3930 -3915 0
-3932 3931 3916 0
-3932 -3931 -3916 0
3932 -3931 3916 0
3932 3931 -3916 0
-3933 3932 3917 0
-3933 -3932 -3917 0
3933 -3932 3917 0
3933 3932 -3917 0
-3934 3933 3918 0
-3934 -3933 -3918 0
3934 -3933 3918 0
3934 3933 -3918 0
-3935 3934 3919 0
-3935 -3934 -3919 0
3935 -3934 3919 0
3935 3934 -3919 0
-3936 3935 3920 0
-3936 -3935 -3920 0
3936 -3935 3920 0
3936 3935 -3920 0
-3937 3936 3921 0
-3937 -3936 -3921 0
3937 -3936 3921 0
3937 3936 -3921 0
-3938 3937 3922 0
-3938 -3937 -3922 0
3938 -3937 3922 0
3938 3937 -3922 0
-3939 3938 3923 0
-3939 -3938 -3923 0
3939 -3938 3923 0
3939 3938 -3923 0
-3940 3939 3924 0
-3940 -3939 -3924 0
3940 -3939 3924 0
3940 3939 -3924 0
-3941 3940 3925 0
-3941 -3940 -3925 0
3941 -3940 3925 0
3941 3940 -3925 0
-3941 0
-3942 3529 0
-3942 45 0
3942 -3529 -45 0
-3943 3531 0
-3943 41 0
3943 -3531 -41 0
-3944 3533 0
-3944 37 0
3944 -3533 -37 0
-3945 3535 0
-3945 36 0
3945 -3535 -36 0
-3946 3537 0
-3946 35 0
3946 -3537 -35 0
-3947 3539 0
-3947 34 0
3947 -3539 -34 0
-3948 3541 0
-3948 93 0
3948 -3541 -93 0
-3949 3543 0
-3949 85 0
3949 -3543 -85 0
-3950 3545 0
-3950 84 0
3950 -3545 -84 0
-3951 3547 0
-3951 82 0
3951 -3547 -82 0
-3952 3549 0
-3952 141 0
3952 -3549 -141 0
-3953 3551 0
-3953 133 0
3953 -3551 -133 0
-3954 3553 0
-3954 132 0
3954 -3553 -132 0
-3955 3555 0
-3955 130 0
3955 -3555 -130 0
-3956 3557 0
-3956 189 0
3956 -3557 -189 0
-3957 3559 0
-3957 185 0
3957 -3559 -185 0
-3958 3561 0
-3958 181 0
3958 -3561 -181 0
-3959 3942 3943 0
-3959 -3942 -3943 0
3959 -3942 3943 0
3959 3942 -3943 0
-3960 3959 3944 0
-3960 -3959 -3944 0
3960 -3959 3944 0
3960 3959 -3944 0
-3961 3960 3945 0
-3961 -3960 -3945 0
3961 -3960 3945 0
3961 3960 -3945 0
-3962 3961 3946 0
-3962 -3961 -3946 0
3962 -3961 3946 0
3962 3961 -3946 0
-3963 3962 3947 0
-3963 -3962 -3947 0
3963 -3962 3947 0
3963 3962 -3947 0
-3964 3963 3948 0
-3964 -3963 -3948 0
3964 -3963 3948 0
3964 3963 -3948 0
-3965 3964 3949 0
-3965 -3964 -3949 0
3965 -3964 3949 0
3965 3964 -3949 0
-3966 3965 3950 0
-3966 -3965 -3950 0
3966 -3965 3950 0
3966 3965 -3950 0
-3967 3966 3951 0
-3967 -3966 -3951 0
3967 -3966 3951 0
3967 3966 -3951 0
-3968 3967 3952 0
-3968 -3967 -3952 0
3968 -3967 3952 0
3968 3967 -3952 0
-3969 3968 3953 0
-3969 -3968 -3953 0
3969 -3968 3953 0
3969 3968 -3953 0
-3970 3969 3954 0
-3970 -3969 -3954 0
3970 -3969 3954 0
3970 3969 -3954 0
-3971 3970 3955 0
-3971 -3970 -3955 0
3971 -3970 3955 0
3971 3970 -3955 0
-3972 3971 3956 0
-3972 -3971 -3956 0
3972 -3971 3956 0
3972 3971 -3956 0
-3973 3972 3957 0
-3973 -3972 -3957 0
3973 -3972 3957 0
3973 3972 -3957 0
-3974 3973 3958 0
-3974 -3973 -3958 0
3974 -3973 3958 0
3974 3973 -3958 0
-3974 0
-3975 3529 0
-3975 46 0
3975 -3529 -46 0
-3976 3531 0
-3976 42 0
3976 -3531 -42 0
-3977 3533 0
-3977 39 0
3977 -3533 -39 0
-3978 3535 0
-3978 40 0
3978 -3535 -40 0
-3979 3537 0
-3979 39 0
3979 -3537 -39 0
-3980 3539 0
-3980 42 0
3980 -3539 -42 0
-3981 3541 0
-3981 94 0
3981 -3541 -94 0
-3982 3543 0
-3982 88 0
3982 -3543 -88 0
-3983 3545 0
-3983 88 0
3983 -3545 -88 0
-3984 3547 0
-3984 94 0
3984 -3547 -94 0
-3985 3549 0
-3985 142 0
3985 -3549 -142 0
-3986 3551 0
-3986 136 0
3986 -3551 -136 0
-3987 3553 0
-3987 136 0
3987 -3553 -136 0
-3988 3555 0
-3988 142 0
3988 -3555 -142 0
-3989 3557 0
-3989 190 0
3989 -3557 -190 0
-3990 3559 0
-3990 186 0
3990 -3559 -186 0
-3991 3561 0
-3991 183 0
3991 -3561 -183 0
-3992 3975 3976 0
-3992 -3975 -3976 0
3992 -3975 3976 0
3992 3975 -3976 0
-3993 3992 3977 0
-3993 -3992 -3977 0
3993 -3992 3977 0
3993 3992 -3977 0
-3994 3993 3978 0
-3994 -3993 -3978 0
3994 -3993 3978 0
3994 3993 -3978 0
-3995 3994 3979 0
-3995 -3994 -3979 0
3995 -3994 3979 0
3995 3994 -3979 0
-3996 3995 3980 0
-3996 -3995 -3980 0
3996 -3995 3980 0
3996 3995 -3980 0
-3997 3996 3981 0
-3997 -3996 -3981 0
3997 -3996 3981 0
3997 3996 -3981 0
-3998 3997 3982 0
-3998 -3997 -3982 0
3998 -3997 3982 0
3998 3997 -3982 0
-3999 3998 3983 0
-3999 -3998 -3983 0
3999 -3998 3983 0
3999 3998 -3983 0
-4000 3999 3984 0
-4000 -3999 -3984 0
4000 -3999 3984 0
4000 3999 -3984 0
-4001 4000 3985 0
-4001 -4000 -3985 0
4001 -4000 3985 0
4001 4000 -3985 0
-4002 4001 3986 0
-4002 -4001 -3986 0
4002 -4001 3986 0
4002 4001 -3986 0
-4003 4002 3987 0
-4003 -4002 -3987 0
4003 -4002 3987 0
4003 4002 -3987 0
-4004 4003 3988 0
-4004 -4003 -3988 0
4004 -4003 3988 0
4004 4003 -3988 0
-4005 4004 3989 0
-4005 -4004 -3989 0
4005 -4004 3989 0
4005 4004 -3989 0
-4006 4005 3990 0
-4006 -4005 -3990 0
4006 -4005 3990 0
4006 4005 -3990 0
-4007 4006 3991 0
-4007 -4006 -3991 0
4007 -4006 3991 0
4007 4006 -3991 0
-4007 0
-4008 3529 0
-4008 47 0
4008 -3529 -47 0
-4009 3531 0
-4009 44 0
4009 -3531 -44 0
-4010 3533 0
-4010 40 0
4010 -3533 -40 0
-4011 3535 0
-4011 44 0
4011 -3535 -44 0
-4012 3537 0
-4012 47 0
4012 -3537 -47 0
-4013 3539 0
-4013 46 0
4013 -3539 -46 0
-4014 3541 0
-4014 95 0
4014 -3541 -95 0
-4015 3543 0
-4015 87 0
4015 -3543 -87 0
-4016 3545 0
-4016 92 0
4016 -3545 -92 0
-4017 3547 0
-4017 90 0
4017 -3547 -90 0
-4018 3549 0
-4018 143 0
4018 -3549 -143 0
-4019 3551 0
-4019 135 0
4019 -3551 -135 0
-4020 3553 0
-4020 140 0
4020 -3553 -140 0
-4021 3555 0
-4021 138 0
4021 -3555 -138 0
-4022 3557 0
-4022 191 0
4022 -3557 -191 0
-4023 3559 0
-4023 188 0
4023 -3559 -188 0
-4024 3561 0
-4024 184 0
4024 -3561 -184 0
-4025 4008 4009 0
-4025 -4008 -4009 0
4025 -4008 4009 0
4025 4008 -4009 0
-4026 4025 4010 0
-4026 -4025 -4010 0
4026 -4025 4010 0
4026 4025 -4010 0
-4027 4026 4011 0
-4027 -4026 -4011 0
4027 -4026 4011 0
4027 4026 -4011 0
-4028 4027 4012 0
-4028 -4027 -4012 0
4028 -4027 4012 0
4028 4027 -4012 0
-4029 4028 4013 0
-4029 -4028 -4013 0
4029 -4028 4013 0
4029 4028 -4013 0
-4030 4029 4014 0
-4030 -4029 -4014 0
4030 -4029 4014 0
4030 4029 -4014 0
-4031 4030 4015 0
-4031 -4030 -4015 0
4031 -4030 4015 0
4031 4030 -4015 0
-4032 4031 4016 0
-4032 -4031 -4016 0
4032 -4031 4016 0
4032 4031 -4016 0
-4033 4032 4017 0
-4033 -4032 -4017 0
4033 -4032 4017 0
4033 4032 -4017 0
-4034 4033 4018 0
-4034 -4033 -4018 0
4034 -4033 4018 0
4034 4033 -4018 0
-4035 4034 4019 0
-4035 -4034 -4019 0
4035 -4034 4019 0
4035 4034 -4019 0
-4036 4035 4020 0
-4036 -4035 -4020 0
4036 -4035 4020 0
4036 4035 -4020 0
-4037 4036 4021 0
-4037 -4036 -4021 0
4037 -4036 4021 0
4037 4036 -4021 0
-4038 4037 4022 0
-4038 -4037 -4022 0
4038 -4037 4022 0
4038 4037 -4022 0
-4039 4038 4023 0
-4039 -4038 -4023 0
4039 -4038 4023 0
4039 4038 -4023 0
-4040 4039 4024 0
-4040 -4039 -4024 0
4040 -4039 4024 0
4040 4039 -4024 0
-4040 0
-4041 3529 0
-4041 48 0
4041 -3529 -48 0
-4042 3531 0
-4042 43 0
4042 -3531 -43 0
-4043 3533 0
-4043 38 0
4043 -3533 -38 0
-4044 3535 0
-4044 48 0
4044 -3535 -48 0
-4045 3537 0
-4045 43 0
4045 -3537 -43 0
-4046 3539 0
-4046 38 0
4046 -3539 -38 0
-4047 3541 0
-4047 96 0
4047 -3541 -96 0
-4048 3543 0
-4048 86 0
4048 -3543 -86 0
-4049 3545 0
-4049 96 0
4049 -3545 -96 0
-4050 3547 0
-4050 86 0
4050 -3547 -86 0
-4051 3549 0
-4051 144 0
4051 -3549 -144 0
-4052 3551 0
-4052 134 0
4052 -3551 -134 0
-4053 3553 0
-4053 144 0
4053 -3553 -144 0
-4054 3555 0
-4054 134 0
4054 -3555 -134 0
-4055 3557 0
-4055 192 0
4055 -3557 -192 0
-4056 3559 0
-4056 187 0
4056 -3559 -187 0
-4057 3561 0
-4057 182 0
4057 -3561 -182 0
-4058 4041 4042 0
-4058 -4041 -4042 0
4058 -4041 4042 0
4058 4041 -4042 0
-4059 4058 4043 0
-4059 -4058 -4043 0
4059 -4058 4043 0
4059 4058 -4043 0
-4060 4059 4044 0
-4060 -4059 -4044 0
4060 -4059 4044 0
4060 4059 -4044 0
-4061 4060 4045 0
-4061 -4060 -4045 0
4061 -4060 4045 0
4061 4060 -4045 0
-4062 4061 4046 0
-4062 -4061 -4046 0
4062 -4061 4046 0
4062 4061 -4046 0
-4063 4062 4047 0
-4063 -4062 -4047 0
4063 -4062 4047 0
4063 4062 -4047 0
-4064 4063 4048 0
-4064 -4063 -4048 0
4064 -4063 4048 0
4064 4063 -4048 0
-4065 4064 4049 0
-4065 -4064 -4049 0
4065 -4064 4049 0
4065 4064 -4049 0
-4066 4065 4050 0
-4066 -4065 -4050 0
4066 -4065 4050 0
4066 4065 -4050 0
-4067 4066 4051 0
-4067 -4066 -4051 0
4067 -4066 4051 0
4067 4066 -4051 0
-4068 4067 4052 0
-4068 -4067 -4052 0
4068 -4067 4052 0
4068 4067 -4052 0
-4069 4068 4053 0
-4069 -4068 -4053 0
4069 -4068 4053 0
4069 4068 -4053 0
-4070 4069 4054 0
-4070 -4069 -4054 0
4070 -4069 4054 0
4070 4069 -4054 0
-4071 4070 4055 0
-4071 -4070 -4055 0
4071 -4070 4055 0
4071 4070 -4055 0
-4072 4071 4056 0
-4072 -4071 -4056 0
4072 -4071 4056 0
4072 4071 -4056 0
-4073 4072 4057 0
-4073 -4072 -4057 0
4073 -4072 4057 0
4073 4072 -4057 0
-4073 0
-4074 1 0
-4074 31 0
4074 -1 -31 0
-4075 4074 0
-4075 33 0
4075 -4074 -33 0
-4076 2 0
-4076 32 0
4076 -2 -32 0
-4077 4076 0
-4077 33 0
4077 -4076 -33 0
-4078 17 0
-4078 12 0
4078 -17 -12 0
-4079 4078 0
-4079 33 0
4079 -4078 -33 0
-4080 21 0
-4080 16 0
4080 -21 -16 0
-4081 4080 0
-4081 33 0
4081 -4080 -33 0
-4082 49 0
-4082 79 0
4082 -49 -79 0
-4083 4082 0
-4083 81 0
4083 -4082 -81 0
-4084 65 0
-4084 60 0
4084 -65 -60 0
-4085 4084 0
-4085 81 0
4085 -4084 -81 0
-4086 97 0
-4086 127 0
4086 -97 -127 0
-4087 4086 0
-4087 129 0
4087 -4086 -129 0
-4088 113 0
-4088 108 0
4088 -113 -108 0
-4089 4088 0
-4089 129 0
4089 -4088 -129 0
-4090 145 0
-4090 175 0
4090 -145 -175 0
-4091 4090 0
-4091 177 0
4091 -4090 -177 0
-4092 146 0
-4092 176 0
4092 -146 -176 0
-4093 4092 0
-4093 177 0
4093 -4092 -177 0
-4094 4075 4077 0
-4094 -4075 -4077 0
4094 -4075 4077 0
4094 4075 -4077 0
-4095 4094 4077 0
-4095 -4094 -4077 0
4095 -4094 4077 0
4095 4094 -4077 0
-4096 4095 4079 0
-4096 -4095 -4079 0
4096 -4095 4079 0
4096 4095 -4079 0
-4097 4096 4081 0
-4097 -4096 -4081 0
4097 -4096 4081 0
4097 4096 -4081 0
-4098 4097 4081 0
-4098 -4097 -4081 0
4098 -4097 4081 0
4098 4097 -4081 0
-4099 4098 4083 0
-4099 -4098 -4083 0
4099 -4098 4083 0
4099 4098 -4083 0
-4100 4099 4083 0
-4100 -4099 -4083 0
4100 -4099 4083 0
4100 4099 -4083 0
-4101 4100 4085 0
-4101 -4100 -4085 0
4101 -4100 4085 0
4101 4100 -4085 0
-4102 4101 4085 0
-4102 -4101 -4085 0
4102 -4101 4085 0
4102 4101 -4085 0
-4103 4102 4087 0
-4103 -4102 -4087 0
4103 -4102 4087 0
4103 4102 -4087 0
-4104 4103 4087 0
-4104 -4103 -4087 0
4104 -4103 4087 0
4104 4103 -4087 0
-4105 4104 4089 0
-4105 -4104 -4089 0
4105 -4104 4089 0
4105 4104 -4089 0
-4106 4105 4089 0
-4106 -4105 -4089 0
4106 -4105 4089 0
4106 4105 -4089 0
-4107 4106 4091 0
-4107 -4106 -4091 0
4107 -4106 4091 0
4107 4106 -4091 0
-4108 4107 4093 0
-4108 -4107 -4093 0
4108 -4107 4093 0
4108 4107 -4093 0
-4109 4108 4093 0
-4109 -4108 -4093 0
4109 -4108 4093 0
4109 4108 -4093 0
-4109 0
-4110 4074 0
-4110 34 0
4110 -4074 -34 0
-4111 4076 0
-4111 34 0
4111 -4076 -34 0
-4112 4076 0
-4112 35 0
4112 -4076 -35 0
-4113 4078 0
-4113 37 0
4113 -4078 -37 0
-4114 4080 0
-4114 37 0
4114 -4080 -37 0
-4115 4080 0
-4115 41 0
4115 -4080 -41 0
-4116 4082 0
-4116 82 0
4116 -4082 -82 0
-4117 4082 0
-4117 84 0
4117 -4082 -84 0
-4118 4084 0
-4118 85 0
4118 -4084 -85 0
-4119 4084 0
-4119 93 0
4119 -4084 -93 0
-4120 4086 0
-4120 130 0
4120 -4086 -130 0
-4121 4086 0
-4121 132 0
4121 -4086 -132 0
-4122 4088 0
-4122 133 0
4122 -4088 -133 0
-4123 4088 0
-4123 141 0
4123 -4088 -141 0
-4124 4090 0
-4124 178 0
4124 -4090 -178 0
-4125 4092 0
-4125 178 0
4125 -4092 -178 0
-4126 4092 0
-4126 179 0
4126 -4092 -179 0
-4127 4110 4111 0
-4127 -4110 -4111 0
4127 -4110 4111 0
4127 4110 -4111 0
-4128 4127 4112 0
-4128 -4127 -4112 0
4128 -4127 4112 0
4128 4127 -4112 0
-4129 4128 4113 0
-4129 -4128 -4113 0
4129 -4128 4113 0
4129 4128 -4113 0
-4130 4129 4114 0
-4130 -4129 -4114 0
4130 -4129 4114 0
4130 4129 -4114 0
-4131 4130 4115 0
-4131 -4130 -4115 0
4131 -4130 4115 0
4131 4130 -4115 0
-4132 4131 4116 0
-4132 -4131 -4116 0
4132 -4131 4116 0
4132 4131 -4116 0
-4133 4132 4117 0
-4133 -4132 -4117 0
4133 -4132 4117 0
4133 4132 -4117 0
-4134 4133 4118 0
-4134 -4133 -4118 0
4134 -4133 4118 0
4134 4133 -4118 0
-4135 4134 4119 0
-4135 -4134 -4119 0
4135 -4134 4119 0
4135 4134 -4119 0
-4136 4135 4120 0
-4136 -4135 -4120 0
4136 -4135 4120 0
4136 4135 -4120 0
-4137 4136 4121 0
-4137 -4136 -4121 0
4137 -4136 4121 0
4137 4136 -4121 0
-4138 4137 4122 0
-4138 -4137 -4122 0
4138 -4137 4122 0
4138 4137 -4122 0
-4139 4138 4123 0
-4139 -4138 -4123 0
4139 -4138 4123 0
4139 4138 -4123 0
-4140 4139 4124 0
-4140 -4139 -4124 0
4140 -4139 4124 0
4140 4139 -4124 0
-4141 4140 4125 0
-4141 -4140 -4125 0
4141 -4140 4125 0
4141 4140 -4125 0
-4142 4141 4126 0
-4142 -4141 -4126 0
4142 -4141 4126 0
4142 4141 -4126 0
-4142 0
-4143 4074 0
-4143 35 0
4143 -4074 -35 0
-4144 4076 0
-4144 36 0
4144 -4076 -36 0
-4145 4078 0
-4145 41 0
4145 -4078 -41 0
-4146 4080 0
-4146 45 0
4146 -4080 -45 0
-4147 4082 0
-4147 83 0
4147 -4082 -83 0
-4148 4084 0
-4148 89 0
4148 -4084 -89 0
-4149 4086 0
-4149 131 0
4149 -4086 -131 0
-4150 4088 0
-4150 137 0
4150 -4088 -137 0
-4151 4090 0
-4151 179 0
4151 -4090 -179 0
-4152 4092 0
-4152 180 0
4152 -4092 -180 0
-4153 4143 4144 0
-4153 -4143 -4144 0
4153 -4143 4144 0
4153 4143 -4144 0
-4154 4153 4144 0
-4154 -4153 -4144 0
4154 -4153 4144 0
4154 4153 -4144 0
-4155 4154 4145 0
-4155 -4154 -4145 0
4155 -4154 4145 0
4155 4154 -4145 0
-4156 4155 4146 0
-4156 -4155 -4146 0
4156 -4155 4146 0
4156 4155 -4146 0
-4157 4156 4146 0
-4157 -4156 -4146 0
4157 -4156 4146 0
4157 4156 -4146 0
-4158 4157 4147 0
-4158 -4157 -4147 0
4158 -4157 4147 0
4158 4157 -4147 0
-4159 4158 4147 0
-4159 -4158 -4147 0
4159 -4158 4147 0
4159 4158 -4147 0
-4160 4159 4148 0
-4160 -4159 -4148 0
4160 -4159 4148 0
4160 4159 -4148 0
-4161 4160 4148 0
-4161 -4160 -4148 0
4161 -4160 4148 0
4161 4160 -4148 0
-4162 4161 4149 0
-4162 -4161 -4149 0
4162 -4161 4149 0
4162 4161 -4149 0
-4163 4162 4149 0
-4163 -4162 -4149 0
4163 -4162 4149 0
4163 4162 -4149 0
-4164 4163 4150 0
-4164 -4163 -4150 0
4164 -4163 4150 0
4164 4163 -4150 0
-4165 4164 4150 0
-4165 -4164 -4150 0
4165 -4164 4150 0
4165 4164 -4150 0
-4166 4165 4151 0
-4166 -4165 -4151 0
4166 -4165 4151 0
4166 4165 -4151 0
-4167 4166 4152 0
-4167 -4166 -4152 0
4167 -4166 4152 0
4167 4166 -4152 0
-4168 4167 4152 0
-4168 -4167 -4152 0
4168 -4167 4152 0
4168 4167 -4152 0
-4168 0
-4169 4074 0
-4169 37 0
4169 -4074 -37 0
-4170 4076 0
-4170 37 0
4170 -4076 -37 0
-4171 4076 0
-4171 41 0
4171 -4076 -41 0
-4172 4078 0
-4172 34 0
4172 -4078 -34 0
-4173 4080 0
-4173 34 0
4173 -4080 -34 0
-4174 4080 0
-4174 35 0
4174 -4080 -35 0
-4175 4082 0
-4175 85 0
4175 -4082 -85 0
-4176 4082 0
-4176 93 0
4176 -4082 -93 0
-4177 4084 0
-4177 82 0
4177 -4084 -82 0
-4178 4084 0
-4178 84 0
4178 -4084 -84 0
-4179 4086 0
-4179 133 0
4179 -4086 -133 0
-4180 4086 0
-4180 141 0
4180 -4086 -141 0
-4181 4088 0
-4181 130 0
4181 -4088 -130 0
-4182 4088 0
-4182 132 0
4182 -4088 -132 0
-4183 4090 0
-4183 181 0
4183 -4090 -181 0
-4184 4092 0
-4184 181 0
4184 -4092 -181 0
-4185 4092 0
-4185 185 0
4185 -4092 -185 0
-4186 4169 4170 0
-4186 -4169 -4170 0
4186 -4169 4170 0
4186 4169 -4170 0
-4187 4186 4171 0
-4187 -4186 -4171 0
4187 -4186 4171 0
4187 4186 -4171 0
-4188 4187 4172 0
-4188 -4187 -4172 0
4188 -4187 4172 0
4188 4187 -4172 0
-4189 4188 4173 0
-4189 -4188 -4173 0
4189 -4188 4173 0
4189 4188 -4173 0
-4190 4189 4174 0
-4190 -4189 -4174 0
4190 -4189 4174 0
4190 4189 -4174 0
-4191 4190 4175 0
-4191 -4190 -4175 0
4191 -4190 4175 0
4191 4190 -4175 0
-4192 4191 4176 0
-4192 -4191 -4176 0
4192 -4191 4176 0
4192 4191 -4176 0
-4193 4192 4177 0
-4193 -4192 -4177 0
4193 -4192 4177 0
4193 4192 -4177 0
-4194 4193 4178 0
-4194 -4193 -4178 0
4194 -4193 4178 0
4194 4193 -4178 0
-4195 4194 4179 0
-4195 -4194 -4179 0
4195 -4194 4179 0
4195 4194 -4179 0
-4196 4195 4180 0
-4196 -4195 -4180 0
4196 -4195 4180 0
4196 4195 -4180 0
-4197 4196 4181 0
-4197 -4196 -4181 0
4197 -4196 4181 0
4197 4196 -4181 0
-4198 4197 4182 0
-4198 -4197 -4182 0
4198 -4197 4182 0
4198 4197 -4182 0
-4199 4198 4183 0
-4199 -4198 -4183 0
4199 -4198 4183 0
4199 4198 -4183 0
-4200 4199 4184 0
-4200 -4199 -4184 0
4200 -4199 4184 0
4200 4199 -4184 0
-4201 4200 4185 0
-4201 -4200 -4185 0
4201 -4200 4185 0
4201 4200 -4185 0
-4201 0
-4202 4074 0
-4202 38 0
4202 -4074 -38 0
-4203 4076 0
-4203 38 0
4203 -4076 -38 0
-4204 4076 0
-4204 43 0
4204 -4076 -43 0
-4205 4078 0
-4205 38 0
4205 -4078 -38 0
-4206 4080 0
-4206 38 0
4206 -4080 -38 0
-4207 4080 0
-4207 43 0
4207 -4080 -43 0
-4208 4082 0
-4208 86 0
4208 -4082 -86 0
-4209 4082 0
-4209 96 0
4209 -4082 -96 0
-4210 4084 0
-4210 86 0
4210 -4084 -86 0
-4211 4084 0
-4211 96 0
4211 -4084 -96 0
-4212 4086 0
-4212 134 0
4212 -4086 -134 0
-4213 4086 0
-4213 144 0
4213 -4086 -144 0
-4214 4088 0
-4214 134 0
4214 -4088 -134 0
-4215 4088 0
-4215 144 0
4215 -4088 -144 0
-4216 4090 0
-4216 182 0
4216 -4090 -182 0
-4217 4092 0
-4217 182 0
4217 -4092 -182 0
-4218 4092 0
-4218 187 0
4218 -4092 -187 0
-4219 4202 4203 0
-4219 -4202 -4203 0
4219 -4202 4203 0
4219 4202 -4203 0
-4220 4219 4204 0
-4220 -4219 -4204 0
4220 -4219 4204 0
4220 4219 -4204 0
-4221 4220 4205 0
-4221 -4220 -4205 0
4221 -4220 4205 0
4221 4220 -4205 0
-4222 4221 4206 0
-4222 -4221 -4206 0
4222 -4221 4206 0
4222 4221 -4206 0
-4223 4222 4207 0
-4223 -4222 -4207 0
4223 -4222 4207 0
4223 4222 -4207 0
-4224 4223 4208 0
-4224 -4223 -4208 0
4224 -4223 4208 0
4224 4223 -4208 0
-4225 4224 4209 0
-4225 -4224 -4209 0
4225 -4224 4209 0
4225 4224 -4209 0
-4226 4225 4210 0
-4226 -4225 -4210 0
4226 -4225 4210 0
4226 4225 -4210 0
-4227 4226 4211 0
-4227 -4226 -4211 0
4227 -4226 4211 0
4227 4226 -4211 0
-4228 4227 4212 0
-4228 -4227 -4212 0
4228 -4227 4212 0
4228 4227 -4212 0
-4229 4228 4213 0
-4229 -4228 -4213 0
4229 -4228 4213 0
4229 4228 -4213 0
-4230 4229 4214 0
-4230 -4229 -4214 0
4230 -4229 4214 0
4230 4229 -4214 0
-4231 4230 4215 0
-4231 -4230 -4215 0
4231 -4230 4215 0
4231 4230 -4215 0
-4232 4231 4216 0
-4232 -4231 -4216 0
4232 -4231 4216 0
4232 4231 -4216 0
-4233 4232 4217 0
-4233 -4232 -4217 0
4233 -4232 4217 0
4233 4232 -4217 0
-4234 4233 4218 0
-4234 -4233 -4218 0
4234 -4233 4218 0
4234 4233 -4218 0
-4234 0
-4235 4074 0
-4235 39 0
4235 -4074 -39 0
-4236 4076 0
-4236 40 0
4236 -4076 -40 0
-4237 4076 0
-4237 44 0
4237 -4076 -44 0
-4238 4078 0
-4238 42 0
4238 -4078 -42 0
-4239 4080 0
-4239 46 0
4239 -4080 -46 0
-4240 4080 0
-4240 47 0
4240 -4080 -47 0
-4241 4082 0
-4241 87 0
4241 -4082 -87 0
-4242 4082 0
-4242 95 0
4242 -4082 -95 0
-4243 4084 0
-4243 90 0
4243 -4084 -90 0
-4244 4084 0
-4244 92 0
4244 -4084 -92 0
-4245 4086 0
-4245 135 0
4245 -4086 -135 0
-4246 4086 0
-4246 143 0
4246 -4086 -143 0
-4247 4088 0
-4247 138 0
4247 -4088 -138 0
-4248 4088 0
-4248 140 0
4248 -4088 -140 0
-4249 4090 0
-4249 183 0
4249 -4090 -183 0
-4250 4092 0
-4250 184 0
4250 -4092 -184 0
-4251 4092 0
-4251 188 0
4251 -4092 -188 0
-4252 4235 4236 0
-4252 -4235 -4236 0
4252 -4235 4236 0
4252 4235 -4236 0
-4253 4252 4237 0
-4253 -4252 -4237 0
4253 -4252 4237 0
4253 4252 -4237 0
-4254 4253 4238 0
-4254 -4253 -4238 0
4254 -4253 4238 0
4254 4253 -4238 0
-4255 4254 4239 0
-4255 -4254 -4239 0
4255 -4254 4239 0
4255 4254 -4239 0
-4256 4255 4240 0
-4256 -4255 -4240 0
4256 -4255 4240 0
4256 4255 -4240 0
-4257 4256 4241 0
-4257 -4256 -4241 0
4257 -4256 4241 0
4257 4256 -4241 0
-4258 4257 4242 0
-4258 -4257 -4242 0
4258 -4257 4242 0
4258 4257 -4242 0
-4259 4258 4243 0
-4259 -4258 -4243 0
4259 -4258 4243 0
4259 4258 -4243 0
-4260 4259 4244 0
-4260 -4259 -4244 0
4260 -4259 4244 0
4260 4259 -4244 0
-4261 4260 4245 0
-4261 -4260 -4245 0
4261 -4260 4245 0
4261 4260 -4245 0
-4262 4261 4246 0
-4262 -4261 -4246 0
4262 -4261 4246 0
4262 4261 -4246 0
-4263 4262 4247 0
-4263 -4262 -4247 0
4263 -4262 4247 0
4263 4262 -4247 0
-4264 4263 4248 0
-4264 -4263 -4248 0
4264 -4263 4248 0
4264 4263 -4248 0
-4265 4264 4249 0
-4265 -4264 -4249 0
4265 -4264 4249 0
4265 4264 -4249 0
-4266 4265 4250 0
-4266 -4265 -4250 0
4266 -4265 4250 0
4266 4265 -4250 0
-4267 4266 4251 0
-4267 -4266 -4251 0
4267 -4266 4251 0
4267 4266 -4251 0
-4267 0
-4268 4074 0
-4268 40 0
4268 -4074 -40 0
-4269 4076 0
-4269 39 0
4269 -4076 -39 0
-4270 4076 0
-4270 42 0
4270 -4076 -42 0
-4271 4078 0
-4271 46 0
4271 -4078 -46 0
-4272 4080 0
-4272 42 0
4272 -4080 -42 0
-4273 4080 0
-4273 39 0
4273 -4080 -39 0
-4274 4082 0
-4274 88 0
4274 -4082 -88 0
-4275 4082 0
-4275 94 0
4275 -4082 -94 0
-4276 4084 0
-4276 94 0
4276 -4084 -94 0
-4277 4084 0
-4277 88 0
4277 -4084 -88 0
-4278 4086 0
-4278 136 0
4278 -4086 -136 0
-4279 4086 0
-4279 142 0
4279 -4086 -142 0
-4280 4088 0
-4280 142 0
4280 -4088 -142 0
-4281 4088 0
-4281 136 0
4281 -4088 -136 0
-4282 4090 0
-4282 184 0
4282 -4090 -184 0
-4283 4092 0
-4283 183 0
4283 -4092 -183 0
-4284 4092 0
-4284 186 0
4284 -4092 -186 0
-4285 4268 4269 0
-4285 -4268 -4269 0
4285 -4268 4269 0
4285 4268 -4269 0
-4286 4285 4270 0
-4286 -4285 -4270 0
4286 -4285 4270 0
4286 4285 -4270 0
-4287 4286 4271 0
-4287 -4286 -4271 0
4287 -4286 4271 0
4287 4286 -4271 0
-4288 4287 4272 0
-4288 -4287 -4272 0
4288 -4287 4272 0
4288 4287 -4272 0
-4289 4288 4273 0
-4289 -4288 -4273 0
4289 -4288 4273 0
4289 4288 -4273 0
-4290 4289 4274 0
-4290 -4289 -4274 0
4290 -4289 4274 0
4290 4289 -4274 0
-4291 4290 4275 0
-4291 -4290 -4275 0
4291 -4290 4275 0
4291 4290 -4275 0
-4292 4291 4276 0
-4292 -4291 -4276 0
4292 -4291 4276 0
4292 4291 -4276 0
-4293 4292 4277 0
-4293 -4292 -4277 0
4293 -4292 4277 0
4293 4292 -4277 0
-4294 4293 4278 0
-4294 -4293 -4278 0
4294 -4293 4278 0
4294 4293 -4278 0
-4295 4294 4279 0
-4295 -4294 -4279 0
4295 -4294 4279 0
4295 4294 -4279 0
-4296 4295 4280 0
-4296 -4295 -4280 0
4296 -4295 4280 0
4296 4295 -4280 0
-4297 4296 4281 0
-4297 -4296 -4281 0
4297 -4296 4281 0
4297 4296 -4281 0
-4298 4297 4282 0
-4298 -4297 -4282 0
4298 -4297 4282 0
4298 4297 -4282 0
-4299 4298 4283 0
-4299 -4298 -4283 0
4299 -4298 4283 0
4299 4298 -4283 0
-4300 4299 4284 0
-4300 -4299 -4284 0
4300 -4299 4284 0
4300 4299 -4284 0
-4300 0
-4301 4074 0
-4301 41 0
4301 -4074 -41 0
-4302 4076 0
-4302 45 0
4302 -4076 -45 0
-4303 4078 0
-4303 35 0
4303 -4078 -35 0
-4304 4080 0
-4304 36 0
4304 -4080 -36 0
-4305 4082 0
-4305 89 0
4305 -4082 -89 0
-4306 4084 0
-4306 83 0
4306 -4084 -83 0
-4307 4086 0
-4307 137 0
4307 -4086 -137 0
-4308 4088 0
-4308 131 0
4308 -4088 -131 0
-4309 4090 0
-4309 185 0
4309 -4090 -185 0
-4310 4092 0
-4310 189 0
4310 -4092 -189 0
-4311 4301 4302 0
-4311 -4301 -4302 0
4311 -4301 4302 0
4311 4301 -4302 0
-4312 4311 4302 0
-4312 -4311 -4302 0
4312 -4311 4302 0
4312 4311 -4302 0
-4313 4312 4303 0
-4313 -4312 -4303 0
4313 -4312 4303 0
4313 4312 -4303 0
-4314 4313 4304 0
-4314 -4313 -4304 0
4314 -4313 4304 0
4314 4313 -4304 0
-4315 4314 4304 0
-4315 -4314 -4304 0
4315 -4314 4304 0
4315 4314 -4304 0
-4316 4315 4305 0
-4316 -4315 -4305 0
4316 -4315 4305 0
4316 4315 -4305 0
-4317 4316 4305 0
-4317 -4316 -4305 0
4317 -4316 4305 0
4317 4316 -4305 0
-4318 4317 4306 0
-4318 -4317 -4306 0
4318 -4317 4306 0
4318 4317 -4306 0
-4319 4318 4306 0
-4319 -4318 -4306 0
4319 -4318 4306 0
4319 4318 -4306 0
-4320 4319 4307 0
-4320 -4319 -4307 0
4320 -4319 4307 0
4320 4319 -4307 0
-4321 4320 4307 0
-4321 -4320 -4307 0
4321 -4320 4307 0
4321 4320 -4307 0
-4322 4321 4308 0
-4322 -4321 -4308 0
4322 -4321 4308 0
4322 4321 -4308 0
-4323 4322 4308 0
-4323 -4322 -4308 0
4323 -4322 4308 0
4323 4322 -4308 0
-4324 4323 4309 0
-4324 -4323 -4309 0
4324 -4323 4309 0
4324 4323 -4309 0
-4325 4324 4310 0
-4325 -4324 -4310 0
4325 -4324 4310 0
4325 4324 -4310 0
-4326 4325 4310 0
-4326 -4325 -4310 0
4326 -4325 4310 0
4326 4325 -4310 0
-4326 0
-4327 4074 0
-4327 42 0
4327 -4074 -42 0
-4328 4076 0
-4328 46 0
4328 -4076 -46 0
-4329 4076 0
-4329 47 0
4329 -4076 -47 0
-4330 4078 0
-4330 39 0
4330 -4078 -39 0
-4331 4080 0
-4331 40 0
4331 -4080 -40 0
-4332 4080 0
-4332 44 0
4332 -4080 -44 0
-4333 4082 0
-4333 90 0
4333 -4082 -90 0
-4334 4082 0
-4334 92 0
4334 -4082 -92 0
-4335 4084 0
-4335 87 0
4335 -4084 -87 0
-4336 4084 0
-4336 95 0
4336 -4084 -95 0
-4337 4086 0
-4337 138 0
4337 -4086 -138 0
-4338 4086 0
-4338 140 0
4338 -4086 -140 0
-4339 4088 0
-4339 135 0
4339 -4088 -135 0
-4340 4088 0
-4340 143 0
4340 -4088 -143 0
-4341 4090 0
-4341 186 0
4341 -4090 -186 0
-4342 4092 0
-4342 190 0
4342 -4092 -190 0
-4343 4092 0
-4343 191 0
4343 -4092 -191 0
-4344 4327 4328 0
-4344 -4327 -4328 0
4344 -4327 4328 0
4344 4327 -4328 0
-4345 4344 4329 0
-4345 -4344 -4329 0
4345 -4344 4329 0
4345 4344 -4329 0
-4346 4345 4330 0
-4346 -4345 -4330 0
4346 -4345 4330 0
4346 4345 -4330 0
-4347 4346 4331 0
-4347 -4346 -4331 0
4347 -4346 4331 0
4347 4346 -4331 0
-4348 4347 4332 0
-4348 -4347 -4332 0
4348 -4347 4332 0
4348 4347 -4332 0
-4349 4348 4333 0
-4349 -4348 -4333 0
4349 -4348 4333 0
4349 4348 -4333 0
-4350 4349 4334 0
-4350 -4349 -4334 0
4350 -4349 4334 0
4350 4349 -4334 0
-4351 4350 4335 0
-4351 -4350 -4335 0
4351 -4350 4335 0
4351 4350 -4335 0
-4352 4351 4336 0
-4352 -4351 -4336 0
4352 -4351 4336 0
4352 4351 -4336 0
-4353 4352 4337 0
-4353 -4352 -4337 0
4353 -4352 4337 0
4353 4352 -4337 0
-4354 4353 4338 0
-4354 -4353 -4338 0
4354 -4353 4338 0
4354 4353 -4338 0
-4355 4354 4339 0
-4355 -4354 -4339 0
4355 -4354 4339 0
4355 4354 -4339 0
-4356 4355 4340 0
-4356 -4355 -4340 0
4356 -4355 4340 0
4356 4355 -4340 0
-4357 4356 4341 0
-4357 -4356 -4341 0
4357 -4356 4341 0
4357 4356 -4341 0
-4358 4357 4342 0
-4358 -4357 -4342 0
4358 -4357 4342 0
4358 4357 -4342 0
-4359 4358 4343 0
-4359 -4358 -4343 0
4359 -4358 4343 0
4359 4358 -4343 0
-4359 0
-4360 4074 0
-4360 43 0
4360 -4074 -43 0
-4361 4076 0
-4361 48 0
4361 -4076 -48 0
-4362 4078 0
-4362 43 0
4362 -4078 -43 0
-4363 4080 0
-4363 48 0
4363 -4080 -48 0
-4364 4082 0
-4364 91 0
4364 -4082 -91 0
-4365 4084 0
-4365 91 0
4365 -4084 -91 0
-4366 4086 0
-4366 139 0
4366 -4086 -139 0
-4367 4088 0
-4367 139 0
4367 -4088 -139 0
-4368 4090 0
-4368 187 0
4368 -4090 -187 0
-4369 4092 0
-4369 192 0
4369 -4092 -192 0
-4370 4360 4361 0
-4370 -4360 -4361 0
4370 -4360 4361 0
4370 4360 -4361 0
-4371 4370 4361 0
-4371 -4370 -4361 0
4371 -4370 4361 0
4371 4370 -4361 0
-4372 4371 4362 0
-4372 -4371 -4362 0
4372 -4371 4362 0
4372 4371 -4362 0
-4373 4372 4363 0
-4373 -4372 -4363 0
4373 -4372 4363 0
4373 4372 -4363 0
-4374 4373 4363 0
-4374 -4373 -4363 0
4374 -4373 4363 0
4374 4373 -4363 0
-4375 4374 4364 0
-4375 -4374 -4364 0
4375 -4374 4364 0
4375 4374 -4364 0
-4376 4375 4364 0
-4376 -4375 -4364 0
4376 -4375 4364 0
4376 4375 -4364 0
-4377 4376 4365 0
-4377 -4376 -4365 0
4377 -4376 4365 0
4377 4376 -4365 0
-4378 4377 4365 0
-4378 -4377 -4365 0
4378 -4377 4365 0
4378 4377 -4365 0
-4379 4378 4366 0
-4379 -4378 -4366 0
4379 -4378 4366 0
4379 4378 -4366 0
-4380 4379 4366 0
-4380 -4379 -4366 0
4380 -4379 4366 0
4380 4379 -4366 0
-4381 4380 4367 0
-4381 -4380 -4367 0
4381 -4380 4367 0
4381 4380 -4367 0
-4382 4381 4367 0
-4382 -4381 -4367 0
4382 -4381 4367 0
4382 4381 -4367 0
-4383 4382 4368 0
-4383 -4382 -4368 0
4383 -4382 4368 0
4383 4382 -4368 0
-4384 4383 4369 0
-4384 -4383 -4369 0
4384 -4383 4369 0
4384 4383 -4369 0
-4385 4384 4369 0
-4385 -4384 -4369 0
4385 -4384 4369 0
4385 4384 -4369 0
-4385 0
-4386 4 0
-4386 18 0
4386 -4 -18 0
-4387 4386 0
-4387 33 0
4387 -4386 -33 0
-4388 4 0
-4388 22 0
4388 -4 -22 0
-4389 4388 0
-4389 33 0
4389 -4388 -33 0
-4390 4 0
-4390 23 0
4390 -4 -23 0
-4391 4390 0
-4391 33 0
4391 -4390 -33 0
-4392 29 0
-4392 5 0
4392 -29 -5 0
-4393 4392 0
-4393 33 0
4393 -4392 -33 0
-4394 29 0
-4394 6 0
4394 -29 -6 0
-4395 4394 0
-4395 33 0
4395 -4394 -33 0
-4396 29 0
-4396 10 0
4396 -29 -10 0
-4397 4396 0
-4397 33 0
4397 -4396 -33 0
-4398 52 0
-4398 66 0
4398 -52 -66 0
-4399 4398 0
-4399 81 0
4399 -4398 -81 0
-4400 52 0
-4400 68 0
4400 -52 -68 0
-4401 4400 0
-4401 81 0
4401 -4400 -81 0
-4402 77 0
-4402 53 0
4402 -77 -53 0
-4403 4402 0
-4403 81 0
4403 -4402 -81 0
-4404 77 0
-4404 61 0
4404 -77 -61 0
-4405 4404 0
-4405 81 0
4405 -4404 -81 0
-4406 100 0
-4406 114 0
4406 -100 -114 0
-4407 4406 0
-4407 129 0
4407 -4406 -129 0
-4408 100 0
-4408 116 0
4408 -100 -116 0
-4409 4408 0
-4409 129 0
4409 -4408 -129 0
-4410 125 0
-4410 101 0
4410 -125 -101 0
-4411 4410 0
-4411 129 0
4411 -4410 -129 0
-4412 125 0
-4412 109 0
4412 -125 -109 0
-4413 4412 0
-4413 129 0
4413 -4412 -129 0
-4414 148 0
-4414 162 0
4414 -148 -162 0
-4415 4414 0
-4415 177 0
4415 -4414 -177 0
-4416 148 0
-4416 166 0
4416 -148 -166 0
-4417 4416 0
-4417 177 0
4417 -4416 -177 0
-4418 148 0
-4418 167 0
4418 -148 -167 0
-4419 4418 0
-4419 177 0
4419 -4418 -177 0
-4420 4387 4389 0
-4420 -4387 -4389 0
4420 -4387 4389 0
4420 4387 -4389 0
-4421 4420 4391 0
-4421 -4420 -4391 0
4421 -4420 4391 0
4421 4420 -4391 0
-4422 4421 4393 0
-4422 -4421 -4393 0
4422 -4421 4393 0
4422 4421 -4393 0
-4423 4422 4395 0
-4423 -4422 -4395 0
4423 -4422 4395 0
4423 4422 -4395 0
-4424 4423 4397 0
-4424 -4423 -4397 0
4424 -4423 4397 0
4424 4423 -4397 0
-4425 4424 4399 0
-4425 -4424 -4399 0
4425 -4424 4399 0
4425 4424 -4399 0
-4426 4425 4401 0
-4426 -4425 -4401 0
4426 -4425 4401 0
4426 4425 -4401 0
-4427 4426 4403 0
-4427 -4426 -4403 0
4427 -4426 4403 0
4427 4426 -4403 0
-4428 4427 4405 0
-4428 -4427 -4405 0
4428 -4427 4405 0
4428 4427 -4405 0
-4429 4428 4407 0
-4429 -4428 -4407 0
4429 -4428 4407 0
4429 4428 -4407 0
-4430 4429 4409 0
-4430 -4429 -4409 0
4430 -4429 4409 0
4430 4429 -4409 0
-4431 4430 4411 0
-4431 -4430 -4411 0
4431 -4430 4411 0
4431 4430 -4411 0
-4432 4431 4413 0
-4432 -4431 -4413 0
4432 -4431 4413 0
4432 4431 -4413 0
-4433 4432 4415 0
-4433 -4432 -4415 0
4433 -4432 4415 0
4433 4432 -4415 0
-4434 4433 4417 0
-4434 -4433 -4417 0
4434 -4433 4417 0
4434 4433 -4417 0
-4435 4434 4419 0
-4435 -4434 -4419 0
4435 -4434 4419 0
4435 4434 -4419 0
-4435 0
-4436 4386 0
-4436 34 0
4436 -4386 -34 0
-4437 4388 0
-4437 34 0
4437 -4388 -34 0
-4438 4390 0
-4438 35 0
4438 -4390 -35 0
-4439 4392 0
-4439 37 0
4439 -4392 -37 0
-4440 4394 0
-4440 37 0
4440 -4394 -37 0
-4441 4396 0
-4441 41 0
4441 -4396 -41 0
-4442 4398 0
-4442 82 0
4442 -4398 -82 0
-4443 4400 0
-4443 84 0
4443 -4400 -84 0
-4444 4402 0
-4444 85 0
4444 -4402 -85 0
-4445 4404 0
-4445 93 0
4445 -4404 -93 0
-4446 4406 0
-4446 130 0
4446 -4406 -130 0
-4447 4408 0
-4447 132 0
4447 -4408 -132 0
-4448 4410 0
-4448 133 0
4448 -4410 -133 0
-4449 4412 0
-4449 141 0
4449 -4412 -141 0
-4450 4414 0
-4450 178 0
4450 -4414 -178 0
-4451 4416 0
-4451 178 0
4451 -4416 -178 0
-4452 4418 0
-4452 179 0
4452 -4418 -179 0
-4453 4436 4437 0
-4453 -4436 -4437 0
4453 -4436 4437 0
4453 4436 -4437 0
-4454 4453 4438 0
-4454 -4453 -4438 0
4454 -4453 4438 0
4454 4453 -4438 0
-4455 4454 4439 0
-4455 -4454 -4439 0
4455 -4454 4439 0
4455 4454 -4439 0
-4456 4455 4440 0
-4456 -4455 -4440 0
4456 -4455 4440 0
4456 4455 -4440 0
-4457 4456 4441 0
-4457 -4456 -4441 0
4457 -4456 4441 0
4457 4456 -4441 0
-4458 4457 4442 0
-4458 -4457 -4442 0
4458 -4457 4442 0
4458 4457 -4442 0
-4459 4458 4443 0
-4459 -4458 -4443 0
4459 -4458 4443 0
4459 4458 -4443 0
-4460 4459 4444 0
-4460 -4459 -4444 0
4460 -4459 4444 0
4460 4459 -4444 0
-4461 4460 4445 0
-4461 -4460 -4445 0
4461 -4460 4445 0
4461 4460 -4445 0
-4462 4461 4446 0
-4462 -4461 -4446 0
4462 -4461 4446 0
4462 4461 -4446 0
-4463 4462 4447 0
-4463 -4462 -4447 0
4463 -4462 4447 0
4463 4462 -4447 0
-4464 4463 4448 0
-4464 -4463 -4448 0
4464 -4463 4448 0
4464 4463 -4448 0
-4465 4464 4449 0
-4465 -4464 -4449 0
4465 -4464 4449 0
4465 4464 -4449 0
-4466 4465 4450 0
-4466 -4465 -4450 0
4466 -4465 4450 0
4466 4465 -4450 0
-4467 4466 4451 0
-4467 -4466 -4451 0
4467 -4466 4451 0
4467 4466 -4451 0
-4468 4467 4452 0
-4468 -4467 -4452 0
4468 -4467 4452 0
4468 4467 -4452 0
-4468 0
-4469 4386 0
-4469 35 0
4469 -4386 -35 0
-4470 4388 0
-4470 36 0
4470 -4388 -36 0
-4471 4390 0
-4471 36 0
4471 -4390 -36 0
-4472 4392 0
-4472 41 0
4472 -4392 -41 0
-4473 4394 0
-4473 45 0
4473 -4394 -45 0
-4474 4396 0
-4474 45 0
4474 -4396 -45 0
-4475 4398 0
-4475 83 0
4475 -4398 -83 0
-4476 4400 0
-4476 83 0
4476 -4400 -83 0
-4477 4402 0
-4477 89 0
4477 -4402 -89 0
-4478 4404 0
-4478 89 0
4478 -4404 -89 0
-4479 4406 0
-4479 131 0
4479 -4406 -131 0
-4480 4408 0
-4480 131 0
4480 -4408 -131 0
-4481 4410 0
-4481 137 0
4481 -4410 -137 0
-4482 4412 0
-4482 137 0
4482 -4412 -137 0
-4483 4414 0
-4483 179 0
4483 -4414 -179 0
-4484 4416 0
-4484 180 0
4484 -4416 -180 0
-4485 4418 0
-4485 180 0
4485 -4418 -180 0
-4486 4469 4470 0
-4486 -4469 -4470 0
4486 -4469 4470 0
4486 4469 -4470 0
-4487 4486 4471 0
-4487 -4486 -4471 0
4487 -4486 4471 0
4487 4486 -4471 0
-4488 4487 4472 0
-4488 -4487 -4472 0
4488 -4487 4472 0
4488 4487 -4472 0
-4489 4488 4473 0
-4489 -4488 -4473 0
4489 -4488 4473 0
4489 4488 -4473 0
-4490 4489 4474 0
-4490 -4489 -4474 0
4490 -4489 4474 0
4490 4489 -4474 0
-4491 4490 4475 0
-4491 -4490 -4475 0
4491 -4490 4475 0
4491 4490 -4475 0
-4492 4491 4476 0
-4492 -4491 -4476 0
4492 -4491 4476 0
4492 4491 -4476 0
-4493 4492 4477 0
-4493 -4492 -4477 0
4493 -4492 4477 0
4493 4492 -4477 0
-4494 4493 4478 0
-4494 -4493 -4478 0
4494 -4493 4478 0
4494 4493 -4478 0
-4495 4494 4479 0
-4495 -4494 -4479 0
4495 -4494 4479 0
4495 4494 -4479 0
-4496 4495 4480 0
-4496 -4495 -4480 0
4496 -4495 4480 0
4496 4495 -4480 0
-4497 4496 4481 0
-4497 -4496 -4481 0
4497 -4496 4481 0
4497 4496 -4481 0
-4498 4497 4482 0
-4498 -4497 -4482 0
4498 -4497 4482 0
4498 4497 -4482 0
-4499 4498 4483 0
-4499 -4498 -4483 0
4499 -4498 4483 0
4499 4498 -4483 0
-4500 4499 4484 0
-4500 -4499 -4484 0
4500 -4499 4484 0
4500 4499 -4484 0
-4501 4500 4485 0
-4501 -4500 -4485 0
4501 -4500 4485 0
4501 4500 -4485 0
-4501 0
-4502 4386 0
-4502 36 0
4502 -4386 -36 0
-4503 4388 0
-4503 35 0
4503 -4388 -35 0
-4504 4390 0
-4504 34 0
4504 -4390 -34 0
-4505 4392 0
-4505 45 0
4505 -4392 -45 0
-4506 4394 0
-4506 41 0
4506 -4394 -41 0
-4507 4396 0
-4507 37 0
4507 -4396 -37 0
-4508 4398 0
-4508 84 0
4508 -4398 -84 0
-4509 4400 0
-4509 82 0
4509 -4400 -82 0
-4510 4402 0
-4510 93 0
4510 -4402 -93 0
-4511 4404 0
-4511 85 0
4511 -4404 -85 0
-4512 4406 0
-4512 132 0
4512 -4406 -132 0
-4513 4408 0
-4513 130 0
4513 -4408 -130 0
-4514 4410 0
-4514 141 0
4514 -4410 -141 0
-4515 4412 0
-4515 133 0
4515 -4412 -133 0
-4516 4414 0
-4516 180 0
4516 -4414 -180 0
-4517 4416 0
-4517 179 0
4517 -4416 -179 0
-4518 4418 0
-4518 178 0
4518 -4418 -178 0
-4519 4502 4503 0
-4519 -4502 -4503 0
4519 -4502 4503 0
4519 4502 -4503 0
-4520 4519 4504 0
-4520 -4519 -4504 0
4520 -4519 4504 0
4520 4519 -4504 0
-4521 4520 4505 0
-4521 -4520 -4505 0
4521 -4520 4505 0
4521 4520 -4505 0
-4522 4521 4506 0
-4522 -4521 -4506 0
4522 -4521 4506 0
4522 4521 -4506 0
-4523 4522 4507 0
-4523 -4522 -4507 0
4523 -4522 4507 0
4523 4522 -4507 0
-4524 4523 4508 0
-4524 -4523 -4508 0
4524 -4523 4508 0
4524 4523 -4508 0
-4525 4524 4509 0
-4525 -4524 -4509 0
4525 -4524 4509 0
4525 4524 -4509 0
-4526 4525 4510 0
-4526 -4525 -4510 0
4526 -4525 4510 0
4526 4525 -4510 0
-4527 4526 4511 0
-4527 -4526 -4511 0
4527 -4526 4511 0
4527 4526 -4511 0
-4528 4527 4512 0
-4528 -4527 -4512 0
4528 -4527 4512 0
4528 4527 -4512 0
-4529 4528 4513 0
-4529 -4528 -4513 0
4529 -4528 4513 0
4529 4528 -4513 0
-4530 4529 4514 0
-4530 -4529 -4514 0
4530 -4529 4514 0
4530 4529 -4514 0
-4531 4530 4515 0
-4531 -4530 -4515 0
4531 -4530 4515 0
4531 4530 -4515 0
-4532 4531 4516 0
-4532 -4531 -4516 0
4532 -4531 4516 0
4532 4531 -4516 0
-4533 4532 4517 0
-4533 -4532 -4517 0
4533 -4532 4517 0
4533 4532 -4517 0
-4534 4533 4518 0
-4534 -4533 -4518 0
4534 -4533 4518 0
4534 4533 -4518 0
-4534 0
-4535 4386 0
-4535 37 0
4535 -4386 -37 0
-4536 4388 0
-4536 37 0
4536 -4388 -37 0
-4537 4390 0
-4537 41 0
4537 -4390 -41 0
-4538 4392 0
-4538 34 0
4538 -4392 -34 0
-4539 4394 0
-4539 34 0
4539 -4394 -34 0
-4540 4396 0
-4540 35 0
4540 -4396 -35 0
-4541 4398 0
-4541 85 0
4541 -4398 -85 0
-4542 4400 0
-4542 93 0
4542 -4400 -93 0
-4543 4402 0
-4543 82 0
4543 -4402 -82 0
-4544 4404 0
-4544 84 0
4544 -4404 -84 0
-4545 4406 0
-4545 133 0
4545 -4406 -133 0
-4546 4408 0
-4546 141 0
4546 -4408 -141 0
-4547 4410 0
-4547 130 0
4547 -4410 -130 0
-4548 4412 0
-4548 132 0
4548 -4412 -132 0
-4549 4414 0
-4549 181 0
4549 -4414 -181 0
-4550 4416 0
-4550 181 0
4550 -4416 -181 0
-4551 4418 0
-4551 185 0
4551 -4418 -185 0
-4552 4535 4536 0
-4552 -4535 -4536 0
4552 -4535 4536 0
4552 4535 -4536 0
-4553 4552 4537 0
-4553 -4552 -4537 0
4553 -4552 4537 0
4553 4552 -4537 0
-4554 4553 4538 0
-4554 -4553 -4538 0
4554 -4553 4538 0
4554 4553 -4538 0
-4555 4554 4539 0
-4555 -4554 -4539 0
4555 -4554 4539 0
4555 4554 -4539 0
-4556 4555 4540 0
-4556 -4555 -4540 0
4556 -4555 4540 0
4556 4555 -4540 0
-4557 4556 4541 0
-4557 -4556 -4541 0
4557 -4556 4541 0
4557 4556 -4541 0
-4558 4557 4542 0
-4558 -4557 -4542 0
4558 -4557 4542 0
4558 4557 -4542 0
-4559 4558 4543 0
-4559 -4558 -4543 0
4559 -4558 4543 0
4559 4558 -4543 0
-4560 4559 4544 0
-4560 -4559 -4544 0
4560 -4559 4544 0
4560 4559 -4544 0
-4561 4560 4545 0
-4561 -4560 -4545 0
4561 -4560 4545 0
4561 4560 -4545 0
-4562 4561 4546 0
-4562 -4561 -4546 0
4562 -4561 4546 0
4562 4561 -4546 0
-4563 4562 4547 0
-4563 -4562 -4547 0
4563 -4562 4547 0
4563 4562 -4547 0
-4564 4563 4548 0
-4564 -4563 -4548 0
4564 -4563 4548 0
4564 4563 -4548 0
-4565 4564 4549 0
-4565 -4564 -4549 0
4565 -4564 4549 0
4565 4564 -4549 0
-4566 4565 4550 0
-4566 -4565 -4550 0
4566 -4565 4550 0
4566 4565 -4550 0
-4567 4566 4551 0
-4567 -4566 -4551 0
4567 -4566 4551 0
4567 4566 -4551 0
4567 0
-4568 4386 0
-4568 38 0
4568 -4386 -38 0
-4569 4388 0
-4569 38 0
4569 -4388 -38 0
-4570 4390 0
-4570 43 0
4570 -4390 -43 0
-4571 4392 0
-4571 38 0
4571 -4392 -38 0
-4572 4394 0
-4572 38 0
4572 -4394 -38 0
-4573 4396 0
-4573 43 0
4573 -4396 -43 0
-4574 4398 0
-4574 86 0
4574 -4398 -86 0
-4575 4400 0
-4575 96 0
4575 -4400 -96 0
-4576 4402 0
-4576 86 0
4576 -4402 -86 0
-4577 4404 0
-4577 96 0
4577 -4404 -96 0
-4578 4406 0
-4578 134 0
4578 -4406 -134 0
-4579 4408 0
-4579 144 0
4579 -4408 -144 0
-4580 4410 0
-4580 134 0
4580 -4410 -134 0
-4581 4412 0
-4581 144 0
4581 -4412 -144 0
-4582 4414 0
-4582 182 0
4582 -4414 -182 0
-4583 4416 0
-4583 182 0
4583 -4416 -182 0
-4584 4418 0
-4584 187 0
4584 -4418 -187 0
-4585 4568 4569 0
-4585 -4568 -4569 0
4585 -4568 4569 0
4585 4568 -4569 0
-4586 4585 4570 0
-4586 -4585 -4570 0
4586 -4585 4570 0
4586 4585 -4570 0
-4587 4586 4571 0
-4587 -4586 -4571 0
4587 -4586 4571 0
4587 4586 -4571 0
-4588 4587 4572 0
-4588 -4587 -4572 0
4588 -4587 4572 0
4588 4587 -4572 0
-4589 4588 4573 0
-4589 -4588 -4573 0
4589 -4588 4573 0
4589 4588 -4573 0
-4590 4589 4574 0
-4590 -4589 -4574 0
4590 -4589 4574 0
4590 4589 -4574 0
-4591 4590 4575 0
-4591 -4590 -4575 0
4591 -4590 4575 0
4591 4590 -4575 0
-4592 4591 4576 0
-4592 -4591 -4576 0
4592 -4591 4576 0
4592 4591 -4576 0
-4593 4592 4577 0
-4593 -4592 -4577 0
4593 -4592 4577 0
4593 4592 -4577 0
-4594 4593 4578 0
-4594 -4593 -4578 0
4594 -4593 4578 0
4594 4593 -4578 0
-4595 4594 4579 0
-4595 -4594 -4579 0
4595 -4594 4579 0
4595 4594 -4579 0
-4596 4595 4580 0
-4596 -4595 -4580 0
4596 -4595 4580 0
4596 4595 -4580 0
-4597 4596 4581 0
-4597 -4596 -4581 0
4597 -4596 4581 0
4597 4596 -4581 0
-4598 4597 4582 0
-4598 -4597 -4582 0
4598 -4597 4582 0
4598 4597 -4582 0
-4599 4598 4583 0
-4599 -4598 -4583 0
4599 -4598 4583 0
4599 4598 -4583 0
-4600 4599 4584 0
-4600 -4599 -4584 0
4600 -4599 4584 0
4600 4599 -4584 0
-4600 0
-4601 4386 0
-4601 39 0
4601 -4386 -39 0
-4602 4388 0
-4602 40 0
4602 -4388 -40 0
-4603 4390 0
-4603 44 0
4603 -4390 -44 0
-4604 4392 0
-4604 42 0
4604 -4392 -42 0
-4605 4394 0
-4605 46 0
4605 -4394 -46 0
-4606 4396 0
-4606 47 0
4606 -4396 -47 0
-4607 4398 0
-4607 87 0
4607 -4398 -87 0
-4608 4400 0
-4608 95 0
4608 -4400 -95 0
-4609 4402 0
-4609 90 0
4609 -4402 -90 0
-4610 4404 0
-4610 92 0
4610 -4404 -92 0
-4611 4406 0
-4611 135 0
4611 -4406 -135 0
-4612 4408 0
-4612 143 0
4612 -4408 -143 0
-4613 4410 0
-4613 138 0
4613 -4410 -138 0
-4614 4412 0
-4614 140 0
4614 -4412 -140 0
-4615 4414 0
-4615 183 0
4615 -4414 -183 0
-4616 4416 0
-4616 184 0
4616 -4416 -184 0
-4617 4418 0
-4617 188 0
4617 -4418 -188 0
-4618 4601 4602 0
-4618 -4601 -4602 0
4618 -4601 4602 0
4618 4601 -4602 0
-4619 4618 4603 0
-4619 -4618 -4603 0
4619 -4618 4603 0
4619 4618 -4603 0
-4620 4619 4604 0
-4620 -4619 -4604 0
4620 -4619 4604 0
4620 4619 -4604 0
-4621 4620 4605 0
-4621 -4620 -4605 0
4621 -4620 4605 0
4621 4620 -4605 0
-4622 4621 4606 0
-4622 -4621 -4606 0
4622 -4621 4606 0
4622 4621 -4606 0
-4623 4622 4607 0
-4623 -4622 -4607 0
4623 -4622 4607 0
4623 4622 -4607 0
-4624 4623 4608 0
-4624 -4623 -4608 0
4624 -4623 4608 0
4624 4623 -4608 0
-4625 4624 4609 0
-4625 -4624 -4609 0
4625 -4624 4609 0
4625 4624 -4609 0
-4626 4625 4610 0
-4626 -4625 -4610 0
4626 -4625 4610 0
4626 4625 -4610 0
-4627 4626 4611 0
-4627 -4626 -4611 0
4627 -4626 4611 0
4627 4626 -4611 0
-4628 4627 4612 0
-4628 -4627 -4612 0
4628 -4627 4612 0
4628 4627 -4612 0
-4629 4628 4613 0
-4629 -4628 -4613 0
4629 -4628 4613 0
4629 4628 -4613 0
-4630 4629 4614 0
-4630 -4629 -4614 0
4630 -4629 4614 0
4630 4629 -4614 0
-4631 4630 4615 0
-4631 -4630 -4615 0
4631 -4630 4615 0
4631 4630 -4615 0
-4632 4631 4616 0
-4632 -4631 -4616 0
4632 -4631 4616 0
4632 4631 -4616 0
-4633 4632 4617 0
-4633 -4632 -4617 0
4633 -4632 4617 0
4633 4632 -4617 0
4633 0
-4634 4386 0
-4634 40 0
4634 -4386 -40 0
-4635 4388 0
-4635 39 0
4635 -4388 -39 0
-4636 4390 0
-4636 42 0
4636 -4390 -42 0
-4637 4392 0
-4637 46 0
4637 -4392 -46 0
-4638 4394 0
-4638 42 0
4638 -4394 -42 0
-4639 4396 0
-4639 39 0
4639 -4396 -39 0
-4640 4398 0
-4640 88 0
4640 -4398 -88 0
-4641 4400 0
-4641 94 0
4641 -4400 -94 0
-4642 4402 0
-4642 94 0
4642 -4402 -94 0
-4643 4404 0
-4643 88 0
4643 -4404 -88 0
-4644 4406 0
-4644 136 0
4644 -4406 -136 0
-4645 4408 0
-4645 142 0
4645 -4408 -142 0
-4646 4410 0
-4646 142 0
4646 -4410 -142 0
-4647 4412 0
-4647 136 0
4647 -4412 -136 0
-4648 4414 0
-4648 184 0
4648 -4414 -184 0
-4649 4416 0
-4649 183 0
4649 -4416 -183 0
-4650 4418 0
-4650 186 0
4650 -4418 -186 0
-4651 4634 4635 0
-4651 -4634 -4635 0
4651 -4634 4635 0
4651 4634 -4635 0
-4652 4651 4636 0
-4652 -4651 -4636 0
4652 -4651 4636 0
4652 4651 -4636 0
-4653 4652 4637 0
-4653 -4652 -4637 0
4653 -4652 4637 0
4653 4652 -4637 0
-4654 4653 4638 0
-4654 -4653 -4638 0
4654 -4653 4638 0
4654 4653 -4638 0
-4655 4654 4639 0
-4655 -4654 -4639 0
4655 -4654 4639 0
4655 4654 -4639 0
-4656 4655 4640 0
-4656 -4655 -4640 0
4656 -4655 4640 0
4656 4655 -4640 0
-4657 4656 4641 0
-4657 -4656 -4641 0
4657 -4656 4641 0
4657 4656 -4641 0
-4658 4657 4642 0
-4658 -4657 -4642 0
4658 -4657 4642 0
4658 4657 -4642 0
-4659 4658 4643 0
-4659 -4658 -4643 0
4659 -4658 4643 0
4659 4658 -4643 0
-4660 4659 4644 0
-4660 -4659 -4644 0
4660 -4659 4644 0
4660 4659 -4644 0
-4661 4660 4645 0
-4661 -4660 -4645 0
4661 -4660 4645 0
4661 4660 -4645 0
-4662 4661 4646 0
-4662 -4661 -4646 0
4662 -4661 4646 0
4662 4661 -4646 0
-4663 4662 4647 0
-4663 -4662 -4647 0
4663 -4662 4647 0
4663 4662 -4647 0
-4664 4663 4648 0
-4664 -4663 -4648 0
4664 -4663 4648 0
4664 4663 -4648 0
-4665 4664 4649 0
-4665 -4664 -4649 0
4665 -4664 4649 0
4665 4664 -4649 0
-4666 4665 4650 0
-4666 -4665 -4650 0
4666 -4665 4650 0
4666 4665 -4650 0
-4666 0
-4667 4386 0
-4667 41 0
4667 -4386 -41 0
-4668 4388 0
-4668 45 0
4668 -4388 -45 0
-4669 4390 0
-4669 45 0
4669 -4390 -45 0
-4670 4392 0
-4670 35 0
4670 -4392 -35 0
-4671 4394 0
-4671 36 0
4671 -4394 -36 0
-4672 4396 0
-4672 36 0
4672 -4396 -36 0
-4673 4398 0
-4673 89 0
4673 -4398 -89 0
-4674 4400 0
-4674 89 0
4674 -4400 -89 0
-4675 4402 0
-4675 83 0
4675 -4402 -83 0
-4676 4404 0
-4676 83 0
4676 -4404 -83 0
-4677 4406 0
-4677 137 0
4677 -4406 -137 0
-4678 4408 0
-4678 137 0
4678 -4408 -137 0
-4679 4410 0
-4679 131 0
4679 -4410 -131 0
-4680 4412 0
-4680 131 0
4680 -4412 -131 0
-4681 4414 0
-4681 185 0
4681 -4414 -185 0
-4682 4416 0
-4682 189 0
4682 -4416 -189 0
-4683 4418 0
-4683 189 0
4683 -4418 -189 0
-4684 4667 4668 0
-4684 -4667 -4668 0
4684 -4667 4668 0
4684 4667 -4668 0
-4685 4684 4669 0
-4685 -4684 -4669 0
4685 -4684 4669 0
4685 4684 -4669 0
-4686 4685 4670 0
-4686 -4685 -4670 0
4686 -4685 4670 0
4686 4685 -4670 0
-4687 4686 4671 0
-4687 -4686 -4671 0
4687 -4686 4671 0
4687 4686 -4671 0
-4688 4687 4672 0
-4688 -4687 -4672 0
4688 -4687 4672 0
4688 4687 -4672 0
-4689 4688 4673 0
-4689 -4688 -4673 0
4689 -4688 4673 0
4689 4688 -4673 0
-4690 4689 4674 0
-4690 -4689 -4674 0
4690 -4689 4674 0
4690 4689 -4674 0
-4691 4690 4675 0
-4691 -4690 -4675 0
4691 -4690 4675 0
4691 4690 -4675 0
-4692 4691 4676 0
-4692 -4691 -4676 0
4692 -4691 4676 0
4692 4691 -4676 0
-4693 4692 4677 0
-4693 -4692 -4677 0
4693 -4692 4677 0
4693 4692 -4677 0
-4694 4693 4678 0
-4694 -4693 -4678 0
4694 -4693 4678 0
4694 4693 -4678 0
-4695 4694 4679 0
-4695 -4694 -4679 0
4695 -4694 4679 0
4695 4694 -4679 0
-4696 4695 4680 0
-4696 -4695 -4680 0
4696 -4695 4680 0
4696 4695 -4680 0
-4697 4696 4681 0
-4697 -4696 -4681 0
4697 -4696 4681 0
4697 4696 -4681 0
-4698 4697 4682 0
-4698 -4697 -4682 0
4698 -4697 4682 0
4698 4697 -4682 0
-4699 4698 4683 0
-4699 -4698 -4683 0
4699 -4698 4683 0
4699 4698 -4683 0
-4699 0
-4700 4386 0
-4700 42 0
4700 -4386 -42 0
-4701 4388 0
-4701 46 0
4701 -4388 -46 0
-4702 4390 0
-4702 47 0
4702 -4390 -47 0
-4703 4392 0
-4703 39 0
4703 -4392 -39 0
-4704 4394 0
-4704 40 0
4704 -4394 -40 0
-4705 4396 0
-4705 44 0
4705 -4396 -44 0
-4706 4398 0
-4706 90 0
4706 -4398 -90 0
-4707 4400 0
-4707 92 0
4707 -4400 -92 0
-4708 4402 0
-4708 87 0
4708 -4402 -87 0
-4709 4404 0
-4709 95 0
4709 -4404 -95 0
-4710 4406 0
-4710 138 0
4710 -4406 -138 0
-4711 4408 0
-4711 140 0
4711 -4408 -140 0
-4712 4410 0
-4712 135 0
4712 -4410 -135 0
-4713 4412 0
-4713 143 0
4713 -4412 -143 0
-4714 4414 0
-4714 186 0
4714 -4414 -186 0
-4715 4416 0
-4715 190 0
4715 -4416 -190 0
-4716 4418 0
-4716 191 0
4716 -4418 -191 0
-4717 4700 4701 0
-4717 -4700 -4701 0
4717 -4700 4701 0
4717 4700 -4701 0
-4718 4717 4702 0
-4718 -4717 -4702 0
4718 -4717 4702 0
4718 4717 -4702 0
-4719 4718 4703 0
-4719 -4718 -4703 0
4719 -4718 4703 0
4719 4718 -4703 0
-4720 4719 4704 0
-4720 -4719 -4704 0
4720 -4719 4704 0
4720 4719 -4704 0
-4721 4720 4705 0
-4721 -4720 -4705 0
4721 -4720 4705 0
4721 4720 -4705 0
-4722 4721 4706 0
-4722 -4721 -4706 0
4722 -4721 4706 0
4722 4721 -4706 0
-4723 4722 4707 0
-4723 -4722 -4707 0
4723 -4722 4707 0
4723 4722 -4707 0
-4724 4723 4708 0
-4724 -4723 -4708 0
4724 -4723 4708 0
4724 4723 -4708 0
-4725 4724 4709 0
-4725 -4724 -4709 0
4725 -4724 4709 0
4725 4724 -4709 0
-4726 4725 4710 0
-4726 -4725 -4710 0
4726 -4725 4710 0
4726 4725 -4710 0
-4727 4726 4711 0
-4727 -4726 -4711 0
4727 -4726 4711 0
4727 4726 -4711 0
-4728 4727 4712 0
-4728 -4727 -4712 0
4728 -4727 4712 0
4728 4727 -4712 0
-4729 4728 4713 0
-4729 -4728 -4713 0
4729 -4728 4713 0
4729 4728 -4713 0
-4730 4729 4714 0
-4730 -4729 -4714 0
4730 -4729 4714 0
4730 4729 -4714 0
-4731 4730 4715 0
-4731 -4730 -4715 0
4731 -4730 4715 0
4731 4730 -4715 0
-4732 4731 4716 0
-4732 -4731 -4716 0
4732 -4731 4716 0
4732 4731 -4716 0
-4732 0
-4733 4386 0
-4733 43 0
4733 -4386 -43 0
-4734 4388 0
-4734 48 0
4734 -4388 -48 0
-4735 4390 0
-4735 48 0
4735 -4390 -48 0
-4736 4392 0
-4736 43 0
4736 -4392 -43 0
-4737 4394 0
-4737 48 0
4737 -4394 -48 0
-4738 4396 0
-4738 48 0
4738 -4396 -48 0
-4739 4398 0
-4739 91 0
4739 -4398 -91 0
-4740 4400 0
-4740 91 0
4740 -4400 -91 0
-4741 4402 0
-4741 91 0
4741 -4402 -91 0
-4742 4404 0
-4742 91 0
4742 -4404 -91 0
-4743 4406 0
-4743 139 0
4743 -4406 -139 0
-4744 4408 0
-4744 139 0
4744 -4408 -139 0
-4745 4410 0
-4745 139 0
4745 -4410 -139 0
-4746 4412 0
-4746 139 0
4746 -4412 -139 0
-4747 4414 0
-4747 187 0
4747 -4414 -187 0
-4748 4416 0
-4748 192 0
4748 -4416 -192 0
-4749 4418 0
-4749 192 0
4749 -4418 -192 0
-4750 4733 4734 0
-4750 -4733 -4734 0
4750 -4733 4734 0
4750 4733 -4734 0
-4751 4750 4735 0
-4751 -4750 -4735 0
4751 -4750 4735 0
4751 4750 -4735 0
-4752 4751 4736 0
-4752 -4751 -4736 0
4752 -4751 4736 0
4752 4751 -4736 0
-4753 4752 4737 0
-4753 -4752 -4737 0
4753 -4752 4737 0
4753 4752 -4737 0
-4754 4753 4738 0
-4754 -4753 -4738 0
4754 -4753 4738 0
4754 4753 -4738 0
-4755 4754 4739 0
-4755 -4754 -4739 0
4755 -4754 4739 0
4755 4754 -4739 0
-4756 4755 4740 0
-4756 -4755 -4740 0
4756 -4755 4740 0
4756 4755 -4740 0
-4757 4756 4741 0
-4757 -4756 -4741 0
4757 -4756 4741 0
4757 4756 -4741 0
-4758 4757 4742 0
-4758 -4757 -4742 0
4758 -4757 4742 0
4758 4757 -4742 0
-4759 4758 4743 0
-4759 -4758 -4743 0
4759 -4758 4743 0
4759 4758 -4743 0
-4760 4759 4744 0
-4760 -4759 -4744 0
4760 -4759 4744 0
4760 4759 -4744 0
-4761 4760 4745 0
-4761 -4760 -4745 0
4761 -4760 4745 0
4761 4760 -4745 0
-4762 4761 4746 0
-4762 -4761 -4746 0
4762 -4761 4746 0
4762 4761 -4746 0
-4763 4762 4747 0
-4763 -4762 -4747 0
4763 -4762 4747 0
4763 4762 -4747 0
-4764 4763 4748 0
-4764 -4763 -4748 0
4764 -4763 4748 0
4764 4763 -4748 0
-4765 4764 4749 0
-4765 -4764 -4749 0
4765 -4764 4749 0
4765 4764 -4749 0
4765 0
-4766 4386 0
-4766 44 0
4766 -4386 -44 0
-4767 4388 0
-4767 47 0
4767 -4388 -47 0
-4768 4390 0
-4768 46 0
4768 -4390 -46 0
-4769 4392 0
-4769 47 0
4769 -4392 -47 0
-4770 4394 0
-4770 44 0
4770 -4394 -44 0
-4771 4396 0
-4771 40 0
4771 -4396 -40 0
-4772 4398 0
-4772 92 0
4772 -4398 -92 0
-4773 4400 0
-4773 90 0
4773 -4400 -90 0
-4774 4402 0
-4774 95 0
4774 -4402 -95 0
-4775 4404 0
-4775 87 0
4775 -4404 -87 0
-4776 4406 0
-4776 140 0
4776 -4406 -140 0
-4777 4408 0
-4777 138 0
4777 -4408 -138 0
-4778 4410 0
-4778 143 0
4778 -4410 -143 0
-4779 4412 0
-4779 135 0
4779 -4412 -135 0
-4780 4414 0
-4780 188 0
4780 -4414 -188 0
-4781 4416 0
-4781 191 0
4781 -4416 -191 0
-4782 4418 0
-4782 190 0
4782 -4418 -190 0
-4783 4766 4767 0
-4783 -4766 -4767 0
4783 -4766 4767 0
4783 4766 -4767 0
-4784 4783 4768 0
-4784 -4783 -4768 0
4784 -4783 4768 0
4784 4783 -4768 0
-4785 4784 4769 0
-4785 -4784 -4769 0
4785 -4784 4769 0
4785 4784 -4769 0
-4786 4785 4770 0
-4786 -4785 -4770 0
4786 -4785 4770 0
4786 4785 -4770 0
-4787 4786 4771 0
-4787 -4786 -4771 0
4787 -4786 4771 0
4787 4786 -4771 0
-4788 4787 4772 0
-4788 -4787 -4772 0
4788 -4787 4772 0
4788 4787 -4772 0
-4789 4788 4773 0
-4789 -4788 -4773 0
4789 -4788 4773 0
4789 4788 -4773 0
-4790 4789 4774 0
-4790 -4789 -4774 0
4790 -4789 4774 0
4790 4789 -4774 0
-4791 4790 4775 0
-4791 -4790 -4775 0
4791 -4790 4775 0
4791 4790 -4775 0
-4792 4791 4776 0
-4792 -4791 -4776 0
4792 -4791 4776 0
4792 4791 -4776 0
-4793 4792 4777 0
-4793 -4792 -4777 0
4793 -4792 4777 0
4793 4792 -4777 0
-4794 4793 4778 0
-4794 -4793 -4778 0
4794 -4793 4778 0
4794 4793 -4778 0
-4795 4794 4779 0
-4795 -4794 -4779 0
4795 -4794 4779 0
4795 4794 -4779 0
-4796 4795 4780 0
-4796 -4795 -4780 0
4796 -4795 4780 0
4796 4795 -4780 0
-4797 4796 4781 0
-4797 -4796 -4781 0
4797 -4796 4781 0
4797 4796 -4781 0
-4798 4797 4782 0
-4798 -4797 -4782 0
4798 -4797 4782 0
4798 4797 -4782 0
-4798 0
-4799 4386 0
-4799 45 0
4799 -4386 -45 0
-4800 4388 0
-4800 41 0
4800 -4388 -41 0
-4801 4390 0
-4801 37 0
4801 -4390 -37 0
-4802 4392 0
-4802 36 0
4802 -4392 -36 0
-4803 4394 0
-4803 35 0
4803 -4394 -35 0
-4804 4396 0
-4804 34 0
4804 -4396 -34 0
-4805 4398 0
-4805 93 0
4805 -4398 -93 0
-4806 4400 0
-4806 85 0
4806 -4400 -85 0
-4807 4402 0
-4807 84 0
4807 -4402 -84 0
-4808 4404 0
-4808 82 0
4808 -4404 -82 0
-4809 4406 0
-4809 141 0
4809 -4406 -141 0
-4810 4408 0
-4810 133 0
4810 -4408 -133 0
-4811 4410 0
-4811 132 0
4811 -4410 -132 0
-4812 4412 0
-4812 130 0
4812 -4412 -130 0
-4813 4414 0
-4813 189 0
4813 -4414 -189 0
-4814 4416 0
-4814 185 0
4814 -4416 -185 0
-4815 4418 0
-4815 181 0
4815 -4418 -181 0
-4816 4799 4800 0
-4816 -4799 -4800 0
4816 -4799 4800 0
4816 4799 -4800 0
-4817 4816 4801 0
-4817 -4816 -4801 0
4817 -4816 4801 0
4817 4816 -4801 0
-4818 4817 4802 0
-4818 -4817 -4802 0
4818 -4817 4802 0
4818 4817 -4802 0
-4819 4818 4803 0
-4819 -4818 -4803 0
4819 -4818 4803 0
4819 4818 -4803 0
-4820 4819 4804 0
-4820 -4819 -4804 0
4820 -4819 4804 0
4820 4819 -4804 0
-4821 4820 4805 0
-4821 -4820 -4805 0
4821 -4820 4805 0
4821 4820 -4805 0
-4822 4821 4806 0
-4822 -4821 -4806 0
4822 -4821 4806 0
4822 4821 -4806 0
-4823 4822 4807 0
-4823 -4822 -4807 0
4823 -4822 4807 0
4823 4822 -4807 0
-4824 4823 4808 0
-4824 -4823 -4808 0
4824 -4823 4808 0
4824 4823 -4808 0
-4825 4824 4809 0
-4825 -4824 -4809 0
4825 -4824 4809 0
4825 4824 -4809 0
-4826 4825 4810 0
-4826 -4825 -4810 0
4826 -4825 4810 0
4826 4825 -4810 0
-4827 4826 4811 0
-4827 -4826 -4811 0
4827 -4826 4811 0
4827 4826 -4811 0
-4828 4827 4812 0
-4828 -4827 -4812 0
4828 -4827 4812 0
4828 4827 -4812 0
-4829 4828 4813 0
-4829 -4828 -4813 0
4829 -4828 4813 0
4829 4828 -4813 0
-4830 4829 4814 0
-4830 -4829 -4814 0
4830 -4829 4814 0
4830 4829 -4814 0
-4831 4830 4815 0
-4831 -4830 -4815 0
4831 -4830 4815 0
4831 4830 -4815 0
-4831 0
-4832 4386 0
-4832 46 0
4832 -4386 -46 0
-4833 4388 0
-4833 42 0
4833 -4388 -42 0
-4834 4390 0
-4834 39 0
4834 -4390 -39 0
-4835 4392 0
-4835 40 0
4835 -4392 -40 0
-4836 4394 0
-4836 39 0
4836 -4394 -39 0
-4837 4396 0
-4837 42 0
4837 -4396 -42 0
-4838 4398 0
-4838 94 0
4838 -4398 -94 0
-4839 4400 0
-4839 88 0
4839 -4400 -88 0
-4840 4402 0
-4840 88 0
4840 -4402 -88 0
-4841 4404 0
-4841 94 0
4841 -4404 -94 0
-4842 4406 0
-4842 142 0
4842 -4406 -142 0
-4843 4408 0
-4843 136 0
4843 -4408 -136 0
-4844 4410 0
-4844 136 0
4844 -4410 -136 0
-4845 4412 0
-4845 142 0
4845 -4412 -142 0
-4846 4414 0
-4846 190 0
4846 -4414 -190 0
-4847 4416 0
-4847 186 0
4847 -4416 -186 0
-4848 4418 0
-4848 183 0
4848 -4418 -183 0
-4849 4832 4833 0
-4849 -4832 -4833 0
4849 -4832 4833 0
4849 4832 -4833 0
-4850 4849 4834 0
-4850 -4849 -4834 0
4850 -4849 4834 0
4850 4849 -4834 0
-4851 4850 4835 0
-4851 -4850 -4835 0
4851 -4850 4835 0
4851 4850 -4835 0
-4852 4851 4836 0
-4852 -4851 -4836 0
4852 -4851 4836 0
4852 4851 -4836 0
-4853 4852 4837 0
-4853 -4852 -4837 0
4853 -4852 4837 0
4853 4852 -4837 0
-4854 4853 4838 0
-4854 -4853 -4838 0
4854 -4853 4838 0
4854 4853 -4838 0
-4855 4854 4839 0
-4855 -4854 -4839 0
4855 -4854 4839 0
4855 4854 -4839 0
-4856 4855 4840 0
-4856 -4855 -4840 0
4856 -4855 4840 0
4856 4855 -4840 0
-4857 4856 4841 0
-4857 -4856 -4841 0
4857 -4856 4841 0
4857 4856 -4841 0
-4858 4857 4842 0
-4858 -4857 -4842 0
4858 -4857 4842 0
4858 4857 -4842 0
-4859 4858 4843 0
-4859 -4858 -4843 0
4859 -4858 4843 0
4859 4858 -4843 0
-4860 4859 4844 0
-4860 -4859 -4844 0
4860 -4859 4844 0
4860 4859 -4844 0
-4861 4860 4845 0
-4861 -4860 -4845 0
4861 -4860 4845 0
4861 4860 -4845 0
-4862 4861 4846 0
-4862 -4861 -4846 0
4862 -4861 4846 0
4862 4861 -4846 0
-4863 4862 4847 0
-4863 -4862 -4847 0
4863 -4862 4847 0
4863 4862 -4847 0
-4864 4863 4848 0
-4864 -4863 -4848 0
4864 -4863 4848 0
4864 4863 -4848 0
-4864 0
-4865 4386 0
-4865 47 0
4865 -4386 -47 0
-4866 4388 0
-4866 44 0
4866 -4388 -44 0
-4867 4390 0
-4867 40 0
4867 -4390 -40 0
-4868 4392 0
-4868 44 0
4868 -4392 -44 0
-4869 4394 0
-4869 47 0
4869 -4394 -47 0
-4870 4396 0
-4870 46 0
4870 -4396 -46 0
-4871 4398 0
-4871 95 0
4871 -4398 -95 0
-4872 4400 0
-4872 87 0
4872 -4400 -87 0
-4873 4402 0
-4873 92 0
4873 -4402 -92 0
-4874 4404 0
-4874 90 0
4874 -4404 -90 0
-4875 4406 0
-4875 143 0
4875 -4406 -143 0
-4876 4408 0
-4876 135 0
4876 -4408 -135 0
-4877 4410 0
-4877 140 0
4877 -4410 -140 0
-4878 4412 0
-4878 138 0
4878 -4412 -138 0
-4879 4414 0
-4879 191 0
4879 -4414 -191 0
-4880 4416 0
-4880 188 0
4880 -4416 -188 0
-4881 4418 0
-4881 184 0
4881 -4418 -184 0
-4882 4865 4866 0
-4882 -4865 -4866 0
4882 -4865 4866 0
4882 4865 -4866 0
-4883 4882 4867 0
-4883 -4882 -4867 0
4883 -4882 4867 0
4883 4882 -4867 0
-4884 4883 4868 0
-4884 -4883 -4868 0
4884 -4883 4868 0
4884 4883 -4868 0
-4885 4884 4869 0
-4885 -4884 -4869 0
4885 -4884 4869 0
4885 4884 -4869 0
-4886 4885 4870 0
-4886 -4885 -4870 0
4886 -4885 4870 0
4886 4885 -4870 0
-4887 4886 4871 0
-4887 -4886 -4871 0
4887 -4886 4871 0
4887 4886 -4871 0
-4888 4887 4872 0
-4888 -4887 -4872 0
4888 -4887 4872 0
4888 4887 -4872 0
-4889 4888 4873 0
-4889 -4888 -4873 0
4889 -4888 4873 0
4889 4888 -4873 0
-4890 4889 4874 0
-4890 -4889 -4874 0
4890 -4889 4874 0
4890 4889 -4874 0
-4891 4890 4875 0
-4891 -4890 -4875 0
4891 -4890 4875 0
4891 4890 -4875 0
-4892 4891 4876 0
-4892 -4891 -4876 0
4892 -4891 4876 0
4892 4891 -4876 0
-4893 4892 4877 0
-4893 -4892 -4877 0
4893 -4892 4877 0
4893 4892 -4877 0
-4894 4893 4878 0
-4894 -4893 -4878 0
4894 -4893 4878 0
4894 4893 -4878 0
-4895 4894 4879 0
-4895 -4894 -4879 0
4895 -4894 4879 0
4895 4894 -4879 0
-4896 4895 4880 0
-4896 -4895 -4880 0
4896 -4895 4880 0
4896 4895 -4880 0
-4897 4896 4881 0
-4897 -4896 -4881 0
4897 -4896 4881 0
4897 4896 -4881 0
-4897 0
-4898 4386 0
-4898 48 0
4898 -4386 -48 0
-4899 4388 0
-4899 43 0
4899 -4388 -43 0
-4900 4390 0
-4900 38 0
4900 -4390 -38 0
-4901 4392 0
-4901 48 0
4901 -4392 -48 0
-4902 4394 0
-4902 43 0
4902 -4394 -43 0
-4903 4396 0
-4903 38 0
4903 -4396 -38 0
-4904 4398 0
-4904 96 0
4904 -4398 -96 0
-4905 4400 0
-4905 86 0
4905 -4400 -86 0
-4906 4402 0
-4906 96 0
4906 -4402 -96 0
-4907 4404 0
-4907 86 0
4907 -4404 -86 0
-4908 4406 0
-4908 144 0
4908 -4406 -144 0
-4909 4408 0
-4909 134 0
4909 -4408 -134 0
-4910 4410 0
-4910 144 0
4910 -4410 -144 0
-4911 4412 0
-4911 134 0
4911 -4412 -134 0
-4912 4414 0
-4912 192 0
4912 -4414 -192 0
-4913 4416 0
-4913 187 0
4913 -4416 -187 0
-4914 4418 0
-4914 182 0
4914 -4418 -182 0
-4915 4898 4899 0
-4915 -4898 -4899 0
4915 -4898 4899 0
4915 4898 -4899 0
-4916 4915 4900 0
-4916 -4915 -4900 0
4916 -4915 4900 0
4916 4915 -4900 0
-4917 4916 4901 0
-4917 -4916 -4901 0
4917 -4916 4901 0
4917 4916 -4901 0
-4918 4917 4902 0
-4918 -4917 -4902 0
4918 -4917 4902 0
4918 4917 -4902 0
-4919 4918 4903 0
-4919 -4918 -4903 0
4919 -4918 4903 0
4919 4918 -4903 0
-4920 4919 4904 0
-4920 -4919 -4904 0
4920 -4919 4904 0
4920 4919 -4904 0
-4921 4920 4905 0
-4921 -4920 -4905 0
4921 -4920 4905 0
4921 4920 -4905 0
-4922 4921 4906 0
-4922 -4921 -4906 0
4922 -4921 4906 0
4922 4921 -4906 0
-4923 4922 4907 0
-4923 -4922 -4907 0
4923 -4922 4907 0
4923 4922 -4907 0
-4924 4923 4908 0
-4924 -4923 -4908 0
4924 -4923 4908 0
4924 4923 -4908 0
-4925 4924 4909 0
-4925 -4924 -4909 0
4925 -4924 4909 0
4925 4924 -4909 0
-4926 4925 4910 0
-4926 -4925 -4910 0
4926 -4925 4910 0
4926 4925 -4910 0
-4927 4926 4911 0
-4927 -4926 -4911 0
4927 -4926 4911 0
4927 4926 -4911 0
-4928 4927 4912 0
-4928 -4927 -4912 0
4928 -4927 4912 0
4928 4927 -4912 0
-4929 4928 4913 0
-4929 -4928 -4913 0
4929 -4928 4913 0
4929 4928 -4913 0
-4930 4929 4914 0
-4930 -4929 -4914 0
4930 -4929 4914 0
4930 4929 -4914 0
-4930 0
-4931 4 0
-4931 19 0
4931 -4 -19 0
-4932 4931 0
-4932 33 0
4932 -4931 -33 0
-4933 4 0
-4933 24 0
4933 -4 -24 0
-4934 4933 0
-4934 33 0
4934 -4933 -33 0
-4935 29 0
-4935 9 0
4935 -29 -9 0
-4936 4935 0
-4936 33 0
4936 -4935 -33 0
-4937 29 0
-4937 14 0
4937 -29 -14 0
-4938 4937 0
-4938 33 0
4938 -4937 -33 0
-4939 52 0
-4939 67 0
4939 -52 -67 0
-4940 4939 0
-4940 81 0
4940 -4939 -81 0
-4941 77 0
-4941 57 0
4941 -77 -57 0
-4942 4941 0
-4942 81 0
4942 -4941 -81 0
-4943 100 0
-4943 115 0
4943 -100 -115 0
-4944 4943 0
-4944 129 0
4944 -4943 -129 0
-4945 125 0
-4945 105 0
4945 -125 -105 0
-4946 4945 0
-4946 129 0
4946 -4945 -129 0
-4947 148 0
-4947 163 0
4947 -148 -163 0
-4948 4947 0
-4948 177 0
4948 -4947 -177 0
-4949 148 0
-4949 168 0
4949 -148 -168 0
-4950 4949 0
-4950 177 0
4950 -4949 -177 0
-4951 4932 4934 0
-4951 -4932 -4934 0
4951 -4932 4934 0
4951 4932 -4934 0
-4952 4951 4934 0
-4952 -4951 -4934 0
4952 -4951 4934 0
4952 4951 -4934 0
-4953 4952 4936 0
-4953 -4952 -4936 0
4953 -4952 4936 0
4953 4952 -4936 0
-4954 4953 4938 0
-4954 -4953 -4938 0
4954 -4953 4938 0
4954 4953 -4938 0
-4955 4954 4938 0
-4955 -4954 -4938 0
4955 -4954 4938 0
4955 4954 -4938 0
-4956 4955 4940 0
-4956 -4955 -4940 0
4956 -4955 4940 0
4956 4955 -4940 0
-4957 4956 4940 0
-4957 -4956 -4940 0
4957 -4956 4940 0
4957 4956 -4940 0
-4958 4957 4942 0
-4958 -4957 -4942 0
4958 -4957 4942 0
4958 4957 -4942 0
-4959 4958 4942 0
-4959 -4958 -4942 0
4959 -4958 4942 0
4959 4958 -4942 0
-4960 4959 4944 0
-4960 -4959 -4944 0
4960 -4959 4944 0
4960 4959 -4944 0
-4961 4960 4944 0
-4961 -4960 -4944 0
4961 -4960 4944 0
4961 4960 -4944 0
-4962 4961 4946 0
-4962 -4961 -4946 0
4962 -4961 4946 0
4962 4961 -4946 0
-4963 4962 4946 0
-4963 -4962 -4946 0
4963 -4962 4946 0
4963 4962 -4946 0
-4964 4963 4948 0
-4964 -4963 -4948 0
4964 -4963 4948 0
4964 4963 -4948 0
-4965 4964 4950 0
-4965 -4964 -4950 0
4965 -4964 4950 0
4965 4964 -4950 0
-4966 4965 4950 0
-4966 -4965 -4950 0
4966 -4965 4950 0
4966 4965 -4950 0
-4966 0
-4967 4931 0
-4967 34 0
4967 -4931 -34 0
-4968 4933 0
-4968 34 0
4968 -4933 -34 0
-4969 4933 0
-4969 35 0
4969 -4933 -35 0
-4970 4935 0
-4970 37 0
4970 -4935 -37 0
-4971 4937 0
-4971 37 0
4971 -4937 -37 0
-4972 4937 0
-4972 41 0
4972 -4937 -41 0
-4973 4939 0
-4973 82 0
4973 -4939 -82 0
-4974 4939 0
-4974 84 0
4974 -4939 -84 0
-4975 4941 0
-4975 85 0
4975 -4941 -85 0
-4976 4941 0
-4976 93 0
4976 -4941 -93 0
-4977 4943 0
-4977 130 0
4977 -4943 -130 0
-4978 4943 0
-4978 132 0
4978 -4943 -132 0
-4979 4945 0
-4979 133 0
4979 -4945 -133 0
-4980 4945 0
-4980 141 0
4980 -4945 -141 0
-4981 4947 0
-4981 178 0
4981 -4947 -178 0
-4982 4949 0
-4982 178 0
4982 -4949 -178 0
-4983 4949 0
-4983 179 0
4983 -4949 -179 0
-4984 4967 4968 0
-4984 -4967 -4968 0
4984 -4967 4968 0
4984 4967 -4968 0
-4985 4984 4969 0
-4985 -4984 -4969 0
4985 -4984 4969 0
4985 4984 -4969 0
-4986 4985 4970 0
-4986 -4985 -4970 0
4986 -4985 4970 0
4986 4985 -4970 0
-4987 4986 4971 0
-4987 -4986 -4971 0
4987 -4986 4971 0
4987 4986 -4971 0
-4988 4987 4972 0
-4988 -4987 -4972 0
4988 -4987 4972 0
4988 4987 -4972 0
-4989 4988 4973 0
-4989 -4988 -4973 0
4989 -4988 4973 0
4989 4988 -4973 0
-4990 4989 4974 0
-4990 -4989 -4974 0
4990 -4989 4974 0
4990 4989 -4974 0
-4991 4990 4975 0
-4991 -4990 -4975 0
4991 -4990 4975 0
4991 4990 -4975 0
-4992 4991 4976 0
-4992 -4991 -4976 0
4992 -4991 4976 0
4992 4991 -4976 0
-4993 4992 4977 0
-4993 -4992 -4977 0
4993 -4992 4977 0
4993 4992 -4977 0
-4994 4993 4978 0
-4994 -4993 -4978 0
4994 -4993 4978 0
4994 4993 -4978 0
-4995 4994 4979 0
-4995 -4994 -4979 0
4995 -4994 4979 0
4995 4994 -4979 0
-4996 4995 4980 0
-4996 -4995 -4980 0
4996 -4995 4980 0
4996 4995 -4980 0
-4997 4996 4981 0
-4997 -4996 -4981 0
4997 -4996 4981 0
4997 4996 -4981 0
-4998 4997 4982 0
-4998 -4997 -4982 0
4998 -4997 4982 0
4998 4997 -4982 0
-4999 4998 4983 0
-4999 -4998 -4983 0
4999 -4998 4983 0
4999 4998 -4983 0
-4999 0
-5000 4931 0
-5000 35 0
5000 -4931 -35 0
-5001 4933 0
-5001 36 0
5001 -4933 -36 0
-5002 4935 0
-5002 41 0
5002 -4935 -41 0
-5003 4937 0
-5003 45 0
5003 -4937 -45 0
-5004 4939 0
-5004 83 0
5004 -4939 -83 0
-5005 4941 0
-5005 89 0
5005 -4941 -89 0
-5006 4943 0
-5006 131 0
5006 -4943 -131 0
-5007 4945 0
-5007 137 0
5007 -4945 -137 0
-5008 4947 0
-5008 179 0
5008 -4947 -179 0
-5009 4949 0
-5009 180 0
5009 -4949 -180 0
-5010 5000 5001 0
-5010 -5000 -5001 0
5010 -5000 5001 0
5010 5000 -5001 0
-5011 5010 5001 0
-5011 -5010 -5001 0
5011 -5010 5001 0
5011 5010 -5001 0
-5012 5011 5002 0
-5012 -5011 -5002 0
5012 -5011 5002 0
5012 5011 -5002 0
-5013 5012 5003 0
-5013 -5012 -5003 0
5013 -5012 5003 0
5013 5012 -5003 0
-5014 5013 5003 0
-5014 -5013 -5003 0
5014 -5013 5003 0
5014 5013 -5003 0
-5015 5014 5004 0
-5015 -5014 -5004 0
5015 -5014 5004 0
5015 5014 -5004 0
-5016 5015 5004 0
-5016 -5015 -5004 0
5016 -5015 5004 0
5016 5015 -5004 0
-5017 5016 5005 0
-5017 -5016 -5005 0
5017 -5016 5005 0
5017 5016 -5005 0
-5018 5017 5005 0
-5018 -5017 -5005 0
5018 -5017 5005 0
5018 5017 -5005 0
-5019 5018 5006 0
-5019 -5018 -5006 0
5019 -5018 5006 0
5019 5018 -5006 0
-5020 5019 5006 0
-5020 -5019 -5006 0
5020 -5019 5006 0
5020 5019 -5006 0
-5021 5020 5007 0
-5021 -5020 -5007 0
5021 -5020 5007 0
5021 5020 -5007 0
-5022 5021 5007 0
-5022 -5021 -5007 0
5022 -5021 5007 0
5022 5021 -5007 0
-5023 5022 5008 0
-5023 -5022 -5008 0
5023 -5022 5008 0
5023 5022 -5008 0
-5024 5023 5009 0
-5024 -5023 -5009 0
5024 -5023 5009 0
5024 5023 -5009 0
-5025 5024 5009 0
-5025 -5024 -5009 0
5025 -5024 5009 0
5025 5024 -5009 0
-5025 0
-5026 4931 0
-5026 37 0
5026 -4931 -37 0
-5027 4933 0
-5027 37 0
5027 -4933 -37 0
-5028 4933 0
-5028 41 0
5028 -4933 -41 0
-5029 4935 0
-5029 34 0
5029 -4935 -34 0
-5030 4937 0
-5030 34 0
5030 -4937 -34 0
-5031 4937 0
-5031 35 0
5031 -4937 -35 0
-5032 4939 0
-5032 85 0
5032 -4939 -85 0
-5033 4939 0
-5033 93 0
5033 -4939 -93 0
-5034 4941 0
-5034 82 0
5034 -4941 -82 0
-5035 4941 0
-5035 84 0
5035 -4941 -84 0
-5036 4943 0
-5036 133 0
5036 -4943 -133 0
-5037 4943 0
-5037 141 0
5037 -4943 -141 0
-5038 4945 0
-5038 130 0
5038 -4945 -130 0
-5039 4945 0
-5039 132 0
5039 -4945 -132 0
-5040 4947 0
-5040 181 0
5040 -4947 -181 0
-5041 4949 0
-5041 181 0
5041 -4949 -181 0
-5042 4949 0
-5042 185 0
5042 -4949 -185 0
-5043 5026 5027 0
-5043 -5026 -5027 0
5043 -5026 5027 0
5043 5026 -5027 0
-5044 5043 5028 0
-5044 -5043 -5028 0
5044 -5043 5028 0
5044 5043 -5028 0
-5045 5044 5029 0
-5045 -5044 -5029 0
5045 -5044 5029 0
5045 5044 -5029 0
-5046 5045 5030 0
-5046 -5045 -5030 0
5046 -5045 5030 0
5046 5045 -5030 0
-5047 5046 5031 0
-5047 -5046 -5031 0
5047 -5046 5031 0
5047 5046 -5031 0
-5048 5047 5032 0
-5048 -5047 -5032 0
5048 -5047 5032 0
5048 5047 -5032 0
-5049 5048 5033 0
-5049 -5048 -5033 0
5049 -5048 5033 0
5049 5048 -5033 0
-5050 5049 5034 0
-5050 -5049 -5034 0
5050 -5049 5034 0
5050 5049 -5034 0
-5051 5050 5035 0
-5051 -5050 -5035 0
5051 -5050 5035 0
5051 5050 -5035 0
-5052 5051 5036 0
-5052 -5051 -5036 0
5052 -5051 5036 0
5052 5051 -5036 0
-5053 5052 5037 0
-5053 -5052 -5037 0
5053 -5052 5037 0
5053 5052 -5037 0
-5054 5053 5038 0
-5054 -5053 -5038 0
5054 -5053 5038 0
5054 5053 -5038 0
-5055 5054 5039 0
-5055 -5054 -5039 0
5055 -5054 5039 0
5055 5054 -5039 0
-5056 5055 5040 0
-5056 -5055 -5040 0
5056 -5055 5040 0
5056 5055 -5040 0
-5057 5056 5041 0
-5057 -5056 -5041 0
5057 -5056 5041 0
5057 5056 -5041 0
-5058 5057 5042 0
-5058 -5057 -5042 0
5058 -5057 5042 0
5058 5057 -5042 0
-5058 0
-5059 4931 0
-5059 38 0
5059 -4931 -38 0
-5060 4933 0
-5060 38 0
5060 -4933 -38 0
-5061 4933 0
-5061 43 0
5061 -4933 -43 0
-5062 4935 0
-5062 38 0
5062 -4935 -38 0
-5063 4937 0
-5063 38 0
5063 -4937 -38 0
-5064 4937 0
-5064 43 0
5064 -4937 -43 0
-5065 4939 0
-5065 86 0
5065 -4939 -86 0
-5066 4939 0
-5066 96 0
5066 -4939 -96 0
-5067 4941 0
-5067 86 0
5067 -4941 -86 0
-5068 4941 0
-5068 96 0
5068 -4941 -96 0
-5069 4943 0
-5069 134 0
5069 -4943 -134 0
-5070 4943 0
-5070 144 0
5070 -4943 -144 0
-5071 4945 0
-5071 134 0
5071 -4945 -134 0
-5072 4945 0
-5072 144 0
5072 -4945 -144 0
-5073 4947 0
-5073 182 0
5073 -4947 -182 0
-5074 4949 0
-5074 182 0
5074 -4949 -182 0
-5075 4949 0
-5075 187 0
5075 -4949 -187 0
-5076 5059 5060 0
-5076 -5059 -5060 0
5076 -5059 5060 0
5076 5059 -5060 0
-5077 5076 5061 0
-5077 -5076 -5061 0
5077 -5076 5061 0
5077 5076 -5061 0
-5078 5077 5062 0
-5078 -5077 -5062 0
5078 -5077 5062 0
5078 5077 -5062 0
-5079 5078 5063 0
-5079 -5078 -5063 0
5079 -5078 5063 0
5079 5078 -5063 0
-5080 5079 5064 0
-5080 -5079 -5064 0
5080 -5079 5064 0
5080 5079 -5064 0
-5081 5080 5065 0
-5081 -5080 -5065 0
5081 -5080 5065 0
5081 5080 -5065 0
-5082 5081 5066 0
-5082 -5081 -5066 0
5082 -5081 5066 0
5082 5081 -5066 0
-5083 5082 5067 0
-5083 -5082 -5067 0
5083 -5082 5067 0
5083 5082 -5067 0
-5084 5083 5068 0
-5084 -5083 -5068 0
5084 -5083 5068 0
5084 5083 -5068 0
-5085 5084 5069 0
-5085 -5084 -5069 0
5085 -5084 5069 0
5085 5084 -5069 0
-5086 5085 5070 0
-5086 -5085 -5070 0
5086 -5085 5070 0
5086 5085 -5070 0
-5087 5086 5071 0
-5087 -5086 -5071 0
5087 -5086 5071 0
5087 5086 -5071 0
-5088 5087 5072 0
-5088 -5087 -5072 0
5088 -5087 5072 0
5088 5087 -5072 0
-5089 5088 5073 0
-5089 -5088 -5073 0
5089 -5088 5073 0
5089 5088 -5073 0
-5090 5089 5074 0
-5090 -5089 -5074 0
5090 -5089 5074 0
5090 5089 -5074 0
-5091 5090 5075 0
-5091 -5090 -5075 0
5091 -5090 5075 0
5091 5090 -5075 0
-5091 0
-5092 4931 0
-5092 39 0
5092 -4931 -39 0
-5093 4933 0
-5093 40 0
5093 -4933 -40 0
-5094 4933 0
-5094 44 0
5094 -4933 -44 0
-5095 4935 0
-5095 42 0
5095 -4935 -42 0
-5096 4937 0
-5096 46 0
5096 -4937 -46 0
-5097 4937 0
-5097 47 0
5097 -4937 -47 0
-5098 4939 0
-5098 87 0
5098 -4939 -87 0
-5099 4939 0
-5099 95 0
5099 -4939 -95 0
-5100 4941 0
-5100 90 0
5100 -4941 -90 0
-5101 4941 0
-5101 92 0
5101 -4941 -92 0
-5102 4943 0
-5102 135 0
5102 -4943 -135 0
-5103 4943 0
-5103 143 0
5103 -4943 -143 0
-5104 4945 0
-5104 138 0
5104 -4945 -138 0
-5105 4945 0
-5105 140 0
5105 -4945 -140 0
-5106 4947 0
-5106 183 0
5106 -4947 -183 0
-5107 4949 0
-5107 184 0
5107 -4949 -184 0
-5108 4949 0
-5108 188 0
5108 -4949 -188 0
-5109 5092 5093 0
-5109 -5092 -5093 0
5109 -5092 5093 0
5109 5092 -5093 0
-5110 5109 5094 0
-5110 -5109 -5094 0
5110 -5109 5094 0
5110 5109 -5094 0
-5111 5110 5095 0
-5111 -5110 -5095 0
5111 -5110 5095 0
5111 5110 -5095 0
-5112 5111 5096 0
-5112 -5111 -5096 0
5112 -5111 5096 0
5112 5111 -5096 0
-5113 5112 5097 0
-5113 -5112 -5097 0
5113 -5112 5097 0
5113 5112 -5097 0
-5114 5113 5098 0
-5114 -5113 -5098 0
5114 -5113 5098 0
5114 5113 -5098 0
-5115 5114 5099 0
-5115 -5114 -5099 0
5115 -5114 5099 0
5115 5114 -5099 0
-5116 5115 5100 0
-5116 -5115 -5100 0
5116 -5115 5100 0
5116 5115 -5100 0
-5117 5116 5101 0
-5117 -5116 -5101 0
5117 -5116 5101 0
5117 5116 -5101 0
-5118 5117 5102 0
-5118 -5117 -5102 0
5118 -5117 5102 0
5118 5117 -5102 0
-5119 5118 5103 0
-5119 -5118 -5103 0
5119 -5118 5103 0
5119 5118 -5103 0
-5120 5119 5104 0
-5120 -5119 -5104 0
5120 -5119 5104 0
5120 5119 -5104 0
-5121 5120 5105 0
-5121 -5120 -5105 0
5121 -5120 5105 0
5121 5120 -5105 0
-5122 5121 5106 0
-5122 -5121 -5106 0
5122 -5121 5106 0
5122 5121 -5106 0
-5123 5122 5107 0
-5123 -5122 -5107 0
5123 -5122 5107 0
5123 5122 -5107 0
-5124 5123 5108 0
-5124 -5123 -5108 0
5124 -5123 5108 0
5124 5123 -5108 0
-5124 0
-5125 4931 0
-5125 40 0
5125 -4931 -40 0
-5126 4933 0
-5126 39 0
5126 -4933 -39 0
-5127 4933 0
-5127 42 0
5127 -4933 -42 0
-5128 4935 0
-5128 46 0
5128 -4935 -46 0
-5129 4937 0
-5129 42 0
5129 -4937 -42 0
-5130 4937 0
-5130 39 0
5130 -4937 -39 0
-5131 4939 0
-5131 88 0
5131 -4939 -88 0
-5132 4939 0
-5132 94 0
5132 -4939 -94 0
-5133 4941 0
-5133 94 0
5133 -4941 -94 0
-5134 4941 0
-5134 88 0
5134 -4941 -88 0
-5135 4943 0
-5135 136 0
5135 -4943 -136 0
-5136 4943 0
-5136 142 0
5136 -4943 -142 0
-5137 4945 0
-5137 142 0
5137 -4945 -142 0
-5138 4945 0
-5138 136 0
5138 -4945 -136 0
-5139 4947 0
-5139 184 0
5139 -4947 -184 0
-5140 4949 0
-5140 183 0
5140 -4949 -183 0
-5141 4949 0
-5141 186 0
5141 -4949 -186 0
-5142 5125 5126 0
-5142 -5125 -5126 0
5142 -5125 5126 0
5142 5125 -5126 0
-5143 5142 5127 0
-5143 -5142 -5127 0
5143 -5142 5127 0
5143 5142 -5127 0
-5144 5143 5128 0
-5144 -5143 -5128 0
5144 -5143 5128 0
5144 5143 -5128 0
-5145 5144 5129 0
-5145 -5144 -5129 0
5145 -5144 5129 0
5145 5144 -5129 0
-5146 5145 5130 0
-5146 -5145 -5130 0
5146 -5145 5130 0
5146 5145 -5130 0
-5147 5146 5131 0
-5147 -5146 -5131 0
5147 -5146 5131 0
5147 5146 -5131 0
-5148 5147 5132 0
-5148 -5147 -5132 0
5148 -5147 5132 0
5148 5147 -5132 0
-5149 5148 5133 0
-5149 -5148 -5133 0
5149 -5148 5133 0
5149 5148 -5133 0
-5150 5149 5134 0
-5150 -5149 -5134 0
5150 -5149 5134 0
5150 5149 -5134 0
-5151 5150 5135 0
-5151 -5150 -5135 0
5151 -5150 5135 0
5151 5150 -5135 0
-5152 5151 5136 0
-5152 -5151 -5136 0
5152 -5151 5136 0
5152 5151 -5136 0
-5153 5152 5137 0
-5153 -5152 -5137 0
5153 -5152 5137 0
5153 5152 -5137 0
-5154 5153 5138 0
-5154 -5153 -5138 0
5154 -5153 5138 0
5154 5153 -5138 0
-5155 5154 5139 0
-5155 -5154 -5139 0
5155 -5154 5139 0
5155 5154 -5139 0
-5156 5155 5140 0
-5156 -5155 -5140 0
5156 -5155 5140 0
5156 5155 -5140 0
-5157 5156 5141 0
-5157 -5156 -5141 0
5157 -5156 5141 0
5157 5156 -5141 0
-5157 0
-5158 4931 0
-5158 41 0
5158 -4931 -41 0
-5159 4933 0
-5159 45 0
5159 -4933 -45 0
-5160 4935 0
-5160 35 0
5160 -4935 -35 0
-5161 4937 0
-5161 36 0
5161 -4937 -36 0
-5162 4939 0
-5162 89 0
5162 -4939 -89 0
-5163 4941 0
-5163 83 0
5163 -4941 -83 0
-5164 4943 0
-5164 137 0
5164 -4943 -137 0
-5165 4945 0
-5165 131 0
5165 -4945 -131 0
-5166 4947 0
-5166 185 0
5166 -4947 -185 0
-5167 4949 0
-5167 189 0
5167 -4949 -189 0
-5168 5158 5159 0
-5168 -5158 -5159 0
5168 -5158 5159 0
5168 5158 -5159 0
-5169 5168 5159 0
-5169 -5168 -5159 0
5169 -5168 5159 0
5169 5168 -5159 0
-5170 5169 5160 0
-5170 -5169 -5160 0
5170 -5169 5160 0
5170 5169 -5160 0
-5171 5170 5161 0
-5171 -5170 -5161 0
5171 -5170 5161 0
5171 5170 -5161 0
-5172 5171 5161 0
-5172 -5171 -5161 0
5172 -5171 5161 0
5172 5171 -5161 0
-5173 5172 5162 0
-5173 -5172 -5162 0
5173 -5172 5162 0
5173 5172 -5162 0
-5174 5173 5162 0
-5174 -5173 -5162 0
5174 -5173 5162 0
5174 5173 -5162 0
-5175 5174 5163 0
-5175 -5174 -5163 0
5175 -5174 5163 0
5175 5174 -5163 0
-5176 5175 5163 0
-5176 -5175 -5163 0
5176 -5175 5163 0
5176 5175 -5163 0
-5177 5176 5164 0
-5177 -5176 -5164 0
5177 -5176 5164 0
5177 5176 -5164 0
-5178 5177 5164 0
-5178 -5177 -5164 0
5178 -5177 5164 0
5178 5177 -5164 0
-5179 5178 5165 0
-5179 -5178 -5165 0
5179 -5178 5165 0
5179 5178 -5165 0
-5180 5179 5165 0
-5180 -5179 -5165 0
5180 -5179 5165 0
5180 5179 -5165 0
-5181 5180 5166 0
-5181 -5180 -5166 0
5181 -5180 5166 0
5181 5180 -5166 0
-5182 5181 5167 0
-5182 -5181 -5167 0
5182 -5181 5167 0
5182 5181 -5167 0
-5183 5182 5167 0
-5183 -5182 -5167 0
5183 -5182 5167 0
5183 5182 -5167 0
-5183 0
-5184 4931 0
-5184 42 0
5184 -4931 -42 0
-5185 4933 0
-5185 46 0
5185 -4933 -46 0
-5186 4933 0
-5186 47 0
5186 -4933 -47 0
-5187 4935 0
-5187 39 0
5187 -4935 -39 0
-5188 4937 0
-5188 40 0
5188 -4937 -40 0
-5189 4937 0
-5189 44 0
5189 -4937 -44 0
-5190 4939 0
-5190 90 0
5190 -4939 -90 0
-5191 4939 0
-5191 92 0
5191 -4939 -92 0
-5192 4941 0
-5192 87 0
5192 -4941 -87 0
-5193 4941 0
-5193 95 0
5193 -4941 -95 0
-5194 4943 0
-5194 138 0
5194 -4943 -138 0
-5195 4943 0
-5195 140 0
5195 -4943 -140 0
-5196 4945 0
-5196 135 0
5196 -4945 -135 0
-5197 4945 0
-5197 143 0
5197 -4945 -143 0
-5198 4947 0
-5198 186 0
5198 -4947 -186 0
-5199 4949 0
-5199 190 0
5199 -4949 -190 0
-5200 4949 0
-5200 191 0
5200 -4949 -191 0
-5201 5184 5185 0
-5201 -5184 -5185 0
5201 -5184 5185 0
5201 5184 -5185 0
-5202 5201 5186 0
-5202 -5201 -5186 0
5202 -5201 5186 0
5202 5201 -5186 0
-5203 5202 5187 0
-5203 -5202 -5187 0
5203 -5202 5187 0
5203 5202 -5187 0
-5204 5203 5188 0
-5204 -5203 -5188 0
5204 -5203 5188 0
5204 5203 -5188 0
-5205 5204 5189 0
-5205 -5204 -5189 0
5205 -5204 5189 0
5205 5204 -5189 0
-5206 5205 5190 0
-5206 -5205 -5190 0
5206 -5205 5190 0
5206 5205 -5190 0
-5207 5206 5191 0
-5207 -5206 -5191 0
5207 -5206 5191 0
5207 5206 -5191 0
-5208 5207 5192 0
-5208 -5207 -5192 0
5208 -5207 5192 0
5208 5207 -5192 0
-5209 5208 5193 0
-5209 -5208 -5193 0
5209 -5208 5193 0
5209 5208 -5193 0
-5210 5209 5194 0
-5210 -5209 -5194 0
5210 -5209 5194 0
5210 5209 -5194 0
-5211 5210 5195 0
-5211 -5210 -5195 0
5211 -5210 5195 0
5211 5210 -5195 0
-5212 5211 5196 0
-5212 -5211 -5196 0
5212 -5211 5196 0
5212 5211 -5196 0
-5213 5212 5197 0
-5213 -5212 -5197 0
5213 -5212 5197 0
5213 5212 -5197 0
-5214 5213 5198 0
-5214 -5213 -5198 0
5214 -5213 5198 0
5214 5213 -5198 0
-5215 5214 5199 0
-5215 -5214 -5199 0
5215 -5214 5199 0
5215 5214 -5199 0
-5216 5215 5200 0
-5216 -5215 -5200 0
5216 -5215 5200 0
5216 5215 -5200 0
-5216 0
-5217 4931 0
-5217 43 0
5217 -4931 -43 0
-5218 4933 0
-5218 48 0
5218 -4933 -48 0
-5219 4935 0
-5219 43 0
5219 -4935 -43 0
-5220 4937 0
-5220 48 0
5220 -4937 -48 0
-5221 4939 0
-5221 91 0
5221 -4939 -91 0
-5222 4941 0
-5222 91 0
5222 -4941 -91 0
-5223 4943 0
-5223 139 0
5223 -4943 -139 0
-5224 4945 0
-5224 139 0
5224 -4945 -139 0
-5225 4947 0
-5225 187 0
5225 -4947 -187 0
-5226 4949 0
-5226 192 0
5226 -4949 -192 0
-5227 5217 5218 0
-5227 -5217 -5218 0
5227 -5217 5218 0
5227 5217 -5218 0
-5228 5227 5218 0
-5228 -5227 -5218 0
5228 -5227 5218 0
5228 5227 -5218 0
-5229 5228 5219 0
-5229 -5228 -5219 0
5229 -5228 5219 0
5229 5228 -5219 0
-5230 5229 5220 0
-5230 -5229 -5220 0
5230 -5229 5220 0
5230 5229 -5220 0
-5231 5230 5220 0
-5231 -5230 -5220 0
5231 -5230 5220 0
5231 5230 -5220 0
-5232 5231 5221 0
-5232 -5231 -5221 0
5232 -5231 5221 0
5232 5231 -5221 0
-5233 5232 5221 0
-5233 -5232 -5221 0
5233 -5232 5221 0
5233 5232 -5221 0
-5234 5233 5222 0
-5234 -5233 -5222 0
5234 -5233 5222 0
5234 5233 -5222 0
-5235 5234 5222 0
-5235 -5234 -5222 0
5235 -5234 5222 0
5235 5234 -5222 0
-5236 5235 5223 0
-5236 -5235 -5223 0
5236 -5235 5223 0
5236 5235 -5223 0
-5237 5236 5223 0
-5237 -5236 -5223 0
5237 -5236 5223 0
5237 5236 -5223 0
-5238 5237 5224 0
-5238 -5237 -5224 0
5238 -5237 5224 0
5238 5237 -5224 0
-5239 5238 5224 0
-5239 -5238 -5224 0
5239 -5238 5224 0
5239 5238 -5224 0
-5240 5239 5225 0
-5240 -5239 -5225 0
5240 -5239 5225 0
5240 5239 -5225 0
-5241 5240 5226 0
-5241 -5240 -5226 0
5241 -5240 5226 0
5241 5240 -5226 0
-5242 5241 5226 0
-5242 -5241 -5226 0
5242 -5241 5226 0
5242 5241 -5226 0
-5242 0
-5243 4 0
-5243 29 0
5243 -4 -29 0
-5244 5243 0
-5244 33 0
5244 -5243 -33 0
-5245 52 0
-5245 77 0
5245 -52 -77 0
-5246 5245 0
-5246 81 0
5246 -5245 -81 0
-5247 100 0
-5247 125 0
5247 -100 -125 0
-5248 5247 0
-5248 129 0
5248 -5247 -129 0
-5249 148 0
-5249 173 0
5249 -148 -173 0
-5250 5249 0
-5250 177 0
5250 -5249 -177 0
-5251 5244 5244 0
-5251 -5244 -5244 0
5251 -5244 5244 0
5251 5244 -5244 0
-5252 5251 5244 0
-5252 -5251 -5244 0
5252 -5251 5244 0
5252 5251 -5244 0
-5253 5252 5244 0
-5253 -5252 -5244 0
5253 -5252 5244 0
5253 5252 -5244 0
-5254 5253 5244 0
-5254 -5253 -5244 0
5254 -5253 5244 0
5254 5253 -5244 0
-5255 5254 5244 0
-5255 -5254 -5244 0
5255 -5254 5244 0
5255 5254 -5244 0
-5256 5255 5246 0
-5256 -5255 -5246 0
5256 -5255 5246 0
5256 5255 -5246 0
-5257 5256 5246 0
-5257 -5256 -5246 0
5257 -5256 5246 0
5257 5256 -5246 0
-5258 5257 5246 0
-5258 -5257 -5246 0
5258 -5257 5246 0
5258 5257 -5246 0
-5259 5258 5246 0
-5259 -5258 -5246 0
5259 -5258 5246 0
5259 5258 -5246 0
-5260 5259 5248 0
-5260 -5259 -5248 0
5260 -5259 5248 0
5260 5259 -5248 0
-5261 5260 5248 0
-5261 -5260 -5248 0
5261 -5260 5248 0
5261 5260 -5248 0
-5262 5261 5248 0
-5262 -5261 -5248 0
5262 -5261 5248 0
5262 5261 -5248 0
-5263 5262 5248 0
-5263 -5262 -5248 0
5263 -5262 5248 0
5263 5262 -5248 0
-5264 5263 5250 0
-5264 -5263 -5250 0
5264 -5263 5250 0
5264 5263 -5250 0
-5265 5264 5250 0
-5265 -5264 -5250 0
5265 -5264 5250 0
5265 5264 -5250 0
-5266 5265 5250 0
-5266 -5265 -5250 0
5266 -5265 5250 0
5266 5265 -5250 0
-5266 0
-5267 5243 0
-5267 34 0
5267 -5243 -34 0
-5268 5243 0
-5268 35 0
5268 -5243 -35 0
-5269 5243 0
-5269 37 0
5269 -5243 -37 0
-5270 5243 0
-5270 41 0
5270 -5243 -41 0
-5271 5245 0
-5271 82 0
5271 -5245 -82 0
-5272 5245 0
-5272 84 0
5272 -5245 -84 0
-5273 5245 0
-5273 85 0
5273 -5245 -85 0
-5274 5245 0
-5274 93 0
5274 -5245 -93 0
-5275 5247 0
-5275 130 0
5275 -5247 -130 0
-5276 5247 0
-5276 132 0
5276 -5247 -132 0
-5277 5247 0
-5277 133 0
5277 -5247 -133 0
-5278 5247 0
-5278 141 0
5278 -5247 -141 0
-5279 5249 0
-5279 178 0
5279 -5249 -178 0
-5280 5249 0
-5280 179 0
5280 -5249 -179 0
-5281 5267 5267 0
-5281 -5267 -5267 0
5281 -5267 5267 0
5281 5267 -5267 0
-5282 5281 5268 0
-5282 -5281 -5268 0
5282 -5281 5268 0
5282 5281 -5268 0
-5283 5282 5269 0
-5283 -5282 -5269 0
5283 -5282 5269 0
5283 5282 -5269 0
-5284 5283 5269 0
-5284 -5283 -5269 0
5284 -5283 5269 0
5284 5283 -5269 0
-5285 5284 5270 0
-5285 -5284 -5270 0
5285 -5284 5270 0
5285 5284 -5270 0
-5286 5285 5271 0
-5286 -5285 -5271 0
5286 -5285 5271 0
5286 5285 -5271 0
-5287 5286 5272 0
-5287 -5286 -5272 0
5287 -5286 5272 0
5287 5286 -5272 0
-5288 5287 5273 0
-5288 -5287 -5273 0
5288 -5287 5273 0
5288 5287 -5273 0
-5289 5288 5274 0
-5289 -5288 -5274 0
5289 -5288 5274 0
5289 5288 -5274 0
-5290 5289 5275 0
-5290 -5289 -5275 0
5290 -5289 5275 0
5290 5289 -5275 0
-5291 5290 5276 0
-5291 -5290 -5276 0
5291 -5290 5276 0
5291 5290 -5276 0
-5292 5291 5277 0
-5292 -5291 -5277 0
5292 -5291 5277 0
5292 5291 -5277 0
-5293 5292 5278 0
-5293 -5292 -5278 0
5293 -5292 5278 0
5293 5292 -5278 0
-5294 5293 5279 0
-5294 -5293 -5279 0
5294 -5293 5279 0
5294 5293 -5279 0
-5295 5294 5279 0
-5295 -5294 -5279 0
5295 -5294 5279 0
5295 5294 -5279 0
-5296 5295 5280 0
-5296 -5295 -5280 0
5296 -5295 5280 0
5296 5295 -5280 0
-5296 0
-5297 5243 0
-5297 38 0
5297 -5243 -38 0
-5298 5243 0
-5298 43 0
5298 -5243 -43 0
-5299 5245 0
-5299 86 0
5299 -5245 -86 0
-5300 5245 0
-5300 96 0
5300 -5245 -96 0
-5301 5247 0
-5301 134 0
5301 -5247 -134 0
-5302 5247 0
-5302 144 0
5302 -5247 -144 0
-5303 5249 0
-5303 182 0
5303 -5249 -182 0
-5304 5249 0
-5304 187 0
5304 -5249 -187 0
-5305 5297 5297 0
-5305 -5297 -5297 0
5305 -5297 5297 0
5305 5297 -5297 0
-5306 5305 5298 0
-5306 -5305 -5298 0
5306 -5305 5298 0
5306 5305 -5298 0
-5307 5306 5297 0
-5307 -5306 -5297 0
5307 -5306 5297 0
5307 5306 -5297 0
-5308 5307 5297 0
-5308 -5307 -5297 0
5308 -5307 5297 0
5308 5307 -5297 0
-5309 5308 5298 0
-5309 -5308 -5298 0
5309 -5308 5298 0
5309 5308 -5298 0
-5310 5309 5299 0
-5310 -5309 -5299 0
5310 -5309 5299 0
5310 5309 -5299 0
-5311 5310 5300 0
-5311 -5310 -5300 0
5311 -5310 5300 0
5311 5310 -5300 0
-5312 5311 5299 0
-5312 -5311 -5299 0
5312 -5311 5299 0
5312 5311 -5299 0
-5313 5312 5300 0
-5313 -5312 -5300 0
5313 -5312 5300 0
5313 5312 -5300 0
-5314 5313 5301 0
-5314 -5313 -5301 0
5314 -5313 5301 0
5314 5313 -5301 0
-5315 5314 5302 0
-5315 -5314 -5302 0
5315 -5314 5302 0
5315 5314 -5302 0
-5316 5315 5301 0
-5316 -5315 -5301 0
5316 -5315 5301 0
5316 5315 -5301 0
-5317 5316 5302 0
-5317 -5316 -5302 0
5317 -5316 5302 0
5317 5316 -5302 0
-5318 5317 5303 0
-5318 -5317 -5303 0
5318 -5317 5303 0
5318 5317 -5303 0
-5319 5318 5303 0
-5319 -5318 -5303 0
5319 -5318 5303 0
5319 5318 -5303 0
-5320 5319 5304 0
-5320 -5319 -5304 0
5320 -5319 5304 0
5320 5319 -5304 0
-5320 0
-5321 5243 0
-5321 39 0
5321 -5243 -39 0
-5322 5243 0
-5322 40 0
5322 -5243 -40 0
-5323 5243 0
-5323 44 0
5323 -5243 -44 0
-5324 5243 0
-5324 42 0
5324 -5243 -42 0
-5325 5243 0
-5325 46 0
5325 -5243 -46 0
-5326 5243 0
-5326 47 0
5326 -5243 -47 0
-5327 5245 0
-5327 87 0
5327 -5245 -87 0
-5328 5245 0
-5328 95 0
5328 -5245 -95 0
-5329 5245 0
-5329 90 0
5329 -5245 -90 0
-5330 5245 0
-5330 92 0
5330 -5245 -92 0
-5331 5247 0
-5331 135 0
5331 -5247 -135 0
-5332 5247 0
-5332 143 0
5332 -5247 -143 0
-5333 5247 0
-5333 138 0
5333 -5247 -138 0
-5334 5247 0
-5334 140 0
5334 -5247 -140 0
-5335 5249 0
-5335 183 0
5335 -5249 -183 0
-5336 5249 0
-5336 184 0
5336 -5249 -184 0
-5337 5249 0
-5337 188 0
5337 -5249 -188 0
-5338 5321 5322 0
-5338 -5321 -5322 0
5338 -5321 5322 0
5338 5321 -5322 0
-5339 5338 5323 0
-5339 -5338 -5323 0
5339 -5338 5323 0
5339 5338 -5323 0
-5340 5339 5324 0
-5340 -5339 -5324 0
5340 -5339 5324 0
5340 5339 -5324 0
-5341 5340 5325 0
-5341 -5340 -5325 0
5341 -5340 5325 0
5341 5340 -5325 0
-5342 5341 5326 0
-5342 -5341 -5326 0
5342 -5341 5326 0
5342 5341 -5326 0
-5343 5342 5327 0
-5343 -5342 -5327 0
5343 -5342 5327 0
5343 5342 -5327 0
-5344 5343 5328 0
-5344 -5343 -5328 0
5344 -5343 5328 0
5344 5343 -5328 0
-5345 5344 5329 0
-5345 -5344 -5329 0
5345 -5344 5329 0
5345 5344 -5329 0
-5346 5345 5330 0
-5346 -5345 -5330 0
5346 -5345 5330 0
5346 5345 -5330 0
-5347 5346 5331 0
-5347 -5346 -5331 0
5347 -5346 5331 0
5347 5346 -5331 0
-5348 5347 5332 0
-5348 -5347 -5332 0
5348 -5347 5332 0
5348 5347 -5332 0
-5349 5348 5333 0
-5349 -5348 -5333 0
5349 -5348 5333 0
5349 5348 -5333 0
-5350 5349 5334 0
-5350 -5349 -5334 0
5350 -5349 5334 0
5350 5349 -5334 0
-5351 5350 5335 0
-5351 -5350 -5335 0
5351 -5350 5335 0
5351 5350 -5335 0
-5352 5351 5336 0
-5352 -5351 -5336 0
5352 -5351 5336 0
5352 5351 -5336 0
-5353 5352 5337 0
-5353 -5352 -5337 0
5353 -5352 5337 0
5353 5352 -5337 0
-5353 0
-5354 4 0
-5354 30 0
5354 -4 -30 0
-5355 5354 0
-5355 33 0
5355 -5354 -33 0
-5356 4 0
-5356 31 0
5356 -4 -31 0
-5357 5356 0
-5357 33 0
5357 -5356 -33 0
-5358 29 0
-5358 8 0
5358 -29 -8 0
-5359 5358 0
-5359 33 0
5359 -5358 -33 0
-5360 29 0
-5360 12 0
5360 -29 -12 0
-5361 5360 0
-5361 33 0
5361 -5360 -33 0
-5362 52 0
-5362 78 0
5362 -52 -78 0
-5363 5362 0
-5363 81 0
5363 -5362 -81 0
-5364 52 0
-5364 80 0
5364 -52 -80 0
-5365 5364 0
-5365 81 0
5365 -5364 -81 0
-5366 77 0
-5366 56 0
5366 -77 -56 0
-5367 5366 0
-5367 81 0
5367 -5366 -81 0
-5368 77 0
-5368 64 0
5368 -77 -64 0
-5369 5368 0
-5369 81 0
5369 -5368 -81 0
-5370 100 0
-5370 126 0
5370 -100 -126 0
-5371 5370 0
-5371 129 0
5371 -5370 -129 0
-5372 100 0
-5372 128 0
5372 -100 -128 0
-5373 5372 0
-5373 129 0
5373 -5372 -129 0
-5374 125 0
-5374 104 0
5374 -125 -104 0
-5375 5374 0
-5375 129 0
5375 -5374 -129 0
-5376 125 0
-5376 112 0
5376 -125 -112 0
-5377 5376 0
-5377 129 0
5377 -5376 -129 0
-5378 148 0
-5378 174 0
5378 -148 -174 0
-5379 5378 0
-5379 177 0
5379 -5378 -177 0
-5380 148 0
-5380 175 0
5380 -148 -175 0
-5381 5380 0
-5381 177 0
5381 -5380 -177 0
-5382 5355 5355 0
-5382 -5355 -5355 0
5382 -5355 5355 0
5382 5355 -5355 0
-5383 5382 5357 0
-5383 -5382 -5357 0
5383 -5382 5357 0
5383 5382 -5357 0
-5384 5383 5359 0
-5384 -5383 -5359 0
5384 -5383 5359 0
5384 5383 -5359 0
-5385 5384 5359 0
-5385 -5384 -5359 0
5385 -5384 5359 0
5385 5384 -5359 0
-5386 5385 5361 0
-5386 -5385 -5361 0
5386 -5385 5361 0
5386 5385 -5361 0
-5387 5386 5363 0
-5387 -5386 -5363 0
5387 -5386 5363 0
5387 5386 -5363 0
-5388 5387 5365 0
-5388 -5387 -5365 0
5388 -5387 5365 0
5388 5387 -5365 0
-5389 5388 5367 0
-5389 -5388 -5367 0
5389 -5388 5367 0
5389 5388 -5367 0
-5390 5389 5369 0
-5390 -5389 -5369 0
5390 -5389 5369 0
5390 5389 -5369 0
-5391 5390 5371 0
-5391 -5390 -5371 0
5391 -5390 5371 0
5391 5390 -5371 0
-5392 5391 5373 0
-5392 -5391 -5373 0
5392 -5391 5373 0
5392 5391 -5373 0
-5393 5392 5375 0
-5393 -5392 -5375 0
5393 -5392 5375 0
5393 5392 -5375 0
-5394 5393 5377 0
-5394 -5393 -5377 0
5394 -5393 5377 0
5394 5393 -5377 0
-5395 5394 5379 0
-5395 -5394 -5379 0
5395 -5394 5379 0
5395 5394 -5379 0
-5396 5395 5379 0
-5396 -5395 -5379 0
5396 -5395 5379 0
5396 5395 -5379 0
-5397 5396 5381 0
-5397 -5396 -5381 0
5397 -5396 5381 0
5397 5396 -5381 0
-5397 0
-5398 5354 0
-5398 34 0
5398 -5354 -34 0
-5399 5356 0
-5399 35 0
5399 -5356 -35 0
-5400 5358 0
-5400 37 0
5400 -5358 -37 0
-5401 5360 0
-5401 41 0
5401 -5360 -41 0
-5402 5362 0
-5402 82 0
5402 -5362 -82 0
-5403 5364 0
-5403 84 0
5403 -5364 -84 0
-5404 5366 0
-5404 85 0
5404 -5366 -85 0
-5405 5368 0
-5405 93 0
5405 -5368 -93 0
-5406 5370 0
-5406 130 0
5406 -5370 -130 0
-5407 5372 0
-5407 132 0
5407 -5372 -132 0
-5408 5374 0
-5408 133 0
5408 -5374 -133 0
-5409 5376 0
-5409 141 0
5409 -5376 -141 0
-5410 5378 0
-5410 178 0
5410 -5378 -178 0
-5411 5380 0
-5411 179 0
5411 -5380 -179 0
-5412 5398 5398 0
-5412 -5398 -5398 0
5412 -5398 5398 0
5412 5398 -5398 0
-5413 5412 5399 0
-5413 -5412 -5399 0
5413 -5412 5399 0
5413 5412 -5399 0
-5414 5413 5400 0
-5414 -5413 -5400 0
5414 -5413 5400 0
5414 5413 -5400 0
-5415 5414 5400 0
-5415 -5414 -5400 0
5415 -5414 5400 0
5415 5414 -5400 0
-5416 5415 5401 0
-5416 -5415 -5401 0
5416 -5415 5401 0
5416 5415 -5401 0
-5417 5416 5402 0
-5417 -5416 -5402 0
5417 -5416 5402 0
5417 5416 -5402 0
-5418 5417 5403 0
-5418 -5417 -5403 0
5418 -5417 5403 0
5418 5417 -5403 0
-5419 5418 5404 0
-5419 -5418 -5404 0
5419 -5418 5404 0
5419 5418 -5404 0
-5420 5419 5405 0
-5420 -5419 -5405 0
5420 -5419 5405 0
5420 5419 -5405 0
-5421 5420 5406 0
-5421 -5420 -5406 0
5421 -5420 5406 0
5421 5420 -5406 0
-5422 5421 5407 0
-5422 -5421 -5407 0
5422 -5421 5407 0
5422 5421 -5407 0
-5423 5422 5408 0
-5423 -5422 -5408 0
5423 -5422 5408 0
5423 5422 -5408 0
-5424 5423 5409 0
-5424 -5423 -5409 0
5424 -5423 5409 0
5424 5423 -5409 0
-5425 5424 5410 0
-5425 -5424 -5410 0
5425 -5424 5410 0
5425 5424 -5410 0
-5426 5425 5410 0
-5426 -5425 -5410 0
5426 -5425 5410 0
5426 5425 -5410 0
-5427 5426 5411 0
-5427 -5426 -5411 0
5427 -5426 5411 0
5427 5426 -5411 0
-5427 0
-5428 5354 0
-5428 35 0
5428 -5354 -35 0
-5429 5354 0
-5429 36 0
5429 -5354 -36 0
-5430 5356 0
-5430 36 0
5430 -5356 -36 0
-5431 5358 0
-5431 41 0
5431 -5358 -41 0
-5432 5358 0
-5432 45 0
5432 -5358 -45 0
-5433 5360 0
-5433 45 0
5433 -5360 -45 0
-5434 5362 0
-5434 83 0
5434 -5362 -83 0
-5435 5364 0
-5435 83 0
5435 -5364 -83 0
-5436 5366 0
-5436 89 0
5436 -5366 -89 0
-5437 5368 0
-5437 89 0
5437 -5368 -89 0
-5438 5370 0
-5438 131 0
5438 -5370 -131 0
-5439 5372 0
-5439 131 0
5439 -5372 -131 0
-5440 5374 0
-5440 137 0
5440 -5374 -137 0
-5441 5376 0
-5441 137 0
5441 -5376 -137 0
-5442 5378 0
-5442 179 0
5442 -5378 -179 0
-5443 5378 0
-5443 180 0
5443 -5378 -180 0
-5444 5380 0
-5444 180 0
5444 -5380 -180 0
-5445 5428 5429 0
-5445 -5428 -5429 0
5445 -5428 5429 0
5445 5428 -5429 0
-5446 5445 5430 0
-5446 -5445 -5430 0
5446 -5445 5430 0
5446 5445 -5430 0
-5447 5446 5431 0
-5447 -5446 -5431 0
5447 -5446 5431 0
5447 5446 -5431 0
-5448 5447 5432 0
-5448 -5447 -5432 0
5448 -5447 5432 0
5448 5447 -5432 0
-5449 5448 5433 0
-5449 -5448 -5433 0
5449 -5448 5433 0
5449 5448 -5433 0
-5450 5449 5434 0
-5450 -5449 -5434 0
5450 -5449 5434 0
5450 5449 -5434 0
-5451 5450 5435 0
-5451 -5450 -5435 0
5451 -5450 5435 0
5451 5450 -5435 0
-5452 5451 5436 0
-5452 -5451 -5436 0
5452 -5451 5436 0
5452 5451 -5436 0
-5453 5452 5437 0
-5453 -5452 -5437 0
5453 -5452 5437 0
5453 5452 -5437 0
-5454 5453 5438 0
-5454 -5453 -5438 0
5454 -5453 5438 0
5454 5453 -5438 0
-5455 5454 5439 0
-5455 -5454 -5439 0
5455 -5454 5439 0
5455 5454 -5439 0
-5456 5455 5440 0
-5456 -5455 -5440 0
5456 -5455 5440 0
5456 5455 -5440 0
-5457 5456 5441 0
-5457 -5456 -5441 0
5457 -5456 5441 0
5457 5456 -5441 0
-5458 5457 5442 0
-5458 -5457 -5442 0
5458 -5457 5442 0
5458 5457 -5442 0
-5459 5458 5443 0
-5459 -5458 -5443 0
5459 -5458 5443 0
5459 5458 -5443 0
-5460 5459 5444 0
-5460 -5459 -5444 0
5460 -5459 5444 0
5460 5459 -5444 0
-5460 0
-5461 5354 0
-5461 37 0
5461 -5354 -37 0
-5462 5356 0
-5462 41 0
5462 -5356 -41 0
-5463 5358 0
-5463 34 0
5463 -5358 -34 0
-5464 5360 0
-5464 35 0
5464 -5360 -35 0
-5465 5362 0
-5465 85 0
5465 -5362 -85 0
-5466 5364 0
-5466 93 0
5466 -5364 -93 0
-5467 5366 0
-5467 82 0
5467 -5366 -82 0
-5468 5368 0
-5468 84 0
5468 -5368 -84 0
-5469 5370 0
-5469 133 0
5469 -5370 -133 0
-5470 5372 0
-5470 141 0
5470 -5372 -141 0
-5471 5374 0
-5471 130 0
5471 -5374 -130 0
-5472 5376 0
-5472 132 0
5472 -5376 -132 0
-5473 5378 0
-5473 181 0
5473 -5378 -181 0
-5474 5380 0
-5474 185 0
5474 -5380 -185 0
-5475 5461 5461 0
-5475 -5461 -5461 0
5475 -5461 5461 0
5475 5461 -5461 0
-5476 5475 5462 0
-5476 -5475 -5462 0
5476 -5475 5462 0
5476 5475 -5462 0
-5477 5476 5463 0
-5477 -5476 -5463 0
5477 -5476 5463 0
5477 5476 -5463 0
-5478 5477 5463 0
-5478 -5477 -5463 0
5478 -5477 5463 0
5478 5477 -5463 0
-5479 5478 5464 0
-5479 -5478 -5464 0
5479 -5478 5464 0
5479 5478 -5464 0
-5480 5479 5465 0
-5480 -5479 -5465 0
5480 -5479 5465 0
5480 5479 -5465 0
-5481 5480 5466 0
-5481 -5480 -5466 0
5481 -5480 5466 0
5481 5480 -5466 0
-5482 5481 5467 0
-5482 -5481 -5467 0
5482 -5481 5467 0
5482 5481 -5467 0
-5483 5482 5468 0
-5483 -5482 -5468 0
5483 -5482 5468 0
5483 5482 -5468 0
-5484 5483 5469 0
-5484 -5483 -5469 0
5484 -5483 5469 0
5484 5483 -5469 0
-5485 5484 5470 0
-5485 -5484 -5470 0
5485 -5484 5470 0
5485 5484 -5470 0
-5486 5485 5471 0
-5486 -5485 -5471 0
5486 -5485 5471 0
5486 5485 -5471 0
-5487 5486 5472 0
-5487 -5486 -5472 0
5487 -5486 5472 0
5487 5486 -5472 0
-5488 5487 5473 0
-5488 -5487 -5473 0
5488 -5487 5473 0
5488 5487 -5473 0
-5489 5488 5473 0
-5489 -5488 -5473 0
5489 -5488 5473 0
5489 5488 -5473 0
-5490 5489 5474 0
-5490 -5489 -5474 0
5490 -5489 5474 0
5490 5489 -5474 0
-5490 0
-5491 5354 0
-5491 38 0
5491 -5354 -38 0
-5492 5356 0
-5492 43 0
5492 -5356 -43 0
-5493 5358 0
-5493 38 0
5493 -5358 -38 0
-5494 5360 0
-5494 43 0
5494 -5360 -43 0
-5495 5362 0
-5495 86 0
5495 -5362 -86 0
-5496 5364 0
-5496 96 0
5496 -5364 -96 0
-5497 5366 0
-5497 86 0
5497 -5366 -86 0
-5498 5368 0
-5498 96 0
5498 -5368 -96 0
-5499 5370 0
-5499 134 0
5499 -5370 -134 0
-5500 5372 0
-5500 144 0
5500 -5372 -144 0
-5501 5374 0
-5501 134 0
5501 -5374 -134 0
-5502 5376 0
-5502 144 0
5502 -5376 -144 0
-5503 5378 0
-5503 182 0
5503 -5378 -182 0
-5504 5380 0
-5504 187 0
5504 -5380 -187 0
-5505 5491 5491 0
-5505 -5491 -5491 0
5505 -5491 5491 0
5505 5491 -5491 0
-5506 5505 5492 0
-5506 -5505 -5492 0
5506 -5505 5492 0
5506 5505 -5492 0
-5507 5506 5493 0
-5507 -5506 -5493 0
5507 -5506 5493 0
5507 5506 -5493 0
-5508 5507 5493 0
-5508 -5507 -5493 0
5508 -5507 5493 0
5508 5507 -5493 0
-5509 5508 5494 0
-5509 -5508 -5494 0
5509 -5508 5494 0
5509 5508 -5494 0
-5510 5509 5495 0
-5510 -5509 -5495 0
5510 -5509 5495 0
5510 5509 -5495 0
-5511 5510 5496 0
-5511 -5510 -5496 0
5511 -5510 5496 0
5511 5510 -5496 0
-5512 5511 5497 0
-5512 -5511 -5497 0
5512 -5511 5497 0
5512 5511 -5497 0
-5513 5512 5498 0
-5513 -5512 -5498 0
5513 -5512 5498 0
5513 5512 -5498 0
-5514 5513 5499 0
-5514 -5513 -5499 0
5514 -5513 5499 0
5514 5513 -5499 0
-5515 5514 5500 0
-5515 -5514 -5500 0
5515 -5514 5500 0
5515 5514 -5500 0
-5516 5515 5501 0
-5516 -5515 -5501 0
5516 -5515 5501 0
5516 5515 -5501 0
-5517 5516 5502 0
-5517 -5516 -5502 0
5517 -5516 5502 0
5517 5516 -5502 0
-5518 5517 5503 0
-5518 -5517 -5503 0
5518 -5517 5503 0
5518 5517 -5503 0
-5519 5518 5503 0
-5519 -5518 -5503 0
5519 -5518 5503 0
5519 5518 -5503 0
-5520 5519 5504 0
-5520 -5519 -5504 0
5520 -5519 5504 0
5520 5519 -5504 0
-5520 0
-5521 5354 0
-5521 39 0
5521 -5354 -39 0
-5522 5354 0
-5522 40 0
5522 -5354 -40 0
-5523 5356 0
-5523 44 0
5523 -5356 -44 0
-5524 5358 0
-5524 42 0
5524 -5358 -42 0
-5525 5358 0
-5525 46 0
5525 -5358 -46 0
-5526 5360 0
-5526 47 0
5526 -5360 -47 0
-5527 5362 0
-5527 87 0
5527 -5362 -87 0
-5528 5364 0
-5528 95 0
5528 -5364 -95 0
-5529 5366 0
-5529 90 0
5529 -5366 -90 0
-5530 5368 0
-5530 92 0
5530 -5368 -92 0
-5531 5370 0
-5531 135 0
5531 -5370 -135 0
-5532 5372 0
-5532 143 0
5532 -5372 -143 0
-5533 5374 0
-5533 138 0
5533 -5374 -138 0
-5534 5376 0
-5534 140 0
5534 -5376 -140 0
-5535 5378 0
-5535 183 0
5535 -5378 -183 0
-5536 5378 0
-5536 184 0
5536 -5378 -184 0
-5537 5380 0
-5537 188 0
5537 -5380 -188 0
-5538 5521 5522 0
-5538 -5521 -5522 0
5538 -5521 5522 0
5538 5521 -5522 0
-5539 5538 5523 0
-5539 -5538 -5523 0
5539 -5538 5523 0
5539 5538 -5523 0
-5540 5539 5524 0
-5540 -5539 -5524 0
5540 -5539 5524 0
5540 5539 -5524 0
-5541 5540 5525 0
-5541 -5540 -5525 0
5541 -5540 5525 0
5541 5540 -5525 0
-5542 5541 5526 0
-5542 -5541 -5526 0
5542 -5541 5526 0
5542 5541 -5526 0
-5543 5542 5527 0
-5543 -5542 -5527 0
5543 -5542 5527 0
5543 5542 -5527 0
-5544 5543 5528 0
-5544 -5543 -5528 0
5544 -5543 5528 0
5544 5543 -5528 0
-5545 5544 5529 0
-5545 -5544 -5529 0
5545 -5544 5529 0
5545 5544 -5529 0
-5546 5545 5530 0
-5546 -5545 -5530 0
5546 -5545 5530 0
5546 5545 -5530 0
-5547 5546 5531 0
-5547 -5546 -5531 0
5547 -5546 5531 0
5547 5546 -5531 0
-5548 5547 5532 0
-5548 -5547 -5532 0
5548 -5547 5532 0
5548 5547 -5532 0
-5549 5548 5533 0
-5549 -5548 -5533 0
5549 -5548 5533 0
5549 5548 -5533 0
-5550 5549 5534 0
-5550 -5549 -5534 0
5550 -5549 5534 0
5550 5549 -5534 0
-5551 5550 5535 0
-5551 -5550 -5535 0
5551 -5550 5535 0
5551 5550 -5535 0
-5552 5551 5536 0
-5552 -5551 -5536 0
5552 -5551 5536 0
5552 5551 -5536 0
-5553 5552 5537 0
-5553 -5552 -5537 0
5553 -5552 5537 0
5553 5552 -5537 0
-5553 0
-5554 5354 0
-5554 41 0
5554 -5354 -41 0
-5555 5354 0
-5555 45 0
5555 -5354 -45 0
-5556 5356 0
-5556 45 0
5556 -5356 -45 0
-5557 5358 0
-5557 35 0
5557 -5358 -35 0
-5558 5358 0
-5558 36 0
5558 -5358 -36 0
-5559 5360 0
-5559 36 0
5559 -5360 -36 0
-5560 5362 0
-5560 89 0
5560 -5362 -89 0
-5561 5364 0
-5561 89 0
5561 -5364 -89 0
-5562 5366 0
-5562 83 0
5562 -5366 -83 0
-5563 5368 0
-5563 83 0
5563 -5368 -83 0
-5564 5370 0
-5564 137 0
5564 -5370 -137 0
-5565 5372 0
-5565 137 0
5565 -5372 -137 0
-5566 5374 0
-5566 131 0
5566 -5374 -131 0
-5567 5376 0
-5567 131 0
5567 -5376 -131 0
-5568 5378 0
-5568 185 0
5568 -5378 -185 0
-5569 5378 0
-5569 189 0
5569 -5378 -189 0
-5570 5380 0
-5570 189 0
5570 -5380 -189 0
-5571 5554 5555 0
-5571 -5554 -5555 0
5571 -5554 5555 0
5571 5554 -5555 0
-5572 5571 5556 0
-5572 -5571 -5556 0
5572 -5571 5556 0
5572 5571 -5556 0
-5573 5572 5557 0
-5573 -5572 -5557 0
5573 -5572 5557 0
5573 5572 -5557 0
-5574 5573 5558 0
-5574 -5573 -5558 0
5574 -5573 5558 0
5574 5573 -5558 0
-5575 5574 5559 0
-5575 -5574 -5559 0
5575 -5574 5559 0
5575 5574 -5559 0
-5576 5575 5560 0
-5576 -5575 -5560 0
5576 -5575 5560 0
5576 5575 -5560 0
-5577 5576 5561 0
-5577 -5576 -5561 0
5577 -5576 5561 0
5577 5576 -5561 0
-5578 5577 5562 0
-5578 -5577 -5562 0
5578 -5577 5562 0
5578 5577 -5562 0
-5579 5578 5563 0
-5579 -5578 -5563 0
5579 -5578 5563 0
5579 5578 -5563 0
-5580 5579 5564 0
-5580 -5579 -5564 0
5580 -5579 5564 0
5580 5579 -5564 0
-5581 5580 5565 0
-5581 -5580 -5565 0
5581 -5580 5565 0
5581 5580 -5565 0
-5582 5581 5566 0
-5582 -5581 -5566 0
5582 -5581 5566 0
5582 5581 -5566 0
-5583 5582 5567 0
-5583 -5582 -5567 0
5583 -5582 5567 0
5583 5582 -5567 0
-5584 5583 5568 0
-5584 -5583 -5568 0
5584 -5583 5568 0
5584 5583 -5568 0
-5585 5584 5569 0
-5585 -5584 -5569 0
5585 -5584 5569 0
5585 5584 -5569 0
-5586 5585 5570 0
-5586 -5585 -5570 0
5586 -5585 5570 0
5586 5585 -5570 0
-5586 0
-5587 5354 0
-5587 42 0
5587 -5354 -42 0
-5588 5354 0
-5588 46 0
5588 -5354 -46 0
-5589 5356 0
-5589 47 0
5589 -5356 -47 0
-5590 5358 0
-5590 39 0
5590 -5358 -39 0
-5591 5358 0
-5591 40 0
5591 -5358 -40 0
-5592 5360 0
-5592 44 0
5592 -5360 -44 0
-5593 5362 0
-5593 90 0
5593 -5362 -90 0
-5594 5364 0
-5594 92 0
5594 -5364 -92 0
-5595 5366 0
-5595 87 0
5595 -5366 -87 0
-5596 5368 0
-5596 95 0
5596 -5368 -95 0
-5597 5370 0
-5597 138 0
5597 -5370 -138 0
-5598 5372 0
-5598 140 0
5598 -5372 -140 0
-5599 5374 0
-5599 135 0
5599 -5374 -135 0
-5600 5376 0
-5600 143 0
5600 -5376 -143 0
-5601 5378 0
-5601 186 0
5601 -5378 -186 0
-5602 5378 0
-5602 190 0
5602 -5378 -190 0
-5603 5380 0
-5603 191 0
5603 -5380 -191 0
-5604 5587 5588 0
-5604 -5587 -5588 0
5604 -5587 5588 0
5604 5587 -5588 0
-5605 5604 5589 0
-5605 -5604 -5589 0
5605 -5604 5589 0
5605 5604 -5589 0
-5606 5605 5590 0
-5606 -5605 -5590 0
5606 -5605 5590 0
5606 5605 -5590 0
-5607 5606 5591 0
-5607 -5606 -5591 0
5607 -5606 5591 0
5607 5606 -5591 0
-5608 5607 5592 0
-5608 -5607 -5592 0
5608 -5607 5592 0
5608 5607 -5592 0
-5609 5608 5593 0
-5609 -5608 -5593 0
5609 -5608 5593 0
5609 5608 -5593 0
-5610 5609 5594 0
-5610 -5609 -5594 0
5610 -5609 5594 0
5610 5609 -5594 0
-5611 5610 5595 0
-5611 -5610 -5595 0
5611 -5610 5595 0
5611 5610 -5595 0
-5612 5611 5596 0
-5612 -5611 -5596 0
5612 -5611 5596 0
5612 5611 -5596 0
-5613 5612 5597 0
-5613 -5612 -5597 0
5613 -5612 5597 0
5613 5612 -5597 0
-5614 5613 5598 0
-5614 -5613 -5598 0
5614 -5613 5598 0
5614 5613 -5598 0
-5615 5614 5599 0
-5615 -5614 -5599 0
5615 -5614 5599 0
5615 5614 -5599 0
-5616 5615 5600 0
-5616 -5615 -5600 0
5616 -5615 5600 0
5616 5615 -5600 0
-5617 5616 5601 0
-5617 -5616 -5601 0
5617 -5616 5601 0
5617 5616 -5601 0
-5618 5617 5602 0
-5618 -5617 -5602 0
5618 -5617 5602 0
5618 5617 -5602 0
-5619 5618 5603 0
-5619 -5618 -5603 0
5619 -5618 5603 0
5619 5618 -5603 0
-5619 0
-5620 5354 0
-5620 43 0
5620 -5354 -43 0
-5621 5354 0
-5621 48 0
5621 -5354 -48 0
-5622 5356 0
-5622 48 0
5622 -5356 -48 0
-5623 5358 0
-5623 43 0
5623 -5358 -43 0
-5624 5358 0
-5624 48 0
5624 -5358 -48 0
-5625 5360 0
-5625 48 0
5625 -5360 -48 0
-5626 5362 0
-5626 91 0
5626 -5362 -91 0
-5627 5364 0
-5627 91 0
5627 -5364 -91 0
-5628 5366 0
-5628 91 0
5628 -5366 -91 0
-5629 5368 0
-5629 91 0
5629 -5368 -91 0
-5630 5370 0
-5630 139 0
5630 -5370 -139 0
-5631 5372 0
-5631 139 0
5631 -5372 -139 0
-5632 5374 0
-5632 139 0
5632 -5374 -139 0
-5633 5376 0
-5633 139 0
5633 -5376 -139 0
-5634 5378 0
-5634 187 0
5634 -5378 -187 0
-5635 5378 0
-5635 192 0
5635 -5378 -192 0
-5636 5380 0
-5636 192 0
5636 -5380 -192 0
-5637 5620 5621 0
-5637 -5620 -5621 0
5637 -5620 5621 0
5637 5620 -5621 0
-5638 5637 5622 0
-5638 -5637 -5622 0
5638 -5637 5622 0
5638 5637 -5622 0
-5639 5638 5623 0
-5639 -5638 -5623 0
5639 -5638 5623 0
5639 5638 -5623 0
-5640 5639 5624 0
-5640 -5639 -5624 0
5640 -5639 5624 0
5640 5639 -5624 0
-5641 5640 5625 0
-5641 -5640 -5625 0
5641 -5640 5625 0
5641 5640 -5625 0
-5642 5641 5626 0
-5642 -5641 -5626 0
5642 -5641 5626 0
5642 5641 -5626 0
-5643 5642 5627 0
-5643 -5642 -5627 0
5643 -5642 5627 0
5643 5642 -5627 0
-5644 5643 5628 0
-5644 -5643 -5628 0
5644 -5643 5628 0
5644 5643 -5628 0
-5645 5644 5629 0
-5645 -5644 -5629 0
5645 -5644 5629 0
5645 5644 -5629 0
-5646 5645 5630 0
-5646 -5645 -5630 0
5646 -5645 5630 0
5646 5645 -5630 0
-5647 5646 5631 0
-5647 -5646 -5631 0
5647 -5646 5631 0
5647 5646 -5631 0
-5648 5647 5632 0
-5648 -5647 -5632 0
5648 -5647 5632 0
5648 5647 -5632 0
-5649 5648 5633 0
-5649 -5648 -5633 0
5649 -5648 5633 0
5649 5648 -5633 0
-5650 5649 5634 0
-5650 -5649 -5634 0
5650 -5649 5634 0
5650 5649 -5634 0
-5651 5650 5635 0
-5651 -5650 -5635 0
5651 -5650 5635 0
5651 5650 -5635 0
-5652 5651 5636 0
-5652 -5651 -5636 0
5652 -5651 5636 0
5652 5651 -5636 0
-5652 0
-5653 5354 0
-5653 44 0
5653 -5354 -44 0
-5654 5354 0
-5654 47 0
5654 -5354 -47 0
-5655 5356 0
-5655 46 0
5655 -5356 -46 0
-5656 5358 0
-5656 47 0
5656 -5358 -47 0
-5657 5358 0
-5657 44 0
5657 -5358 -44 0
-5658 5360 0
-5658 40 0
5658 -5360 -40 0
-5659 5362 0
-5659 92 0
5659 -5362 -92 0
-5660 5364 0
-5660 90 0
5660 -5364 -90 0
-5661 5366 0
-5661 95 0
5661 -5366 -95 0
-5662 5368 0
-5662 87 0
5662 -5368 -87 0
-5663 5370 0
-5663 140 0
5663 -5370 -140 0
-5664 5372 0
-5664 138 0
5664 -5372 -138 0
-5665 5374 0
-5665 143 0
5665 -5374 -143 0
-5666 5376 0
-5666 135 0
5666 -5376 -135 0
-5667 5378 0
-5667 188 0
5667 -5378 -188 0
-5668 5378 0
-5668 191 0
5668 -5378 -191 0
-5669 5380 0
-5669 190 0
5669 -5380 -190 0
-5670 5653 5654 0
-5670 -5653 -5654 0
5670 -5653 5654 0
5670 5653 -5654 0
-5671 5670 5655 0
-5671 -5670 -5655 0
5671 -5670 5655 0
5671 5670 -5655 0
-5672 5671 5656 0
-5672 -5671 -5656 0
5672 -5671 5656 0
5672 5671 -5656 0
-5673 5672 5657 0
-5673 -5672 -5657 0
5673 -5672 5657 0
5673 5672 -5657 0
-5674 5673 5658 0
-5674 -5673 -5658 0
5674 -5673 5658 0
5674 5673 -5658 0
-5675 5674 5659 0
-5675 -5674 -5659 0
5675 -5674 5659 0
5675 5674 -5659 0
-5676 5675 5660 0
-5676 -5675 -5660 0
5676 -5675 5660 0
5676 5675 -5660 0
-5677 5676 5661 0
-5677 -5676 -5661 0
5677 -5676 5661 0
5677 5676 -5661 0
-5678 5677 5662 0
-5678 -5677 -5662 0
5678 -5677 5662 0
5678 5677 -5662 0
-5679 5678 5663 0
-5679 -5678 -5663 0
5679 -5678 5663 0
5679 5678 -5663 0
-5680 5679 5664 0
-5680 -5679 -5664 0
5680 -5679 5664 0
5680 5679 -5664 0
-5681 5680 5665 0
-5681 -5680 -5665 0
5681 -5680 5665 0
5681 5680 -5665 0
-5682 5681 5666 0
-5682 -5681 -5666 0
5682 -5681 5666 0
5682 5681 -5666 0
-5683 5682 5667 0
-5683 -5682 -5667 0
5683 -5682 5667 0
5683 5682 -5667 0
-5684 5683 5668 0
-5684 -5683 -5668 0
5684 -5683 5668 0
5684 5683 -5668 0
-5685 5684 5669 0
-5685 -5684 -5669 0
5685 -5684 5669 0
5685 5684 -5669 0
-5685 0
-5686 5 0
-5686 18 0
5686 -5 -18 0
-5687 5686 0
-5687 33 0
5687 -5686 -33 0
-5688 6 0
-5688 22 0
5688 -6 -22 0
-5689 5688 0
-5689 33 0
5689 -5688 -33 0
-5690 10 0
-5690 23 0
5690 -10 -23 0
-5691 5690 0
-5691 33 0
5691 -5690 -33 0
-5692 53 0
-5692 66 0
5692 -53 -66 0
-5693 5692 0
-5693 81 0
5693 -5692 -81 0
-5694 61 0
-5694 68 0
5694 -61 -68 0
-5695 5694 0
-5695 81 0
5695 -5694 -81 0
-5696 101 0
-5696 114 0
5696 -101 -114 0
-5697 5696 0
-5697 129 0
5697 -5696 -129 0
-5698 109 0
-5698 116 0
5698 -109 -116 0
-5699 5698 0
-5699 129 0
5699 -5698 -129 0
-5700 149 0
-5700 162 0
5700 -149 -162 0
-5701 5700 0
-5701 177 0
5701 -5700 -177 0
-5702 150 0
-5702 166 0
5702 -150 -166 0
-5703 5702 0
-5703 177 0
5703 -5702 -177 0
-5704 154 0
-5704 167 0
5704 -154 -167 0
-5705 5704 0
-5705 177 0
5705 -5704 -177 0
-5706 5687 5689 0
-5706 -5687 -5689 0
5706 -5687 5689 0
5706 5687 -5689 0
-5707 5706 5691 0
-5707 -5706 -5691 0
5707 -5706 5691 0
5707 5706 -5691 0
-5708 5707 5687 0
-5708 -5707 -5687 0
5708 -5707 5687 0
5708 5707 -5687 0
-5709 5708 5689 0
-5709 -5708 -5689 0
5709 -5708 5689 0
5709 5708 -5689 0
-5710 5709 5691 0
-5710 -5709 -5691 0
5710 -5709 5691 0
5710 5709 -5691 0
-5711 5710 5693 0
-5711 -5710 -5693 0
5711 -5710 5693 0
5711 5710 -5693 0
-5712 5711 5695 0
-5712 -5711 -5695 0
5712 -5711 5695 0
5712 5711 -5695 0
-5713 5712 5693 0
-5713 -5712 -5693 0
5713 -5712 5693 0
5713 5712 -5693 0
-5714 5713 5695 0
-5714 -5713 -5695 0
5714 -5713 5695 0
5714 5713 -5695 0
-5715 5714 5697 0
-5715 -5714 -5697 0
5715 -5714 5697 0
5715 5714 -5697 0
-5716 5715 5699 0
-5716 -5715 -5699 0
5716 -5715 5699 0
5716 5715 -5699 0
-5717 5716 5697 0
-5717 -5716 -5697 0
5717 -5716 5697 0
5717 5716 -5697 0
-5718 5717 5699 0
-5718 -5717 -5699 0
5718 -5717 5699 0
5718 5717 -5699 0
-5719 5718 5701 0
-5719 -5718 -5701 0
5719 -5718 5701 0
5719 5718 -5701 0
-5720 5719 5703 0
-5720 -5719 -5703 0
5720 -5719 5703 0
5720 5719 -5703 0
-5721 5720 5705 0
-5721 -5720 -5705 0
5721 -5720 5705 0
5721 5720 -5705 0
-5721 0
-5722 5686 0
-5722 34 0
5722 -5686 -34 0
-5723 5688 0
-5723 34 0
5723 -5688 -34 0
-5724 5690 0
-5724 35 0
5724 -5690 -35 0
-5725 5686 0
-5725 37 0
5725 -5686 -37 0
-5726 5688 0
-5726 37 0
5726 -5688 -37 0
-5727 5690 0
-5727 41 0
5727 -5690 -41 0
-5728 5692 0
-5728 82 0
5728 -5692 -82 0
-5729 5694 0
-5729 84 0
5729 -5694 -84 0
-5730 5692 0
-5730 85 0
5730 -5692 -85 0
-5731 5694 0
-5731 93 0
5731 -5694 -93 0
-5732 5696 0
-5732 130 0
5732 -5696 -130 0
-5733 5698 0
-5733 132 0
5733 -5698 -132 0
-5734 5696 0
-5734 133 0
5734 -5696 -133 0
-5735 5698 0
-5735 141 0
5735 -5698 -141 0
-5736 5700 0
-5736 178 0
5736 -5700 -178 0
-5737 5702 0
-5737 178 0
5737 -5702 -178 0
-5738 5704 0
-5738 179 0
5738 -5704 -179 0
-5739 5722 5723 0
-5739 -5722 -5723 0
5739 -5722 5723 0
5739 5722 -5723 0
-5740 5739 5724 0
-5740 -5739 -5724 0
5740 -5739 5724 0
5740 5739 -5724 0
-5741 5740 5725 0
-5741 -5740 -5725 0
5741 -5740 5725 0
5741 5740 -5725 0
-5742 5741 5726 0
-5742 -5741 -5726 0
5742 -5741 5726 0
5742 5741 -5726 0
-5743 5742 5727 0
-5743 -5742 -5727 0
5743 -5742 5727 0
5743 5742 -5727 0
-5744 5743 5728 0
-5744 -5743 -5728 0
5744 -5743 5728 0
5744 5743 -5728 0
-5745 5744 5729 0
-5745 -5744 -5729 0
5745 -5744 5729 0
5745 5744 -5729 0
-5746 5745 5730 0
-5746 -5745 -5730 0
5746 -5745 5730 0
5746 5745 -5730 0
-5747 5746 5731 0
-5747 -5746 -5731 0
5747 -5746 5731 0
5747 5746 -5731 0
-5748 5747 5732 0
-5748 -5747 -5732 0
5748 -5747 5732 0
5748 5747 -5732 0
-5749 5748 5733 0
-5749 -5748 -5733 0
5749 -5748 5733 0
5749 5748 -5733 0
-5750 5749 5734 0
-5750 -5749 -5734 0
5750 -5749 5734 0
5750 5749 -5734 0
-5751 5750 5735 0
-5751 -5750 -5735 0
5751 -5750 5735 0
5751 5750 -5735 0
-5752 5751 5736 0
-5752 -5751 -5736 0
5752 -5751 5736 0
5752 5751 -5736 0
-5753 5752 5737 0
-5753 -5752 -5737 0
5753 -5752 5737 0
5753 5752 -5737 0
-5754 5753 5738 0
-5754 -5753 -5738 0
5754 -5753 5738 0
5754 5753 -5738 0
-5754 0
-5755 5686 0
-5755 35 0
5755 -5686 -35 0
-5756 5688 0
-5756 36 0
5756 -5688 -36 0
-5757 5690 0
-5757 36 0
5757 -5690 -36 0
-5758 5686 0
-5758 41 0
5758 -5686 -41 0
-5759 5688 0
-5759 45 0
5759 -5688 -45 0
-5760 5690 0
-5760 45 0
5760 -5690 -45 0
-5761 5692 0
-5761 83 0
5761 -5692 -83 0
-5762 5694 0
-5762 83 0
5762 -5694 -83 0
-5763 5692 0
-5763 89 0
5763 -5692 -89 0
-5764 5694 0
-5764 89 0
5764 -5694 -89 0
-5765 5696 0
-5765 131 0
5765 -5696 -131 0
-5766 5698 0
-5766 131 0
5766 -5698 -131 0
-5767 5696 0
-5767 137 0
5767 -5696 -137 0
-5768 5698 0
-5768 137 0
5768 -5698 -137 0
-5769 5700 0
-5769 179 0
5769 -5700 -179 0
-5770 5702 0
-5770 180 0
5770 -5702 -180 0
-5771 5704 0
-5771 180 0
5771 -5704 -180 0
-5772 5755 5756 0
-5772 -5755 -5756 0
5772 -5755 5756 0
5772 5755 -5756 0
-5773 5772 5757 0
-5773 -5772 -5757 0
5773 -5772 5757 0
5773 5772 -5757 0
-5774 5773 5758 0
-5774 -5773 -5758 0
5774 -5773 5758 0
5774 5773 -5758 0
-5775 5774 5759 0
-5775 -5774 -5759 0
5775 -5774 5759 0
5775 5774 -5759 0
-5776 5775 5760 0
-5776 -5775 -5760 0
5776 -5775 5760 0
5776 5775 -5760 0
-5777 5776 5761 0
-5777 -5776 -5761 0
5777 -5776 5761 0
5777 5776 -5761 0
-5778 5777 5762 0
-5778 -5777 -5762 0
5778 -5777 5762 0
5778 5777 -5762 0
-5779 5778 5763 0
-5779 -5778 -5763 0
5779 -5778 5763 0
5779 5778 -5763 0
-5780 5779 5764 0
-5780 -5779 -5764 0
5780 -5779 5764 0
5780 5779 -5764 0
-5781 5780 5765 0
-5781 -5780 -5765 0
5781 -5780 5765 0
5781 5780 -5765 0
-5782 5781 5766 0
-5782 -5781 -5766 0
5782 -5781 5766 0
5782 5781 -5766 0
-5783 5782 5767 0
-5783 -5782 -5767 0
5783 -5782 5767 0
5783 5782 -5767 0
-5784 5783 5768 0
-5784 -5783 -5768 0
5784 -5783 5768 0
5784 5783 -5768 0
-5785 5784 5769 0
-5785 -5784 -5769 0
5785 -5784 5769 0
5785 5784 -5769 0
-5786 5785 5770 0
-5786 -5785 -5770 0
5786 -5785 5770 0
5786 5785 -5770 0
-5787 5786 5771 0
-5787 -5786 -5771 0
5787 -5786 5771 0
5787 5786 -5771 0
-5787 0
-5788 5686 0
-5788 36 0
5788 -5686 -36 0
-5789 5688 0
-5789 35 0
5789 -5688 -35 0
-5790 5690 0
-5790 34 0
5790 -5690 -34 0
-5791 5686 0
-5791 45 0
5791 -5686 -45 0
-5792 5688 0
-5792 41 0
5792 -5688 -41 0
-5793 5690 0
-5793 37 0
5793 -5690 -37 0
-5794 5692 0
-5794 84 0
5794 -5692 -84 0
-5795 5694 0
-5795 82 0
5795 -5694 -82 0
-5796 5692 0
-5796 93 0
5796 -5692 -93 0
-5797 5694 0
-5797 85 0
5797 -5694 -85 0
-5798 5696 0
-5798 132 0
5798 -5696 -132 0
-5799 5698 0
-5799 130 0
5799 -5698 -130 0
-5800 5696 0
-5800 141 0
5800 -5696 -141 0
-5801 5698 0
-5801 133 0
5801 -5698 -133 0
-5802 5700 0
-5802 180 0
5802 -5700 -180 0
-5803 5702 0
-5803 179 0
5803 -5702 -179 0
-5804 5704 0
-5804 178 0
5804 -5704 -178 0
-5805 5788 5789 0
-5805 -5788 -5789 0
5805 -5788 5789 0
5805 5788 -5789 0
-5806 5805 5790 0
-5806 -5805 -5790 0
5806 -5805 5790 0
5806 5805 -5790 0
-5807 5806 5791 0
-5807 -5806 -5791 0
5807 -5806 5791 0
5807 5806 -5791 0
-5808 5807 5792 0
-5808 -5807 -5792 0
5808 -5807 5792 0
5808 5807 -5792 0
-5809 5808 5793 0
-5809 -5808 -5793 0
5809 -5808 5793 0
5809 5808 -5793 0
-5810 5809 5794 0
-5810 -5809 -5794 0
5810 -5809 5794 0
5810 5809 -5794 0
-5811 5810 5795 0
-5811 -5810 -5795 0
5811 -5810 5795 0
5811 5810 -5795 0
-5812 5811 5796 0
-5812 -5811 -5796 0
5812 -5811 5796 0
5812 5811 -5796 0
-5813 5812 5797 0
-5813 -5812 -5797 0
5813 -5812 5797 0
5813 5812 -5797 0
-5814 5813 5798 0
-5814 -5813 -5798 0
5814 -5813 5798 0
5814 5813 -5798 0
-5815 5814 5799 0
-5815 -5814 -5799 0
5815 -5814 5799 0
5815 5814 -5799 0
-5816 5815 5800 0
-5816 -5815 -5800 0
5816 -5815 5800 0
5816 5815 -5800 0
-5817 5816 5801 0
-5817 -5816 -5801 0
5817 -5816 5801 0
5817 5816 -5801 0
-5818 5817 5802 0
-5818 -5817 -5802 0
5818 -5817 5802 0
5818 5817 -5802 0
-5819 5818 5803 0
-5819 -5818 -5803 0
5819 -5818 5803 0
5819 5818 -5803 0
-5820 5819 5804 0
-5820 -5819 -5804 0
5820 -5819 5804 0
5820 5819 -5804 0
-5820 0
-5821 5686 0
-5821 38 0
5821 -5686 -38 0
-5822 5688 0
-5822 38 0
5822 -5688 -38 0
-5823 5690 0
-5823 43 0
5823 -5690 -43 0
-5824 5692 0
-5824 86 0
5824 -5692 -86 0
-5825 5694 0
-5825 96 0
5825 -5694 -96 0
-5826 5696 0
-5826 134 0
5826 -5696 -134 0
-5827 5698 0
-5827 144 0
5827 -5698 -144 0
-5828 5700 0
-5828 182 0
5828 -5700 -182 0
-5829 5702 0
-5829 182 0
5829 -5702 -182 0
-5830 5704 0
-5830 187 0
5830 -5704 -187 0
-5831 5821 5822 0
-5831 -5821 -5822 0
5831 -5821 5822 0
5831 5821 -5822 0
-5832 5831 5823 0
-5832 -5831 -5823 0
5832 -5831 5823 0
5832 5831 -5823 0
-5833 5832 5821 0
-5833 -5832 -5821 0
5833 -5832 5821 0
5833 5832 -5821 0
-5834 5833 5822 0
-5834 -5833 -5822 0
5834 -5833 5822 0
5834 5833 -5822 0
-5835 5834 5823 0
-5835 -5834 -5823 0
5835 -5834 5823 0
5835 5834 -5823 0
-5836 5835 5824 0
-5836 -5835 -5824 0
5836 -5835 5824 0
5836 5835 -5824 0
-5837 5836 5825 0
-5837 -5836 -5825 0
5837 -5836 5825 0
5837 5836 -5825 0
-5838 5837 5824 0
-5838 -5837 -5824 0
5838 -5837 5824 0
5838 5837 -5824 0
-5839 5838 5825 0
-5839 -5838 -5825 0
5839 -5838 5825 0
5839 5838 -5825 0
-5840 5839 5826 0
-5840 -5839 -5826 0
5840 -5839 5826 0
5840 5839 -5826 0
-5841 5840 5827 0
-5841 -5840 -5827 0
5841 -5840 5827 0
5841 5840 -5827 0
-5842 5841 5826 0
-5842 -5841 -5826 0
5842 -5841 5826 0
5842 5841 -5826 0
-5843 5842 5827 0
-5843 -5842 -5827 0
5843 -5842 5827 0
5843 5842 -5827 0
-5844 5843 5828 0
-5844 -5843 -5828 0
5844 -5843 5828 0
5844 5843 -5828 0
-5845 5844 5829 0
-5845 -5844 -5829 0
5845 -5844 5829 0
5845 5844 -5829 0
-5846 5845 5830 0
-5846 -5845 -5830 0
5846 -5845 5830 0
5846 5845 -5830 0
-5846 0
-5847 5686 0
-5847 39 0
5847 -5686 -39 0
-5848 5688 0
-5848 40 0
5848 -5688 -40 0
-5849 5690 0
-5849 44 0
5849 -5690 -44 0
-5850 5686 0
-5850 42 0
5850 -5686 -42 0
-5851 5688 0
-5851 46 0
5851 -5688 -46 0
-5852 5690 0
-5852 47 0
5852 -5690 -47 0
-5853 5692 0
-5853 87 0
5853 -5692 -87 0
-5854 5694 0
-5854 95 0
5854 -5694 -95 0
-5855 5692 0
-5855 90 0
5855 -5692 -90 0
-5856 5694 0
-5856 92 0
5856 -5694 -92 0
-5857 5696 0
-5857 135 0
5857 -5696 -135 0
-5858 5698 0
-5858 143 0
5858 -5698 -143 0
-5859 5696 0
-5859 138 0
5859 -5696 -138 0
-5860 5698 0
-5860 140 0
5860 -5698 -140 0
-5861 5700 0
-5861 183 0
5861 -5700 -183 0
-5862 5702 0
-5862 184 0
5862 -5702 -184 0
-5863 5704 0
-5863 188 0
5863 -5704 -188 0
-5864 5847 5848 0
-5864 -5847 -5848 0
5864 -5847 5848 0
5864 5847 -5848 0
-5865 5864 5849 0
-5865 -5864 -5849 0
5865 -5864 5849 0
5865 5864 -5849 0
-5866 5865 5850 0
-5866 -5865 -5850 0
5866 -5865 5850 0
5866 5865 -5850 0
-5867 5866 5851 0
-5867 -5866 -5851 0
5867 -5866 5851 0
5867 5866 -5851 0
-5868 5867 5852 0
-5868 -5867 -5852 0
5868 -5867 5852 0
5868 5867 -5852 0
-5869 5868 5853 0
-5869 -5868 -5853 0
5869 -5868 5853 0
5869 5868 -5853 0
-5870 5869 5854 0
-5870 -5869 -5854 0
5870 -5869 5854 0
5870 5869 -5854 0
-5871 5870 5855 0
-5871 -5870 -5855 0
5871 -5870 5855 0
5871 5870 -5855 0
-5872 5871 5856 0
-5872 -5871 -5856 0
5872 -5871 5856 0
5872 5871 -5856 0
-5873 5872 5857 0
-5873 -5872 -5857 0
5873 -5872 5857 0
5873 5872 -5857 0
-5874 5873 5858 0
-5874 -5873 -5858 0
5874 -5873 5858 0
5874 5873 -5858 0
-5875 5874 5859 0
-5875 -5874 -5859 0
5875 -5874 5859 0
5875 5874 -5859 0
-5876 5875 5860 0
-5876 -5875 -5860 0
5876 -5875 5860 0
5876 5875 -5860 0
-5877 5876 5861 0
-5877 -5876 -5861 0
5877 -5876 5861 0
5877 5876 -5861 0
-5878 5877 5862 0
-5878 -5877 -5862 0
5878 -5877 5862 0
5878 5877 -5862 0
-5879 5878 5863 0
-5879 -5878 -5863 0
5879 -5878 5863 0
5879 5878 -5863 0
-5879 0
-5880 5686 0
-5880 40 0
5880 -5686 -40 0
-5881 5688 0
-5881 39 0
5881 -5688 -39 0
-5882 5690 0
-5882 42 0
5882 -5690 -42 0
-5883 5686 0
-5883 46 0
5883 -5686 -46 0
-5884 5688 0
-5884 42 0
5884 -5688 -42 0
-5885 5690 0
-5885 39 0
5885 -5690 -39 0
-5886 5692 0
-5886 88 0
5886 -5692 -88 0
-5887 5694 0
-5887 94 0
5887 -5694 -94 0
-5888 5692 0
-5888 94 0
5888 -5692 -94 0
-5889 5694 0
-5889 88 0
5889 -5694 -88 0
-5890 5696 0
-5890 136 0
5890 -5696 -136 0
-5891 5698 0
-5891 142 0
5891 -5698 -142 0
-5892 5696 0
-5892 142 0
5892 -5696 -142 0
-5893 5698 0
-5893 136 0
5893 -5698 -136 0
-5894 5700 0
-5894 184 0
5894 -5700 -184 0
-5895 5702 0
-5895 183 0
5895 -5702 -183 0
-5896 5704 0
-5896 186 0
5896 -5704 -186 0
-5897 5880 5881 0
-5897 -5880 -5881 0
5897 -5880 5881 0
5897 5880 -5881 0
-5898 5897 5882 0
-5898 -5897 -5882 0
5898 -5897 5882 0
5898 5897 -5882 0
-5899 5898 5883 0
-5899 -5898 -5883 0
5899 -5898 5883 0
5899 5898 -5883 0
-5900 5899 5884 0
-5900 -5899 -5884 0
5900 -5899 5884 0
5900 5899 -5884 0
-5901 5900 5885 0
-5901 -5900 -5885 0
5901 -5900 5885 0
5901 5900 -5885 0
-5902 5901 5886 0
-5902 -5901 -5886 0
5902 -5901 5886 0
5902 5901 -5886 0
-5903 5902 5887 0
-5903 -5902 -5887 0
5903 -5902 5887 0
5903 5902 -5887 0
-5904 5903 5888 0
-5904 -5903 -5888 0
5904 -5903 5888 0
5904 5903 -5888 0
-5905 5904 5889 0
-5905 -5904 -5889 0
5905 -5904 5889 0
5905 5904 -5889 0
-5906 5905 5890 0
-5906 -5905 -5890 0
5906 -5905 5890 0
5906 5905 -5890 0
-5907 5906 5891 0
-5907 -5906 -5891 0
5907 -5906 5891 0
5907 5906 -5891 0
-5908 5907 5892 0
-5908 -5907 -5892 0
5908 -5907 5892 0
5908 5907 -5892 0
-5909 5908 5893 0
-5909 -5908 -5893 0
5909 -5908 5893 0
5909 5908 -5893 0
-5910 5909 5894 0
-5910 -5909 -5894 0
5910 -5909 5894 0
5910 5909 -5894 0
-5911 5910 5895 0
-5911 -5910 -5895 0
5911 -5910 5895 0
5911 5910 -5895 0
-5912 5911 5896 0
-5912 -5911 -5896 0
5912 -5911 5896 0
5912 5911 -5896 0
-5912 0
-5913 5686 0
-5913 43 0
5913 -5686 -43 0
-5914 5688 0
-5914 48 0
5914 -5688 -48 0
-5915 5690 0
-5915 48 0
5915 -5690 -48 0
-5916 5692 0
-5916 91 0
5916 -5692 -91 0
-5917 5694 0
-5917 91 0
5917 -5694 -91 0
-5918 5696 0
-5918 139 0
5918 -5696 -139 0
-5919 5698 0
-5919 139 0
5919 -5698 -139 0
-5920 5700 0
-5920 187 0
5920 -5700 -187 0
-5921 5702 0
-5921 192 0
5921 -5702 -192 0
-5922 5704 0
-5922 192 0
5922 -5704 -192 0
-5923 5913 5914 0
-5923 -5913 -5914 0
5923 -5913 5914 0
5923 5913 -5914 0
-5924 5923 5915 0
-5924 -5923 -5915 0
5924 -5923 5915 0
5924 5923 -5915 0
-5925 5924 5913 0
-5925 -5924 -5913 0
5925 -5924 5913 0
5925 5924 -5913 0
-5926 5925 5914 0
-5926 -5925 -5914 0
5926 -5925 5914 0
5926 5925 -5914 0
-5927 5926 5915 0
-5927 -5926 -5915 0
5927 -5926 5915 0
5927 5926 -5915 0
-5928 5927 5916 0
-5928 -5927 -5916 0
5928 -5927 5916 0
5928 5927 -5916 0
-5929 5928 5917 0
-5929 -5928 -5917 0
5929 -5928 5917 0
5929 5928 -5917 0
-5930 5929 5916 0
-5930 -5929 -5916 0
5930 -5929 5916 0
5930 5929 -5916 0
-5931 5930 5917 0
-5931 -5930 -5917 0
5931 -5930 5917 0
5931 5930 -5917 0
-5932 5931 5918 0
-5932 -5931 -5918 0
5932 -5931 5918 0
5932 5931 -5918 0
-5933 5932 5919 0
-5933 -5932 -5919 0
5933 -5932 5919 0
5933 5932 -5919 0
-5934 5933 5918 0
-5934 -5933 -5918 0
5934 -5933 5918 0
5934 5933 -5918 0
-5935 5934 5919 0
-5935 -5934 -5919 0
5935 -5934 5919 0
5935 5934 -5919 0
-5936 5935 5920 0
-5936 -5935 -5920 0
5936 -5935 5920 0
5936 5935 -5920 0
-5937 5936 5921 0
-5937 -5936 -5921 0
5937 -5936 5921 0
5937 5936 -5921 0
-5938 5937 5922 0
-5938 -5937 -5922 0
5938 -5937 5922 0
5938 5937 -5922 0
-5938 0
-5939 5686 0
-5939 44 0
5939 -5686 -44 0
-5940 5688 0
-5940 47 0
5940 -5688 -47 0
-5941 5690 0
-5941 46 0
5941 -5690 -46 0
-5942 5686 0
-5942 47 0
5942 -5686 -47 0
-5943 5688 0
-5943 44 0
5943 -5688 -44 0
-5944 5690 0
-5944 40 0
5944 -5690 -40 0
-5945 5692 0
-5945 92 0
5945 -5692 -92 0
-5946 5694 0
-5946 90 0
5946 -5694 -90 0
-5947 5692 0
-5947 95 0
5947 -5692 -95 0
-5948 5694 0
-5948 87 0
5948 -5694 -87 0
-5949 5696 0
-5949 140 0
5949 -5696 -140 0
-5950 5698 0
-5950 138 0
5950 -5698 -138 0
-5951 5696 0
-5951 143 0
5951 -5696 -143 0
-5952 5698 0
-5952 135 0
5952 -5698 -135 0
-5953 5700 0
-5953 188 0
5953 -5700 -188 0
-5954 5702 0
-5954 191 0
5954 -5702 -191 0
-5955 5704 0
-5955 190 0
5955 -5704 -190 0
-5956 5939 5940 0
-5956 -5939 -5940 0
5956 -5939 5940 0
5956 5939 -5940 0
-5957 5956 5941 0
-5957 -5956 -5941 0
5957 -5956 5941 0
5957 5956 -5941 0
-5958 5957 5942 0
-5958 -5957 -5942 0
5958 -5957 5942 0
5958 5957 -5942 0
-5959 5958 5943 0
-5959 -5958 -5943 0
5959 -5958 5943 0
5959 5958 -5943 0
-5960 5959 5944 0
-5960 -5959 -5944 0
5960 -5959 5944 0
5960 5959 -5944 0
-5961 5960 5945 0
-5961 -5960 -5945 0
5961 -5960 5945 0
5961 5960 -5945 0
-5962 5961 5946 0
-5962 -5961 -5946 0
5962 -5961 5946 0
5962 5961 -5946 0
-5963 5962 5947 0
-5963 -5962 -5947 0
5963 -5962 5947 0
5963 5962 -5947 0
-5964 5963 5948 0
-5964 -5963 -5948 0
5964 -5963 5948 0
5964 5963 -5948 0
-5965 5964 5949 0
-5965 -5964 -5949 0
5965 -5964 5949 0
5965 5964 -5949 0
-5966 5965 5950 0
-5966 -5965 -5950 0
5966 -5965 5950 0
5966 5965 -5950 0
-5967 5966 5951 0
-5967 -5966 -5951 0
5967 -5966 5951 0
5967 5966 -5951 0
-5968 5967 5952 0
-5968 -5967 -5952 0
5968 -5967 5952 0
5968 5967 -5952 0
-5969 5968 5953 0
-5969 -5968 -5953 0
5969 -5968 5953 0
5969 5968 -5953 0
-5970 5969 5954 0
-5970 -5969 -5954 0
5970 -5969 5954 0
5970 5969 -5954 0
-5971 5970 5955 0
-5971 -5970 -5955 0
5971 -5970 5955 0
5971 5970 -5955 0
-5971 0
-5972 5686 0
-5972 48 0
5972 -5686 -48 0
-5973 5688 0
-5973 43 0
5973 -5688 -43 0
-5974 5690 0
-5974 38 0
5974 -5690 -38 0
-5975 5692 0
-5975 96 0
5975 -5692 -96 0
-5976 5694 0
-5976 86 0
5976 -5694 -86 0
-5977 5696 0
-5977 144 0
5977 -5696 -144 0
-5978 5698 0
-5978 134 0
5978 -5698 -134 0
-5979 5700 0
-5979 192 0
5979 -5700 -192 0
-5980 5702 0
-5980 187 0
5980 -5702 -187 0
-5981 5704 0
-5981 182 0
5981 -5704 -182 0
-5982 5972 5973 0
-5982 -5972 -5973 0
5982 -5972 5973 0
5982 5972 -5973 0
-5983 5982 5974 0
-5983 -5982 -5974 0
5983 -5982 5974 0
5983 5982 -5974 0
-5984 5983 5972 0
-5984 -5983 -5972 0
5984 -5983 5972 0
5984 5983 -5972 0
-5985 5984 5973 0
-5985 -5984 -5973 0
5985 -5984 5973 0
5985 5984 -5973 0
-5986 5985 5974 0
-5986 -5985 -5974 0
5986 -5985 5974 0
5986 5985 -5974 0
-5987 5986 5975 0
-5987 -5986 -5975 0
5987 -5986 5975 0
5987 5986 -5975 0
-5988 5987 5976 0
-5988 -5987 -5976 0
5988 -5987 5976 0
5988 5987 -5976 0
-5989 5988 5975 0
-5989 -5988 -5975 0
5989 -5988 5975 0
5989 5988 -5975 0
-5990 5989 5976 0
-5990 -5989 -5976 0
5990 -5989 5976 0
5990 5989 -5976 0
-5991 5990 5977 0
-5991 -5990 -5977 0
5991 -5990 5977 0
5991 5990 -5977 0
-5992 5991 5978 0
-5992 -5991 -5978 0
5992 -5991 5978 0
5992 5991 -5978 0
-5993 5992 5977 0
-5993 -5992 -5977 0
5993 -5992 5977 0
5993 5992 -5977 0
-5994 5993 5978 0
-5994 -5993 -5978 0
5994 -5993 5978 0
5994 5993 -5978 0
-5995 5994 5979 0
-5995 -5994 -5979 0
5995 -5994 5979 0
5995 5994 -5979 0
-5996 5995 5980 0
-5996 -5995 -5980 0
5996 -5995 5980 0
5996 5995 -5980 0
-5997 5996 5981 0
-5997 -5996 -5981 0
5997 -5996 5981 0
5997 5996 -5981 0
-5997 0
-5998 5 0
-5998 19 0
5998 -5 -19 0
-5999 5998 0
-5999 33 0
5999 -5998 -33 0
-6000 6 0
-6000 24 0
6000 -6 -24 0
-6001 6000 0
-6001 33 0
6001 -6000 -33 0
-6002 10 0
-6002 24 0
6002 -10 -24 0
-6003 6002 0
-6003 33 0
6003 -6002 -33 0
-6004 18 0
-6004 9 0
6004 -18 -9 0
-6005 6004 0
-6005 33 0
6005 -6004 -33 0
-6006 22 0
-6006 14 0
6006 -22 -14 0
-6007 6006 0
-6007 33 0
6007 -6006 -33 0
-6008 23 0
-6008 14 0
6008 -23 -14 0
-6009 6008 0
-6009 33 0
6009 -6008 -33 0
-6010 53 0
-6010 67 0
6010 -53 -67 0
-6011 6010 0
-6011 81 0
6011 -6010 -81 0
-6012 61 0
-6012 67 0
6012 -61 -67 0
-6013 6012 0
-6013 81 0
6013 -6012 -81 0
-6014 66 0
-6014 57 0
6014 -66 -57 0
-6015 6014 0
-6015 81 0
6015 -6014 -81 0
-6016 68 0
-6016 57 0
6016 -68 -57 0
-6017 6016 0
-6017 81 0
6017 -6016 -81 0
-6018 101 0
-6018 115 0
6018 -101 -115 0
-6019 6018 0
-6019 129 0
6019 -6018 -129 0
-6020 109 0
-6020 115 0
6020 -109 -115 0
-6021 6020 0
-6021 129 0
6021 -6020 -129 0
-6022 114 0
-6022 105 0
6022 -114 -105 0
-6023 6022 0
-6023 129 0
6023 -6022 -129 0
-6024 116 0
-6024 105 0
6024 -116 -105 0
-6025 6024 0
-6025 129 0
6025 -6024 -129 0
-6026 149 0
-6026 163 0
6026 -149 -163 0
-6027 6026 0
-6027 177 0
6027 -6026 -177 0
-6028 150 0
-6028 168 0
6028 -150 -168 0
-6029 6028 0
-6029 177 0
6029 -6028 -177 0
-6030 154 0
-6030 168 0
6030 -154 -168 0
-6031 6030 0
-6031 177 0
6031 -6030 -177 0
-6032 5999 6001 0
-6032 -5999 -6001 0
6032 -5999 6001 0
6032 5999 -6001 0
-6033 6032 6003 0
-6033 -6032 -6003 0
6033 -6032 6003 0
6033 6032 -6003 0
-6034 6033 6005 0
-6034 -6033 -6005 0
6034 -6033 6005 0
6034 6033 -6005 0
-6035 6034 6007 0
-6035 -6034 -6007 0
6035 -6034 6007 0
6035 6034 -6007 0
-6036 6035 6009 0
-6036 -6035 -6009 0
6036 -6035 6009 0
6036 6035 -6009 0
-6037 6036 6011 0
-6037 -6036 -6011 0
6037 -6036 6011 0
6037 6036 -6011 0
-6038 6037 6013 0
-6038 -6037 -6013 0
6038 -6037 6013 0
6038 6037 -6013 0
-6039 6038 6015 0
-6039 -6038 -6015 0
6039 -6038 6015 0
6039 6038 -6015 0
-6040 6039 6017 0
-6040 -6039 -6017 0
6040 -6039 6017 0
6040 6039 -6017 0
-6041 6040 6019 0
-6041 -6040 -6019 0
6041 -6040 6019 0
6041 6040 -6019 0
-6042 6041 6021 0
-6042 -6041 -6021 0
6042 -6041 6021 0
6042 6041 -6021 0
-6043 6042 6023 0
-6043 -6042 -6023 0
6043 -6042 6023 0
6043 6042 -6023 0
-6044 6043 6025 0
-6044 -6043 -6025 0
6044 -6043 6025 0
6044 6043 -6025 0
-6045 6044 6027 0
-6045 -6044 -6027 0
6045 -6044 6027 0
6045 6044 -6027 0
-6046 6045 6029 0
-6046 -6045 -6029 0
6046 -6045 6029 0
6046 6045 -6029 0
-6047 6046 6031 0
-6047 -6046 -6031 0
6047 -6046 6031 0
6047 6046 -6031 0
-6047 0
-6048 5998 0
-6048 34 0
6048 -5998 -34 0
-6049 6000 0
-6049 34 0
6049 -6000 -34 0
-6050 6002 0
-6050 35 0
6050 -6002 -35 0
-6051 6004 0
-6051 37 0
6051 -6004 -37 0
-6052 6006 0
-6052 37 0
6052 -6006 -37 0
-6053 6008 0
-6053 41 0
6053 -6008 -41 0
-6054 6010 0
-6054 82 0
6054 -6010 -82 0
-6055 6012 0
-6055 84 0
6055 -6012 -84 0
-6056 6014 0
-6056 85 0
6056 -6014 -85 0
-6057 6016 0
-6057 93 0
6057 -6016 -93 0
-6058 6018 0
-6058 130 0
6058 -6018 -130 0
-6059 6020 0
-6059 132 0
6059 -6020 -132 0
-6060 6022 0
-6060 133 0
6060 -6022 -133 0
-6061 6024 0
-6061 141 0
6061 -6024 -141 0
-6062 6026 0
-6062 178 0
6062 -6026 -178 0
-6063 6028 0
-6063 178 0
6063 -6028 -178 0
-6064 6030 0
-6064 179 0
6064 -6030 -179 0
-6065 6048 6049 0
-6065 -6048 -6049 0
6065 -6048 6049 0
6065 6048 -6049 0
-6066 6065 6050 0
-6066 -6065 -6050 0
6066 -6065 6050 0
6066 6065 -6050 0
-6067 6066 6051 0
-6067 -6066 -6051 0
6067 -6066 6051 0
6067 6066 -6051 0
-6068 6067 6052 0
-6068 -6067 -6052 0
6068 -6067 6052 0
6068 6067 -6052 0
-6069 6068 6053 0
-6069 -6068 -6053 0
6069 -6068 6053 0
6069 6068 -6053 0
-6070 6069 6054 0
-6070 -6069 -6054 0
6070 -6069 6054 0
6070 6069 -6054 0
-6071 6070 6055 0
-6071 -6070 -6055 0
6071 -6070 6055 0
6071 6070 -6055 0
-6072 6071 6056 0
-6072 -6071 -6056 0
6072 -6071 6056 0
6072 6071 -6056 0
-6073 6072 6057 0
-6073 -6072 -6057 0
6073 -6072 6057 0
6073 6072 -6057 0
-6074 6073 6058 0
-6074 -6073 -6058 0
6074 -6073 6058 0
6074 6073 -6058 0
-6075 6074 6059 0
-6075 -6074 -6059 0
6075 -6074 6059 0
6075 6074 -6059 0
-6076 6075 6060 0
-6076 -6075 -6060 0
6076 -6075 6060 0
6076 6075 -6060 0
-6077 6076 6061 0
-6077 -6076 -6061 0
6077 -6076 6061 0
6077 6076 -6061 0
-6078 6077 6062 0
-6078 -6077 -6062 0
6078 -6077 6062 0
6078 6077 -6062 0
-6079 6078 6063 0
-6079 -6078 -6063 0
6079 -6078 6063 0
6079 6078 -6063 0
-6080 6079 6064 0
-6080 -6079 -6064 0
6080 -6079 6064 0
6080 6079 -6064 0
-6080 0
-6081 5998 0
-6081 35 0
6081 -5998 -35 0
-6082 6000 0
-6082 36 0
6082 -6000 -36 0
-6083 6002 0
-6083 36 0
6083 -6002 -36 0
-6084 6004 0
-6084 41 0
6084 -6004 -41 0
-6085 6006 0
-6085 45 0
6085 -6006 -45 0
-6086 6008 0
-6086 45 0
6086 -6008 -45 0
-6087 6010 0
-6087 83 0
6087 -6010 -83 0
-6088 6012 0
-6088 83 0
6088 -6012 -83 0
-6089 6014 0
-6089 89 0
6089 -6014 -89 0
-6090 6016 0
-6090 89 0
6090 -6016 -89 0
-6091 6018 0
-6091 131 0
6091 -6018 -131 0
-6092 6020 0
-6092 131 0
6092 -6020 -131 0
-6093 6022 0
-6093 137 0
6093 -6022 -137 0
-6094 6024 0
-6094 137 0
6094 -6024 -137 0
-6095 6026 0
-6095 179 0
6095 -6026 -179 0
-6096 6028 0
-6096 180 0
6096 -6028 -180 0
-6097 6030 0
-6097 180 0
6097 -6030 -180 0
-6098 6081 6082 0
-6098 -6081 -6082 0
6098 -6081 6082 0
6098 6081 -6082 0
-6099 6098 6083 0
-6099 -6098 -6083 0
6099 -6098 6083 0
6099 6098 -6083 0
-6100 6099 6084 0
-6100 -6099 -6084 0
6100 -6099 6084 0
6100 6099 -6084 0
-6101 6100 6085 0
-6101 -6100 -6085 0
6101 -6100 6085 0
6101 6100 -6085 0
-6102 6101 6086 0
-6102 -6101 -6086 0
6102 -6101 6086 0
6102 6101 -6086 0
-6103 6102 6087 0
-6103 -6102 -6087 0
6103 -6102 6087 0
6103 6102 -6087 0
-6104 6103 6088 0
-6104 -6103 -6088 0
6104 -6103 6088 0
6104 6103 -6088 0
-6105 6104 6089 0
-6105 -6104 -6089 0
6105 -6104 6089 0
6105 6104 -6089 0
-6106 6105 6090 0
-6106 -6105 -6090 0
6106 -6105 6090 0
6106 6105 -6090 0
-6107 6106 6091 0
-6107 -6106 -6091 0
6107 -6106 6091 0
6107 6106 -6091 0
-6108 6107 6092 0
-6108 -6107 -6092 0
6108 -6107 6092 0
6108 6107 -6092 0
-6109 6108 6093 0
-6109 -6108 -6093 0
6109 -6108 6093 0
6109 6108 -6093 0
-6110 6109 6094 0
-6110 -6109 -6094 0
6110 -6109 6094 0
6110 6109 -6094 0
-6111 6110 6095 0
-6111 -6110 -6095 0
6111 -6110 6095 0
6111 6110 -6095 0
-6112 6111 6096 0
-6112 -6111 -6096 0
6112 -6111 6096 0
6112 6111 -6096 0
-6113 6112 6097 0
-6113 -6112 -6097 0
6113 -6112 6097 0
6113 6112 -6097 0
-6113 0
-6114 5998 0
-6114 36 0
6114 -5998 -36 0
-6115 6000 0
-6115 35 0
6115 -6000 -35 0
-6116 6002 0
-6116 34 0
6116 -6002 -34 0
-6117 6004 0
-6117 45 0
6117 -6004 -45 0
-6118 6006 0
-6118 41 0
6118 -6006 -41 0
-6119 6008 0
-6119 37 0
6119 -6008 -37 0
-6120 6010 0
-6120 84 0
6120 -6010 -84 0
-6121 6012 0
-6121 82 0
6121 -6012 -82 0
-6122 6014 0
-6122 93 0
6122 -6014 -93 0
-6123 6016 0
-6123 85 0
6123 -6016 -85 0
-6124 6018 0
-6124 132 0
6124 -6018 -132 0
-6125 6020 0
-6125 130 0
6125 -6020 -130 0
-6126 6022 0
-6126 141 0
6126 -6022 -141 0
-6127 6024 0
-6127 133 0
6127 -6024 -133 0
-6128 6026 0
-6128 180 0
6128 -6026 -180 0
-6129 6028 0
-6129 179 0
6129 -6028 -179 0
-6130 6030 0
-6130 178 0
6130 -6030 -178 0
-6131 6114 6115 0
-6131 -6114 -6115 0
6131 -6114 6115 0
6131 6114 -6115 0
-6132 6131 6116 0
-6132 -6131 -6116 0
6132 -6131 6116 0
6132 6131 -6116 0
-6133 6132 6117 0
-6133 -6132 -6117 0
6133 -6132 6117 0
6133 6132 -6117 0
-6134 6133 6118 0
-6134 -6133 -6118 0
6134 -6133 6118 0
6134 6133 -6118 0
-6135 6134 6119 0
-6135 -6134 -6119 0
6135 -6134 6119 0
6135 6134 -6119 0
-6136 6135 6120 0
-6136 -6135 -6120 0
6136 -6135 6120 0
6136 6135 -6120 0
-6137 6136 6121 0
-6137 -6136 -6121 0
6137 -6136 6121 0
6137 6136 -6121 0
-6138 6137 6122 0
-6138 -6137 -6122 0
6138 -6137 6122 0
6138 6137 -6122 0
-6139 6138 6123 0
-6139 -6138 -6123 0
6139 -6138 6123 0
6139 6138 -6123 0
-6140 6139 6124 0
-6140 -6139 -6124 0
6140 -6139 6124 0
6140 6139 -6124 0
-6141 6140 6125 0
-6141 -6140 -6125 0
6141 -6140 6125 0
6141 6140 -6125 0
-6142 6141 6126 0
-6142 -6141 -6126 0
6142 -6141 6126 0
6142 6141 -6126 0
-6143 6142 6127 0
-6143 -6142 -6127 0
6143 -6142 6127 0
6143 6142 -6127 0
-6144 6143 6128 0
-6144 -6143 -6128 0
6144 -6143 6128 0
6144 6143 -6128 0
-6145 6144 6129 0
-6145 -6144 -6129 0
6145 -6144 6129 0
6145 6144 -6129 0
-6146 6145 6130 0
-6146 -6145 -6130 0
6146 -6145 6130 0
6146 6145 -6130 0
-6146 0
-6147 5998 0
-6147 37 0
6147 -5998 -37 0
-6148 6000 0
-6148 37 0
6148 -6000 -37 0
-6149 6002 0
-6149 41 0
6149 -6002 -41 0
-6150 6004 0
-6150 34 0
6150 -6004 -34 0
-6151 6006 0
-6151 34 0
6151 -6006 -34 0
-6152 6008 0
-6152 35 0
6152 -6008 -35 0
-6153 6010 0
-6153 85 0
6153 -6010 -85 0
-6154 6012 0
-6154 93 0
6154 -6012 -93 0
-6155 6014 0
-6155 82 0
6155 -6014 -82 0
-6156 6016 0
-6156 84 0
6156 -6016 -84 0
-6157 6018 0
-6157 133 0
6157 -6018 -133 0
-6158 6020 0
-6158 141 0
6158 -6020 -141 0
-6159 6022 0
-6159 130 0
6159 -6022 -130 0
-6160 6024 0
-6160 132 0
6160 -6024 -132 0
-6161 6026 0
-6161 181 0
6161 -6026 -181 0
-6162 6028 0
-6162 181 0
6162 -6028 -181 0
-6163 6030 0
-6163 185 0
6163 -6030 -185 0
-6164 6147 6148 0
-6164 -6147 -6148 0
6164 -6147 6148 0
6164 6147 -6148 0
-6165 6164 6149 0
-6165 -6164 -6149 0
6165 -6164 6149 0
6165 6164 -6149 0
-6166 6165 6150 0
-6166 -6165 -6150 0
6166 -6165 6150 0
6166 6165 -6150 0
-6167 6166 6151 0
-6167 -6166 -6151 0
6167 -6166 6151 0
6167 6166 -6151 0
-6168 6167 6152 0
-6168 -6167 -6152 0
6168 -6167 6152 0
6168 6167 -6152 0
-6169 6168 6153 0
-6169 -6168 -6153 0
6169 -6168 6153 0
6169 6168 -6153 0
-6170 6169 6154 0
-6170 -6169 -6154 0
6170 -6169 6154 0
6170 6169 -6154 0
-6171 6170 6155 0
-6171 -6170 -6155 0
6171 -6170 6155 0
6171 6170 -6155 0
-6172 6171 6156 0
-6172 -6171 -6156 0
6172 -6171 6156 0
6172 6171 -6156 0
-6173 6172 6157 0
-6173 -6172 -6157 0
6173 -6172 6157 0
6173 6172 -6157 0
-6174 6173 6158 0
-6174 -6173 -6158 0
6174 -6173 6158 0
6174 6173 -6158 0
-6175 6174 6159 0
-6175 -6174 -6159 0
6175 -6174 6159 0
6175 6174 -6159 0
-6176 6175 6160 0
-6176 -6175 -6160 0
6176 -6175 6160 0
6176 6175 -6160 0
-6177 6176 6161 0
-6177 -6176 -6161 0
6177 -6176 6161 0
6177 6176 -6161 0
-6178 6177 6162 0
-6178 -6177 -6162 0
6178 -6177 6162 0
6178 6177 -6162 0
-6179 6178 6163 0
-6179 -6178 -6163 0
6179 -6178 6163 0
6179 6178 -6163 0
-6179 0
-6180 5998 0
-6180 38 0
6180 -5998 -38 0
-6181 6000 0
-6181 38 0
6181 -6000 -38 0
-6182 6002 0
-6182 43 0
6182 -6002 -43 0
-6183 6004 0
-6183 38 0
6183 -6004 -38 0
-6184 6006 0
-6184 38 0
6184 -6006 -38 0
-6185 6008 0
-6185 43 0
6185 -6008 -43 0
-6186 6010 0
-6186 86 0
6186 -6010 -86 0
-6187 6012 0
-6187 96 0
6187 -6012 -96 0
-6188 6014 0
-6188 86 0
6188 -6014 -86 0
-6189 6016 0
-6189 96 0
6189 -6016 -96 0
-6190 6018 0
-6190 134 0
6190 -6018 -134 0
-6191 6020 0
-6191 144 0
6191 -6020 -144 0
-6192 6022 0
-6192 134 0
6192 -6022 -134 0
-6193 6024 0
-6193 144 0
6193 -6024 -144 0
-6194 6026 0
-6194 182 0
6194 -6026 -182 0
-6195 6028 0
-6195 182 0
6195 -6028 -182 0
-6196 6030 0
-6196 187 0
6196 -6030 -187 0
-6197 6180 6181 0
-6197 -6180 -6181 0
6197 -6180 6181 0
6197 6180 -6181 0
-6198 6197 6182 0
-6198 -6197 -6182 0
6198 -6197 6182 0
6198 6197 -6182 0
-6199 6198 6183 0
-6199 -6198 -6183 0
6199 -6198 6183 0
6199 6198 -6183 0
-6200 6199 6184 0
-6200 -6199 -6184 0
6200 -6199 6184 0
6200 6199 -6184 0
-6201 6200 6185 0
-6201 -6200 -6185 0
6201 -6200 6185 0
6201 6200 -6185 0
-6202 6201 6186 0
-6202 -6201 -6186 0
6202 -6201 6186 0
6202 6201 -6186 0
-6203 6202 6187 0
-6203 -6202 -6187 0
6203 -6202 6187 0
6203 6202 -6187 0
-6204 6203 6188 0
-6204 -6203 -6188 0
6204 -6203 6188 0
6204 6203 -6188 0
-6205 6204 6189 0
-6205 -6204 -6189 0
6205 -6204 6189 0
6205 6204 -6189 0
-6206 6205 6190 0
-6206 -6205 -6190 0
6206 -6205 6190 0
6206 6205 -6190 0
-6207 6206 6191 0
-6207 -6206 -6191 0
6207 -6206 6191 0
6207 6206 -6191 0
-6208 6207 6192 0
-6208 -6207 -6192 0
6208 -6207 6192 0
6208 6207 -6192 0
-6209 6208 6193 0
-6209 -6208 -6193 0
6209 -6208 6193 0
6209 6208 -6193 0
-6210 6209 6194 0
-6210 -6209 -6194 0
6210 -6209 6194 0
6210 6209 -6194 0
-6211 6210 6195 0
-6211 -6210 -6195 0
6211 -6210 6195 0
6211 6210 -6195 0
-6212 6211 6196 0
-6212 -6211 -6196 0
6212 -6211 6196 0
6212 6211 -6196 0
-6212 0
-6213 5998 0
-6213 39 0
6213 -5998 -39 0
-6214 6000 0
-6214 40 0
6214 -6000 -40 0
-6215 6002 0
-6215 44 0
6215 -6002 -44 0
-6216 6004 0
-6216 42 0
6216 -6004 -42 0
-6217 6006 0
-6217 46 0
6217 -6006 -46 0
-6218 6008 0
-6218 47 0
6218 -6008 -47 0
-6219 6010 0
-6219 87 0
6219 -6010 -87 0
-6220 6012 0
-6220 95 0
6220 -6012 -95 0
-6221 6014 0
-6221 90 0
6221 -6014 -90 0
-6222 6016 0
-6222 92 0
6222 -6016 -92 0
-6223 6018 0
-6223 135 0
6223 -6018 -135 0
-6224 6020 0
-6224 143 0
6224 -6020 -143 0
-6225 6022 0
-6225 138 0
6225 -6022 -138 0
-6226 6024 0
-6226 140 0
6226 -6024 -140 0
-6227 6026 0
-6227 183 0
6227 -6026 -183 0
-6228 6028 0
-6228 184 0
6228 -6028 -184 0
-6229 6030 0
-6229 188 0
6229 -6030 -188 0
-6230 6213 6214 0
-6230 -6213 -6214 0
6230 -6213 6214 0
6230 6213 -6214 0
-6231 6230 6215 0
-6231 -6230 -6215 0
6231 -6230 6215 0
6231 6230 -6215 0
-6232 6231 6216 0
-6232 -6231 -6216 0
6232 -6231 6216 0
6232 6231 -6216 0
-6233 6232 6217 0
-6233 -6232 -6217 0
6233 -6232 6217 0
6233 6232 -6217 0
-6234 6233 6218 0
-6234 -6233 -6218 0
6234 -6233 6218 0
6234 6233 -6218 0
-6235 6234 6219 0
-6235 -6234 -6219 0
6235 -6234 6219 0
6235 6234 -6219 0
-6236 6235 6220 0
-6236 -6235 -6220 0
6236 -6235 6220 0
6236 6235 -6220 0
-6237 6236 6221 0
-6237 -6236 -6221 0
6237 -6236 6221 0
6237 6236 -6221 0
-6238 6237 6222 0
-6238 -6237 -6222 0
6238 -6237 6222 0
6238 6237 -6222 0
-6239 6238 6223 0
-6239 -6238 -6223 0
6239 -6238 6223 0
6239 6238 -6223 0
-6240 6239 6224 0
-6240 -6239 -6224 0
6240 -6239 6224 0
6240 6239 -6224 0
-6241 6240 6225 0
-6241 -6240 -6225 0
6241 -6240 6225 0
6241 6240 -6225 0
-6242 6241 6226 0
-6242 -6241 -6226 0
6242 -6241 6226 0
6242 6241 -6226 0
-6243 6242 6227 0
-6243 -6242 -6227 0
6243 -6242 6227 0
6243 6242 -6227 0
-6244 6243 6228 0
-6244 -6243 -6228 0
6244 -6243 6228 0
6244 6243 -6228 0
-6245 6244 6229 0
-6245 -6244 -6229 0
6245 -6244 6229 0
6245 6244 -6229 0
-6245 0
-6246 5998 0
-6246 40 0
6246 -5998 -40 0
-6247 6000 0
-6247 39 0
6247 -6000 -39 0
-6248 6002 0
-6248 42 0
6248 -6002 -42 0
-6249 6004 0
-6249 46 0
6249 -6004 -46 0
-6250 6006 0
-6250 42 0
6250 -6006 -42 0
-6251 6008 0
-6251 39 0
6251 -6008 -39 0
-6252 6010 0
-6252 88 0
6252 -6010 -88 0
-6253 6012 0
-6253 94 0
6253 -6012 -94 0
-6254 6014 0
-6254 94 0
6254 -6014 -94 0
-6255 6016 0
-6255 88 0
6255 -6016 -88 0
-6256 6018 0
-6256 136 0
6256 -6018 -136 0
-6257 6020 0
-6257 142 0
6257 -6020 -142 0
-6258 6022 0
-6258 142 0
6258 -6022 -142 0
-6259 6024 0
-6259 136 0
6259 -6024 -136 0
-6260 6026 0
-6260 184 0
6260 -6026 -184 0
-6261 6028 0
-6261 183 0
6261 -6028 -183 0
-6262 6030 0
-6262 186 0
6262 -6030 -186 0
-6263 6246 6247 0
-6263 -6246 -6247 0
6263 -6246 6247 0
6263 6246 -6247 0
-6264 6263 6248 0
-6264 -6263 -6248 0
6264 -6263 6248 0
6264 6263 -6248 0
-6265 6264 6249 0
-6265 -6264 -6249 0
6265 -6264 6249 0
6265 6264 -6249 0
-6266 6265 6250 0
-6266 -6265 -6250 0
6266 -6265 6250 0
6266 6265 -6250 0
-6267 6266 6251 0
-6267 -6266 -6251 0
6267 -6266 6251 0
6267 6266 -6251 0
-6268 6267 6252 0
-6268 -6267 -6252 0
6268 -6267 6252 0
6268 6267 -6252 0
-6269 6268 6253 0
-6269 -6268 -6253 0
6269 -6268 6253 0
6269 6268 -6253 0
-6270 6269 6254 0
-6270 -6269 -6254 0
6270 -6269 6254 0
6270 6269 -6254 0
-6271 6270 6255 0
-6271 -6270 -6255 0
6271 -6270 6255 0
6271 6270 -6255 0
-6272 6271 6256 0
-6272 -6271 -6256 0
6272 -6271 6256 0
6272 6271 -6256 0
-6273 6272 6257 0
-6273 -6272 -6257 0
6273 -6272 6257 0
6273 6272 -6257 0
-6274 6273 6258 0
-6274 -6273 -6258 0
6274 -6273 6258 0
6274 6273 -6258 0
-6275 6274 6259 0
-6275 -6274 -6259 0
6275 -6274 6259 0
6275 6274 -6259 0
-6276 6275 6260 0
-6276 -6275 -6260 0
6276 -6275 6260 0
6276 6275 -6260 0
-6277 6276 6261 0
-6277 -6276 -6261 0
6277 -6276 6261 0
6277 6276 -6261 0
-6278 6277 6262 0
-6278 -6277 -6262 0
6278 -6277 6262 0
6278 6277 -6262 0
-6278 0
-6279 5998 0
-6279 41 0
6279 -5998 -41 0
-6280 6000 0
-6280 45 0
6280 -6000 -45 0
-6281 6002 0
-6281 45 0
6281 -6002 -45 0
-6282 6004 0
-6282 35 0
6282 -6004 -35 0
-6283 6006 0
-6283 36 0
6283 -6006 -36 0
-6284 6008 0
-6284 36 0
6284 -6008 -36 0
-6285 6010 0
-6285 89 0
6285 -6010 -89 0
-6286 6012 0
-6286 89 0
6286 -6012 -89 0
-6287 6014 0
-6287 83 0
6287 -6014 -83 0
-6288 6016 0
-6288 83 0
6288 -6016 -83 0
-6289 6018 0
-6289 137 0
6289 -6018 -137 0
-6290 6020 0
-6290 137 0
6290 -6020 -137 0
-6291 6022 0
-6291 131 0
6291 -6022 -131 0
-6292 6024 0
-6292 131 0
6292 -6024 -131 0
-6293 6026 0
-6293 185 0
6293 -6026 -185 0
-6294 6028 0
-6294 189 0
6294 -6028 -189 0
-6295 6030 0
-6295 189 0
6295 -6030 -189 0
-6296 6279 6280 0
-6296 -6279 -6280 0
6296 -6279 6280 0
6296 6279 -6280 0
-6297 6296 6281 0
-6297 -6296 -6281 0
6297 -6296 6281 0
6297 6296 -6281 0
-6298 6297 6282 0
-6298 -6297 -6282 0
6298 -6297 6282 0
6298 6297 -6282 0
-6299 6298 6283 0
-6299 -6298 -6283 0
6299 -6298 6283 0
6299 6298 -6283 0
-6300 6299 6284 0
-6300 -6299 -6284 0
6300 -6299 6284 0
6300 6299 -6284 0
-6301 6300 6285 0
-6301 -6300 -6285 0
6301 -6300 6285 0
6301 6300 -6285 0
-6302 6301 6286 0
-6302 -6301 -6286 0
6302 -6301 6286 0
6302 6301 -6286 0
-6303 6302 6287 0
-6303 -6302 -6287 0
6303 -6302 6287 0
6303 6302 -6287 0
-6304 6303 6288 0
-6304 -6303 -6288 0
6304 -6303 6288 0
6304 6303 -6288 0
-6305 6304 6289 0
-6305 -6304 -6289 0
6305 -6304 6289 0
6305 6304 -6289 0
-6306 6305 6290 0
-6306 -6305 -6290 0
6306 -6305 6290 0
6306 6305 -6290 0
-6307 6306 6291 0
-6307 -6306 -6291 0
6307 -6306 6291 0
6307 6306 -6291 0
-6308 6307 6292 0
-6308 -6307 -6292 0
6308 -6307 6292 0
6308 6307 -6292 0
-6309 6308 6293 0
-6309 -6308 -6293 0
6309 -6308 6293 0
6309 6308 -6293 0
-6310 6309 6294 0
-6310 -6309 -6294 0
6310 -6309 6294 0
6310 6309 -6294 0
-6311 6310 6295 0
-6311 -6310 -6295 0
6311 -6310 6295 0
6311 6310 -6295 0
6311 0
-6312 5998 0
-6312 42 0
6312 -5998 -42 0
-6313 6000 0
-6313 46 0
6313 -6000 -46 0
-6314 6002 0
-6314 47 0
6314 -6002 -47 0
-6315 6004 0
-6315 39 0
6315 -6004 -39 0
-6316 6006 0
-6316 40 0
6316 -6006 -40 0
-6317 6008 0
-6317 44 0
6317 -6008 -44 0
-6318 6010 0
-6318 90 0
6318 -6010 -90 0
-6319 6012 0
-6319 92 0
6319 -6012 -92 0
-6320 6014 0
-6320 87 0
6320 -6014 -87 0
-6321 6016 0
-6321 95 0
6321 -6016 -95 0
-6322 6018 0
-6322 138 0
6322 -6018 -138 0
-6323 6020 0
-6323 140 0
6323 -6020 -140 0
-6324 6022 0
-6324 135 0
6324 -6022 -135 0
-6325 6024 0
-6325 143 0
6325 -6024 -143 0
-6326 6026 0
-6326 186 0
6326 -6026 -186 0
-6327 6028 0
-6327 190 0
6327 -6028 -190 0
-6328 6030 0
-6328 191 0
6328 -6030 -191 0
-6329 6312 6313 0
-6329 -6312 -6313 0
6329 -6312 6313 0
6329 6312 -6313 0
-6330 6329 6314 0
-6330 -6329 -6314 0
6330 -6329 6314 0
6330 6329 -6314 0
-6331 6330 6315 0
-6331 -6330 -6315 0
6331 -6330 6315 0
6331 6330 -6315 0
-6332 6331 6316 0
-6332 -6331 -6316 0
6332 -6331 6316 0
6332 6331 -6316 0
-6333 6332 6317 0
-6333 -6332 -6317 0
6333 -6332 6317 0
6333 6332 -6317 0
-6334 6333 6318 0
-6334 -6333 -6318 0
6334 -6333 6318 0
6334 6333 -6318 0
-6335 6334 6319 0
-6335 -6334 -6319 0
6335 -6334 6319 0
6335 6334 -6319 0
-6336 6335 6320 0
-6336 -6335 -6320 0
6336 -6335 6320 0
6336 6335 -6320 0
-6337 6336 6321 0
-6337 -6336 -6321 0
6337 -6336 6321 0
6337 6336 -6321 0
-6338 6337 6322 0
-6338 -6337 -6322 0
6338 -6337 6322 0
6338 6337 -6322 0
-6339 6338 6323 0
-6339 -6338 -6323 0
6339 -6338 6323 0
6339 6338 -6323 0
-6340 6339 6324 0
-6340 -6339 -6324 0
6340 -6339 6324 0
6340 6339 -6324 0
-6341 6340 6325 0
-6341 -6340 -6325 0
6341 -6340 6325 0
6341 6340 -6325 0
-6342 6341 6326 0
-6342 -6341 -6326 0
6342 -6341 6326 0
6342 6341 -6326 0
-6343 6342 6327 0
-6343 -6342 -6327 0
6343 -6342 6327 0
6343 6342 -6327 0
-6344 6343 6328 0
-6344 -6343 -6328 0
6344 -6343 6328 0
6344 6343 -6328 0
6344 0
-6345 5998 0
-6345 43 0
6345 -5998 -43 0
-6346 6000 0
-6346 48 0
6346 -6000 -48 0
-6347 6002 0
-6347 48 0
6347 -6002 -48 0
-6348 6004 0
-6348 43 0
6348 -6004 -43 0
-6349 6006 0
-6349 48 0
6349 -6006 -48 0
-6350 6008 0
-6350 48 0
6350 -6008 -48 0
-6351 6010 0
-6351 91 0
6351 -6010 -91 0
-6352 6012 0
-6352 91 0
6352 -6012 -91 0
-6353 6014 0
-6353 91 0
6353 -6014 -91 0
-6354 6016 0
-6354 91 0
6354 -6016 -91 0
-6355 6018 0
-6355 139 0
6355 -6018 -139 0
-6356 6020 0
-6356 139 0
6356 -6020 -139 0
-6357 6022 0
-6357 139 0
6357 -6022 -139 0
-6358 6024 0
-6358 139 0
6358 -6024 -139 0
-6359 6026 0
-6359 187 0
6359 -6026 -187 0
-6360 6028 0
-6360 192 0
6360 -6028 -192 0
-6361 6030 0
-6361 192 0
6361 -6030 -192 0
-6362 6345 6346 0
-6362 -6345 -6346 0
6362 -6345 6346 0
6362 6345 -6346 0
-6363 6362 6347 0
-6363 -6362 -6347 0
6363 -6362 6347 0
6363 6362 -6347 0
-6364 6363 6348 0
-6364 -6363 -6348 0
6364 -6363 6348 0
6364 6363 -6348 0
-6365 6364 6349 0
-6365 -6364 -6349 0
6365 -6364 6349 0
6365 6364 -6349 0
-6366 6365 6350 0
-6366 -6365 -6350 0
6366 -6365 6350 0
6366 6365 -6350 0
-6367 6366 6351 0
-6367 -6366 -6351 0
6367 -6366 6351 0
6367 6366 -6351 0
-6368 6367 6352 0
-6368 -6367 -6352 0
6368 -6367 6352 0
6368 6367 -6352 0
-6369 6368 6353 0
-6369 -6368 -6353 0
6369 -6368 6353 0
6369 6368 -6353 0
-6370 6369 6354 0
-6370 -6369 -6354 0
6370 -6369 6354 0
6370 6369 -6354 0
-6371 6370 6355 0
-6371 -6370 -6355 0
6371 -6370 6355 0
6371 6370 -6355 0
-6372 6371 6356 0
-6372 -6371 -6356 0
6372 -6371 6356 0
6372 6371 -6356 0
-6373 6372 6357 0
-6373 -6372 -6357 0
6373 -6372 6357 0
6373 6372 -6357 0
-6374 6373 6358 0
-6374 -6373 -6358 0
6374 -6373 6358 0
6374 6373 -6358 0
-6375 6374 6359 0
-6375 -6374 -6359 0
6375 -6374 6359 0
6375 6374 -6359 0
-6376 6375 6360 0
-6376 -6375 -6360 0
6376 -6375 6360 0
6376 6375 -6360 0
-6377 6376 6361 0
-6377 -6376 -6361 0
6377 -6376 6361 0
6377 6376 -6361 0
6377 0
-6378 5998 0
-6378 44 0
6378 -5998 -44 0
-6379 6000 0
-6379 47 0
6379 -6000 -47 0
-6380 6002 0
-6380 46 0
6380 -6002 -46 0
-6381 6004 0
-6381 47 0
6381 -6004 -47 0
-6382 6006 0
-6382 44 0
6382 -6006 -44 0
-6383 6008 0
-6383 40 0
6383 -6008 -40 0
-6384 6010 0
-6384 92 0
6384 -6010 -92 0
-6385 6012 0
-6385 90 0
6385 -6012 -90 0
-6386 6014 0
-6386 95 0
6386 -6014 -95 0
-6387 6016 0
-6387 87 0
6387 -6016 -87 0
-6388 6018 0
-6388 140 0
6388 -6018 -140 0
-6389 6020 0
-6389 138 0
6389 -6020 -138 0
-6390 6022 0
-6390 143 0
6390 -6022 -143 0
-6391 6024 0
-6391 135 0
6391 -6024 -135 0
-6392 6026 0
-6392 188 0
6392 -6026 -188 0
-6393 6028 0
-6393 191 0
6393 -6028 -191 0
-6394 6030 0
-6394 190 0
6394 -6030 -190 0
-6395 6378 6379 0
-6395 -6378 -6379 0
6395 -6378 6379 0
6395 6378 -6379 0
-6396 6395 6380 0
-6396 -6395 -6380 0
6396 -6395 6380 0
6396 6395 -6380 0
-6397 6396 6381 0
-6397 -6396 -6381 0
6397 -6396 6381 0
6397 6396 -6381 0
-6398 6397 6382 0
-6398 -6397 -6382 0
6398 -6397 6382 0
6398 6397 -6382 0
-6399 6398 6383 0
-6399 -6398 -6383 0
6399 -6398 6383 0
6399 6398 -6383 0
-6400 6399 6384 0
-6400 -6399 -6384 0
6400 -6399 6384 0
6400 6399 -6384 0
-6401 6400 6385 0
-6401 -6400 -6385 0
6401 -6400 6385 0
6401 6400 -6385 0
-6402 6401 6386 0
-6402 -6401 -6386 0
6402 -6401 6386 0
6402 6401 -6386 0
-6403 6402 6387 0
-6403 -6402 -6387 0
6403 -6402 6387 0
6403 6402 -6387 0
-6404 6403 6388 0
-6404 -6403 -6388 0
6404 -6403 6388 0
6404 6403 -6388 0
-6405 6404 6389 0
-6405 -6404 -6389 0
6405 -6404 6389 0
6405 6404 -6389 0
-6406 6405 6390 0
-6406 -6405 -6390 0
6406 -6405 6390 0
6406 6405 -6390 0
-6407 6406 6391 0
-6407 -6406 -6391 0
6407 -6406 6391 0
6407 6406 -6391 0
-6408 6407 6392 0
-6408 -6407 -6392 0
6408 -6407 6392 0
6408 6407 -6392 0
-6409 6408 6393 0
-6409 -6408 -6393 0
6409 -6408 6393 0
6409 6408 -6393 0
-6410 6409 6394 0
-6410 -6409 -6394 0
6410 -6409 6394 0
6410 6409 -6394 0
-6410 0
-6411 5998 0
-6411 45 0
6411 -5998 -45 0
-6412 6000 0
-6412 41 0
6412 -6000 -41 0
-6413 6002 0
-6413 37 0
6413 -6002 -37 0
-6414 6004 0
-6414 36 0
6414 -6004 -36 0
-6415 6006 0
-6415 35 0
6415 -6006 -35 0
-6416 6008 0
-6416 34 0
6416 -6008 -34 0
-6417 6010 0
-6417 93 0
6417 -6010 -93 0
-6418 6012 0
-6418 85 0
6418 -6012 -85 0
-6419 6014 0
-6419 84 0
6419 -6014 -84 0
-6420 6016 0
-6420 82 0
6420 -6016 -82 0
-6421 6018 0
-6421 141 0
6421 -6018 -141 0
-6422 6020 0
-6422 133 0
6422 -6020 -133 0
-6423 6022 0
-6423 132 0
6423 -6022 -132 0
-6424 6024 0
-6424 130 0
6424 -6024 -130 0
-6425 6026 0
-6425 189 0
6425 -6026 -189 0
-6426 6028 0
-6426 185 0
6426 -6028 -185 0
-6427 6030 0
-6427 181 0
6427 -6030 -181 0
-6428 6411 6412 0
-6428 -6411 -6412 0
6428 -6411 6412 0
6428 6411 -6412 0
-6429 6428 6413 0
-6429 -6428 -6413 0
6429 -6428 6413 0
6429 6428 -6413 0
-6430 6429 6414 0
-6430 -6429 -6414 0
6430 -6429 6414 0
6430 6429 -6414 0
-6431 6430 6415 0
-6431 -6430 -6415 0
6431 -6430 6415 0
6431 6430 -6415 0
-6432 6431 6416 0
-6432 -6431 -6416 0
6432 -6431 6416 0
6432 6431 -6416 0
-6433 6432 6417 0
-6433 -6432 -6417 0
6433 -6432 6417 0
6433 6432 -6417 0
-6434 6433 6418 0
-6434 -6433 -6418 0
6434 -6433 6418 0
6434 6433 -6418 0
-6435 6434 6419 0
-6435 -6434 -6419 0
6435 -6434 6419 0
6435 6434 -6419 0
-6436 6435 6420 0
-6436 -6435 -6420 0
6436 -6435 6420 0
6436 6435 -6420 0
-6437 6436 6421 0
-6437 -6436 -6421 0
6437 -6436 6421 0
6437 6436 -6421 0
-6438 6437 6422 0
-6438 -6437 -6422 0
6438 -6437 6422 0
6438 6437 -6422 0
-6439 6438 6423 0
-6439 -6438 -6423 0
6439 -6438 6423 0
6439 6438 -6423 0
-6440 6439 6424 0
-6440 -6439 -6424 0
6440 -6439 6424 0
6440 6439 -6424 0
-6441 6440 6425 0
-6441 -6440 -6425 0
6441 -6440 6425 0
6441 6440 -6425 0
-6442 6441 6426 0
-6442 -6441 -6426 0
6442 -6441 6426 0
6442 6441 -6426 0
-6443 6442 6427 0
-6443 -6442 -6427 0
6443 -6442 6427 0
6443 6442 -6427 0
-6443 0
-6444 5998 0
-6444 46 0
6444 -5998 -46 0
-6445 6000 0
-6445 42 0
6445 -6000 -42 0
-6446 6002 0
-6446 39 0
6446 -6002 -39 0
-6447 6004 0
-6447 40 0
6447 -6004 -40 0
-6448 6006 0
-6448 39 0
6448 -6006 -39 0
-6449 6008 0
-6449 42 0
6449 -6008 -42 0
-6450 6010 0
-6450 94 0
6450 -6010 -94 0
-6451 6012 0
-6451 88 0
6451 -6012 -88 0
-6452 6014 0
-6452 88 0
6452 -6014 -88 0
-6453 6016 0
-6453 94 0
6453 -6016 -94 0
-6454 6018 0
-6454 142 0
6454 -6018 -142 0
-6455 6020 0
-6455 136 0
6455 -6020 -136 0
-6456 6022 0
-6456 136 0
6456 -6022 -136 0
-6457 6024 0
-6457 142 0
6457 -6024 -142 0
-6458 6026 0
-6458 190 0
6458 -6026 -190 0
-6459 6028 0
-6459 186 0
6459 -6028 -186 0
-6460 6030 0
-6460 183 0
6460 -6030 -183 0
-6461 6444 6445 0
-6461 -6444 -6445 0
6461 -6444 6445 0
6461 6444 -6445 0
-6462 6461 6446 0
-6462 -6461 -6446 0
6462 -6461 6446 0
6462 6461 -6446 0
-6463 6462 6447 0
-6463 -6462 -6447 0
6463 -6462 6447 0
6463 6462 -6447 0
-6464 6463 6448 0
-6464 -6463 -6448 0
6464 -6463 6448 0
6464 6463 -6448 0
-6465 6464 6449 0
-6465 -6464 -6449 0
6465 -6464 6449 0
6465 6464 -6449 0
-6466 6465 6450 0
-6466 -6465 -6450 0
6466 -6465 6450 0
6466 6465 -6450 0
-6467 6466 6451 0
-6467 -6466 -6451 0
6467 -6466 6451 0
6467 6466 -6451 0
-6468 6467 6452 0
-6468 -6467 -6452 0
6468 -6467 6452 0
6468 6467 -6452 0
-6469 6468 6453 0
-6469 -6468 -6453 0
6469 -6468 6453 0
6469 6468 -6453 0
-6470 6469 6454 0
-6470 -6469 -6454 0
6470 -6469 6454 0
6470 6469 -6454 0
-6471 6470 6455 0
-6471 -6470 -6455 0
6471 -6470 6455 0
6471 6470 -6455 0
-6472 6471 6456 0
-6472 -6471 -6456 0
6472 -6471 6456 0
6472 6471 -6456 0
-6473 6472 6457 0
-6473 -6472 -6457 0
6473 -6472 6457 0
6473 6472 -6457 0
-6474 6473 6458 0
-6474 -6473 -6458 0
6474 -6473 6458 0
6474 6473 -6458 0
-6475 6474 6459 0
-6475 -6474 -6459 0
6475 -6474 6459 0
6475 6474 -6459 0
-6476 6475 6460 0
-6476 -6475 -6460 0
6476 -6475 6460 0
6476 6475 -6460 0
-6476 0
-6477 5998 0
-6477 47 0
6477 -5998 -47 0
-6478 6000 0
-6478 44 0
6478 -6000 -44 0
-6479 6002 0
-6479 40 0
6479 -6002 -40 0
-6480 6004 0
-6480 44 0
6480 -6004 -44 0
-6481 6006 0
-6481 47 0
6481 -6006 -47 0
-6482 6008 0
-6482 46 0
6482 -6008 -46 0
-6483 6010 0
-6483 95 0
6483 -6010 -95 0
-6484 6012 0
-6484 87 0
6484 -6012 -87 0
-6485 6014 0
-6485 92 0
6485 -6014 -92 0
-6486 6016 0
-6486 90 0
6486 -6016 -90 0
-6487 6018 0
-6487 143 0
6487 -6018 -143 0
-6488 6020 0
-6488 135 0
6488 -6020 -135 0
-6489 6022 0
-6489 140 0
6489 -6022 -140 0
-6490 6024 0
-6490 138 0
6490 -6024 -138 0
-6491 6026 0
-6491 191 0
6491 -6026 -191 0
-6492 6028 0
-6492 188 0
6492 -6028 -188 0
-6493 6030 0
-6493 184 0
6493 -6030 -184 0
-6494 6477 6478 0
-6494 -6477 -6478 0
6494 -6477 6478 0
6494 6477 -6478 0
-6495 6494 6479 0
-6495 -6494 -6479 0
6495 -6494 6479 0
6495 6494 -6479 0
-6496 6495 6480 0
-6496 -6495 -6480 0
6496 -6495 6480 0
6496 6495 -6480 0
-6497 6496 6481 0
-6497 -6496 -6481 0
6497 -6496 6481 0
6497 6496 -6481 0
-6498 6497 6482 0
-6498 -6497 -6482 0
6498 -6497 6482 0
6498 6497 -6482 0
-6499 6498 6483 0
-6499 -6498 -6483 0
6499 -6498 6483 0
6499 6498 -6483 0
-6500 6499 6484 0
-6500 -6499 -6484 0
6500 -6499 6484 0
6500 6499 -6484 0
-6501 6500 6485 0
-6501 -6500 -6485 0
6501 -6500 6485 0
6501 6500 -6485 0
-6502 6501 6486 0
-6502 -6501 -6486 0
6502 -6501 6486 0
6502 6501 -6486 0
-6503 6502 6487 0
-6503 -6502 -6487 0
6503 -6502 6487 0
6503 6502 -6487 0
-6504 6503 6488 0
-6504 -6503 -6488 0
6504 -6503 6488 0
6504 6503 -6488 0
-6505 6504 6489 0
-6505 -6504 -6489 0
6505 -6504 6489 0
6505 6504 -6489 0
-6506 6505 6490 0
-6506 -6505 -6490 0
6506 -6505 6490 0
6506 6505 -6490 0
-6507 6506 6491 0
-6507 -6506 -6491 0
6507 -6506 6491 0
6507 6506 -6491 0
-6508 6507 6492 0
-6508 -6507 -6492 0
6508 -6507 6492 0
6508 6507 -6492 0
-6509 6508 6493 0
-6509 -6508 -6493 0
6509 -6508 6493 0
6509 6508 -6493 0
-6509 0
-6510 5998 0
-6510 48 0
6510 -5998 -48 0
-6511 6000 0
-6511 43 0
6511 -6000 -43 0
-6512 6002 0
-6512 38 0
6512 -6002 -38 0
-6513 6004 0
-6513 48 0
6513 -6004 -48 0
-6514 6006 0
-6514 43 0
6514 -6006 -43 0
-6515 6008 0
-6515 38 0
6515 -6008 -38 0
-6516 6010 0
-6516 96 0
6516 -6010 -96 0
-6517 6012 0
-6517 86 0
6517 -6012 -86 0
-6518 6014 0
-6518 96 0
6518 -6014 -96 0
-6519 6016 0
-6519 86 0
6519 -6016 -86 0
-6520 6018 0
-6520 144 0
6520 -6018 -144 0
-6521 6020 0
-6521 134 0
6521 -6020 -134 0
-6522 6022 0
-6522 144 0
6522 -6022 -144 0
-6523 6024 0
-6523 134 0
6523 -6024 -134 0
-6524 6026 0
-6524 192 0
6524 -6026 -192 0
-6525 6028 0
-6525 187 0
6525 -6028 -187 0
-6526 6030 0
-6526 182 0
6526 -6030 -182 0
-6527 6510 6511 0
-6527 -6510 -6511 0
6527 -6510 6511 0
6527 6510 -6511 0
-6528 6527 6512 0
-6528 -6527 -6512 0
6528 -6527 6512 0
6528 6527 -6512 0
-6529 6528 6513 0
-6529 -6528 -6513 0
6529 -6528 6513 0
6529 6528 -6513 0
-6530 6529 6514 0
-6530 -6529 -6514 0
6530 -6529 6514 0
6530 6529 -6514 0
-6531 6530 6515 0
-6531 -6530 -6515 0
6531 -6530 6515 0
6531 6530 -6515 0
-6532 6531 6516 0
-6532 -6531 -6516 0
6532 -6531 6516 0
6532 6531 -6516 0
-6533 6532 6517 0
-6533 -6532 -6517 0
6533 -6532 6517 0
6533 6532 -6517 0
-6534 6533 6518 0
-6534 -6533 -6518 0
6534 -6533 6518 0
6534 6533 -6518 0
-6535 6534 6519 0
-6535 -6534 -6519 0
6535 -6534 6519 0
6535 6534 -6519 0
-6536 6535 6520 0
-6536 -6535 -6520 0
6536 -6535 6520 0
6536 6535 -6520 0
-6537 6536 6521 0
-6537 -6536 -6521 0
6537 -6536 6521 0
6537 6536 -6521 0
-6538 6537 6522 0
-6538 -6537 -6522 0
6538 -6537 6522 0
6538 6537 -6522 0
-6539 6538 6523 0
-6539 -6538 -6523 0
6539 -6538 6523 0
6539 6538 -6523 0
-6540 6539 6524 0
-6540 -6539 -6524 0
6540 -6539 6524 0
6540 6539 -6524 0
-6541 6540 6525 0
-6541 -6540 -6525 0
6541 -6540 6525 0
6541 6540 -6525 0
-6542 6541 6526 0
-6542 -6541 -6526 0
6542 -6541 6526 0
6542 6541 -6526 0
-6542 0
-6543 5 0
-6543 20 0
6543 -5 -20 0
-6544 6543 0
-6544 33 0
6544 -6543 -33 0
-6545 6 0
-6545 23 0
6545 -6 -23 0
-6546 6545 0
-6546 33 0
6546 -6545 -33 0
-6547 10 0
-6547 22 0
6547 -10 -22 0
-6548 6547 0
-6548 33 0
6548 -6547 -33 0
-6549 18 0
-6549 13 0
6549 -18 -13 0
-6550 6549 0
-6550 33 0
6550 -6549 -33 0
-6551 53 0
-6551 68 0
6551 -53 -68 0
-6552 6551 0
-6552 81 0
6552 -6551 -81 0
-6553 61 0
-6553 66 0
6553 -61 -66 0
-6554 6553 0
-6554 81 0
6554 -6553 -81 0
-6555 101 0
-6555 116 0
6555 -101 -116 0
-6556 6555 0
-6556 129 0
6556 -6555 -129 0
-6557 109 0
-6557 114 0
6557 -109 -114 0
-6558 6557 0
-6558 129 0
6558 -6557 -129 0
-6559 149 0
-6559 164 0
6559 -149 -164 0
-6560 6559 0
-6560 177 0
6560 -6559 -177 0
-6561 150 0
-6561 167 0
6561 -150 -167 0
-6562 6561 0
-6562 177 0
6562 -6561 -177 0
-6563 154 0
-6563 166 0
6563 -154 -166 0
-6564 6563 0
-6564 177 0
6564 -6563 -177 0
-6565 6544 6546 0
-6565 -6544 -6546 0
6565 -6544 6546 0
6565 6544 -6546 0
-6566 6565 6548 0
-6566 -6565 -6548 0
6566 -6565 6548 0
6566 6565 -6548 0
-6567 6566 6550 0
-6567 -6566 -6550 0
6567 -6566 6550 0
6567 6566 -6550 0
-6568 6567 6548 0
-6568 -6567 -6548 0
6568 -6567 6548 0
6568 6567 -6548 0
-6569 6568 6546 0
-6569 -6568 -6546 0
6569 -6568 6546 0
6569 6568 -6546 0
-6570 6569 6552 0
-6570 -6569 -6552 0
6570 -6569 6552 0
6570 6569 -6552 0
-6571 6570 6554 0
-6571 -6570 -6554 0
6571 -6570 6554 0
6571 6570 -6554 0
-6572 6571 6554 0
-6572 -6571 -6554 0
6572 -6571 6554 0
6572 6571 -6554 0
-6573 6572 6552 0
-6573 -6572 -6552 0
6573 -6572 6552 0
6573 6572 -6552 0
-6574 6573 6556 0
-6574 -6573 -6556 0
6574 -6573 6556 0
6574 6573 -6556 0
-6575 6574 6558 0
-6575 -6574 -6558 0
6575 -6574 6558 0
6575 6574 -6558 0
-6576 6575 6558 0
-6576 -6575 -6558 0
6576 -6575 6558 0
6576 6575 -6558 0
-6577 6576 6556 0
-6577 -6576 -6556 0
6577 -6576 6556 0
6577 6576 -6556 0
-6578 6577 6560 0
-6578 -6577 -6560 0
6578 -6577 6560 0
6578 6577 -6560 0
-6579 6578 6562 0
-6579 -6578 -6562 0
6579 -6578 6562 0
6579 6578 -6562 0
-6580 6579 6564 0
-6580 -6579 -6564 0
6580 -6579 6564 0
6580 6579 -6564 0
-6580 0
-6581 6543 0
-6581 34 0
6581 -6543 -34 0
-6582 6545 0
-6582 34 0
6582 -6545 -34 0
-6583 6547 0
-6583 35 0
6583 -6547 -35 0
-6584 6549 0
-6584 37 0
6584 -6549 -37 0
-6585 6547 0
-6585 37 0
6585 -6547 -37 0
-6586 6545 0
-6586 41 0
6586 -6545 -41 0
-6587 6551 0
-6587 82 0
6587 -6551 -82 0
-6588 6553 0
-6588 84 0
6588 -6553 -84 0
-6589 6553 0
-6589 85 0
6589 -6553 -85 0
-6590 6551 0
-6590 93 0
6590 -6551 -93 0
-6591 6555 0
-6591 130 0
6591 -6555 -130 0
-6592 6557 0
-6592 132 0
6592 -6557 -132 0
-6593 6557 0
-6593 133 0
6593 -6557 -133 0
-6594 6555 0
-6594 141 0
6594 -6555 -141 0
-6595 6559 0
-6595 178 0
6595 -6559 -178 0
-6596 6561 0
-6596 178 0
6596 -6561 -178 0
-6597 6563 0
-6597 179 0
6597 -6563 -179 0
-6598 6581 6582 0
-6598 -6581 -6582 0
6598 -6581 6582 0
6598 6581 -6582 0
-6599 6598 6583 0
-6599 -6598 -6583 0
6599 -6598 6583 0
6599 6598 -6583 0
-6600 6599 6584 0
-6600 -6599 -6584 0
6600 -6599 6584 0
6600 6599 -6584 0
-6601 6600 6585 0
-6601 -6600 -6585 0
6601 -6600 6585 0
6601 6600 -6585 0
-6602 6601 6586 0
-6602 -6601 -6586 0
6602 -6601 6586 0
6602 6601 -6586 0
-6603 6602 6587 0
-6603 -6602 -6587 0
6603 -6602 6587 0
6603 6602 -6587 0
-6604 6603 6588 0
-6604 -6603 -6588 0
6604 -6603 6588 0
6604 6603 -6588 0
-6605 6604 6589 0
-6605 -6604 -6589 0
6605 -6604 6589 0
6605 6604 -6589 0
-6606 6605 6590 0
-6606 -6605 -6590 0
6606 -6605 6590 0
6606 6605 -6590 0
-6607 6606 6591 0
-6607 -6606 -6591 0
6607 -6606 6591 0
6607 6606 -6591 0
-6608 6607 6592 0
-6608 -6607 -6592 0
6608 -6607 6592 0
6608 6607 -6592 0
-6609 6608 6593 0
-6609 -6608 -6593 0
6609 -6608 6593 0
6609 6608 -6593 0
-6610 6609 6594 0
-6610 -6609 -6594 0
6610 -6609 6594 0
6610 6609 -6594 0
-6611 6610 6595 0
-6611 -6610 -6595 0
6611 -6610 6595 0
6611 6610 -6595 0
-6612 6611 6596 0
-6612 -6611 -6596 0
6612 -6611 6596 0
6612 6611 -6596 0
-6613 6612 6597 0
-6613 -6612 -6597 0
6613 -6612 6597 0
6613 6612 -6597 0
6613 0
-6614 6543 0
-6614 35 0
6614 -6543 -35 0
-6615 6545 0
-6615 36 0
6615 -6545 -36 0
-6616 6547 0
-6616 36 0
6616 -6547 -36 0
-6617 6549 0
-6617 41 0
6617 -6549 -41 0
-6618 6547 0
-6618 45 0
6618 -6547 -45 0
-6619 6545 0
-6619 45 0
6619 -6545 -45 0
-6620 6551 0
-6620 83 0
6620 -6551 -83 0
-6621 6553 0
-6621 83 0
6621 -6553 -83 0
-6622 6553 0
-6622 89 0
6622 -6553 -89 0
-6623 6551 0
-6623 89 0
6623 -6551 -89 0
-6624 6555 0
-6624 131 0
6624 -6555 -131 0
-6625 6557 0
-6625 131 0
6625 -6557 -131 0
-6626 6557 0
-6626 137 0
6626 -6557 -137 0
-6627 6555 0
-6627 137 0
6627 -6555 -137 0
-6628 6559 0
-6628 179 0
6628 -6559 -179 0
-6629 6561 0
-6629 180 0
6629 -6561 -180 0
-6630 6563 0
-6630 180 0
6630 -6563 -180 0
-6631 6614 6615 0
-6631 -6614 -6615 0
6631 -6614 6615 0
6631 6614 -6615 0
-6632 6631 6616 0
-6632 -6631 -6616 0
6632 -6631 6616 0
6632 6631 -6616 0
-6633 6632 6617 0
-6633 -6632 -6617 0
6633 -6632 6617 0
6633 6632 -6617 0
-6634 6633 6618 0
-6634 -6633 -6618 0
6634 -6633 6618 0
6634 6633 -6618 0
-6635 6634 6619 0
-6635 -6634 -6619 0
6635 -6634 6619 0
6635 6634 -6619 0
-6636 6635 6620 0
-6636 -6635 -6620 0
6636 -6635 6620 0
6636 6635 -6620 0
-6637 6636 6621 0
-6637 -6636 -6621 0
6637 -6636 6621 0
6637 6636 -6621 0
-6638 6637 6622 0
-6638 -6637 -6622 0
6638 -6637 6622 0
6638 6637 -6622 0
-6639 6638 6623 0
-6639 -6638 -6623 0
6639 -6638 6623 0
6639 6638 -6623 0
-6640 6639 6624 0
-6640 -6639 -6624 0
6640 -6639 6624 0
6640 6639 -6624 0
-6641 6640 6625 0
-6641 -6640 -6625 0
6641 -6640 6625 0
6641 6640 -6625 0
-6642 6641 6626 0
-6642 -6641 -6626 0
6642 -6641 6626 0
6642 6641 -6626 0
-6643 6642 6627 0
-6643 -6642 -6627 0
6643 -6642 6627 0
6643 6642 -6627 0
-6644 6643 6628 0
-6644 -6643 -6628 0
6644 -6643 6628 0
6644 6643 -6628 0
-6645 6644 6629 0
-6645 -6644 -6629 0
6645 -6644 6629 0
6645 6644 -6629 0
-6646 6645 6630 0
-6646 -6645 -6630 0
6646 -6645 6630 0
6646 6645 -6630 0
-6646 0
-6647 6543 0
-6647 36 0
6647 -6543 -36 0
-6648 6545 0
-6648 35 0
6648 -6545 -35 0
-6649 6547 0
-6649 34 0
6649 -6547 -34 0
-6650 6549 0
-6650 45 0
6650 -6549 -45 0
-6651 6547 0
-6651 41 0
6651 -6547 -41 0
-6652 6545 0
-6652 37 0
6652 -6545 -37 0
-6653 6551 0
-6653 84 0
6653 -6551 -84 0
-6654 6553 0
-6654 82 0
6654 -6553 -82 0
-6655 6553 0
-6655 93 0
6655 -6553 -93 0
-6656 6551 0
-6656 85 0
6656 -6551 -85 0
-6657 6555 0
-6657 132 0
6657 -6555 -132 0
-6658 6557 0
-6658 130 0
6658 -6557 -130 0
-6659 6557 0
-6659 141 0
6659 -6557 -141 0
-6660 6555 0
-6660 133 0
6660 -6555 -133 0
-6661 6559 0
-6661 180 0
6661 -6559 -180 0
-6662 6561 0
-6662 179 0
6662 -6561 -179 0
-6663 6563 0
-6663 178 0
6663 -6563 -178 0
-6664 6647 6648 0
-6664 -6647 -6648 0
6664 -6647 6648 0
6664 6647 -6648 0
-6665 6664 6649 0
-6665 -6664 -6649 0
6665 -6664 6649 0
6665 6664 -6649 0
-6666 6665 6650 0
-6666 -6665 -6650 0
6666 -6665 6650 0
6666 6665 -6650 0
-6667 6666 6651 0
-6667 -6666 -6651 0
6667 -6666 6651 0
6667 6666 -6651 0
-6668 6667 6652 0
-6668 -6667 -6652 0
6668 -6667 6652 0
6668 6667 -6652 0
-6669 6668 6653 0
-6669 -6668 -6653 0
6669 -6668 6653 0
6669 6668 -6653 0
-6670 6669 6654 0
-6670 -6669 -6654 0
6670 -6669 6654 0
6670 6669 -6654 0
-6671 6670 6655 0
-6671 -6670 -6655 0
6671 -6670 6655 0
6671 6670 -6655 0
-6672 6671 6656 0
-6672 -6671 -6656 0
6672 -6671 6656 0
6672 6671 -6656 0
-6673 6672 6657 0
-6673 -6672 -6657 0
6673 -6672 6657 0
6673 6672 -6657 0
-6674 6673 6658 0
-6674 -6673 -6658 0
6674 -6673 6658 0
6674 6673 -6658 0
-6675 6674 6659 0
-6675 -6674 -6659 0
6675 -6674 6659 0
6675 6674 -6659 0
-6676 6675 6660 0
-6676 -6675 -6660 0
6676 -6675 6660 0
6676 6675 -6660 0
-6677 6676 6661 0
-6677 -6676 -6661 0
6677 -6676 6661 0
6677 6676 -6661 0
-6678 6677 6662 0
-6678 -6677 -6662 0
6678 -6677 6662 0
6678 6677 -6662 0
-6679 6678 6663 0
-6679 -6678 -6663 0
6679 -6678 6663 0
6679 6678 -6663 0
-6679 0
-6680 6543 0
-6680 38 0
6680 -6543 -38 0
-6681 6545 0
-6681 38 0
6681 -6545 -38 0
-6682 6547 0
-6682 43 0
6682 -6547 -43 0
-6683 6549 0
-6683 38 0
6683 -6549 -38 0
-6684 6547 0
-6684 38 0
6684 -6547 -38 0
-6685 6545 0
-6685 43 0
6685 -6545 -43 0
-6686 6551 0
-6686 86 0
6686 -6551 -86 0
-6687 6553 0
-6687 96 0
6687 -6553 -96 0
-6688 6553 0
-6688 86 0
6688 -6553 -86 0
-6689 6551 0
-6689 96 0
6689 -6551 -96 0
-6690 6555 0
-6690 134 0
6690 -6555 -134 0
-6691 6557 0
-6691 144 0
6691 -6557 -144 0
-6692 6557 0
-6692 134 0
6692 -6557 -134 0
-6693 6555 0
-6693 144 0
6693 -6555 -144 0
-6694 6559 0
-6694 182 0
6694 -6559 -182 0
-6695 6561 0
-6695 182 0
6695 -6561 -182 0
-6696 6563 0
-6696 187 0
6696 -6563 -187 0
-6697 6680 6681 0
-6697 -6680 -6681 0
6697 -6680 6681 0
6697 6680 -6681 0
-6698 6697 6682 0
-6698 -6697 -6682 0
6698 -6697 6682 0
6698 6697 -6682 0
-6699 6698 6683 0
-6699 -6698 -6683 0
6699 -6698 6683 0
6699 6698 -6683 0
-6700 6699 6684 0
-6700 -6699 -6684 0
6700 -6699 6684 0
6700 6699 -6684 0
-6701 6700 6685 0
-6701 -6700 -6685 0
6701 -6700 6685 0
6701 6700 -6685 0
-6702 6701 6686 0
-6702 -6701 -6686 0
6702 -6701 6686 0
6702 6701 -6686 0
-6703 6702 6687 0
-6703 -6702 -6687 0
6703 -6702 6687 0
6703 6702 -6687 0
-6704 6703 6688 0
-6704 -6703 -6688 0
6704 -6703 6688 0
6704 6703 -6688 0
-6705 6704 6689 0
-6705 -6704 -6689 0
6705 -6704 6689 0
6705 6704 -6689 0
-6706 6705 6690 0
-6706 -6705 -6690 0
6706 -6705 6690 0
6706 6705 -6690 0
-6707 6706 6691 0
-6707 -6706 -6691 0
6707 -6706 6691 0
6707 6706 -6691 0
-6708 6707 6692 0
-6708 -6707 -6692 0
6708 -6707 6692 0
6708 6707 -6692 0
-6709 6708 6693 0
-6709 -6708 -6693 0
6709 -6708 6693 0
6709 6708 -6693 0
-6710 6709 6694 0
-6710 -6709 -6694 0
6710 -6709 6694 0
6710 6709 -6694 0
-6711 6710 6695 0
-6711 -6710 -6695 0
6711 -6710 6695 0
6711 6710 -6695 0
-6712 6711 6696 0
-6712 -6711 -6696 0
6712 -6711 6696 0
6712 6711 -6696 0
-6712 0
-6713 6543 0
-6713 39 0
6713 -6543 -39 0
-6714 6545 0
-6714 40 0
6714 -6545 -40 0
-6715 6547 0
-6715 44 0
6715 -6547 -44 0
-6716 6549 0
-6716 42 0
6716 -6549 -42 0
-6717 6547 0
-6717 46 0
6717 -6547 -46 0
-6718 6545 0
-6718 47 0
6718 -6545 -47 0
-6719 6551 0
-6719 87 0
6719 -6551 -87 0
-6720 6553 0
-6720 95 0
6720 -6553 -95 0
-6721 6553 0
-6721 90 0
6721 -6553 -90 0
-6722 6551 0
-6722 92 0
6722 -6551 -92 0
-6723 6555 0
-6723 135 0
6723 -6555 -135 0
-6724 6557 0
-6724 143 0
6724 -6557 -143 0
-6725 6557 0
-6725 138 0
6725 -6557 -138 0
-6726 6555 0
-6726 140 0
6726 -6555 -140 0
-6727 6559 0
-6727 183 0
6727 -6559 -183 0
-6728 6561 0
-6728 184 0
6728 -6561 -184 0
-6729 6563 0
-6729 188 0
6729 -6563 -188 0
-6730 6713 6714 0
-6730 -6713 -6714 0
6730 -6713 6714 0
6730 6713 -6714 0
-6731 6730 6715 0
-6731 -6730 -6715 0
6731 -6730 6715 0
6731 6730 -6715 0
-6732 6731 6716 0
-6732 -6731 -6716 0
6732 -6731 6716 0
6732 6731 -6716 0
-6733 6732 6717 0
-6733 -6732 -6717 0
6733 -6732 6717 0
6733 6732 -6717 0
-6734 6733 6718 0
-6734 -6733 -6718 0
6734 -6733 6718 0
6734 6733 -6718 0
-6735 6734 6719 0
-6735 -6734 -6719 0
6735 -6734 6719 0
6735 6734 -6719 0
-6736 6735 6720 0
-6736 -6735 -6720 0
6736 -6735 6720 0
6736 6735 -6720 0
-6737 6736 6721 0
-6737 -6736 -6721 0
6737 -6736 6721 0
6737 6736 -6721 0
-6738 6737 6722 0
-6738 -6737 -6722 0
6738 -6737 6722 0
6738 6737 -6722 0
-6739 6738 6723 0
-6739 -6738 -6723 0
6739 -6738 6723 0
6739 6738 -6723 0
-6740 6739 6724 0
-6740 -6739 -6724 0
6740 -6739 6724 0
6740 6739 -6724 0
-6741 6740 6725 0
-6741 -6740 -6725 0
6741 -6740 6725 0
6741 6740 -6725 0
-6742 6741 6726 0
-6742 -6741 -6726 0
6742 -6741 6726 0
6742 6741 -6726 0
-6743 6742 6727 0
-6743 -6742 -6727 0
6743 -6742 6727 0
6743 6742 -6727 0
-6744 6743 6728 0
-6744 -6743 -6728 0
6744 -6743 6728 0
6744 6743 -6728 0
-6745 6744 6729 0
-6745 -6744 -6729 0
6745 -6744 6729 0
6745 6744 -6729 0
-6745 0
-6746 6543 0
-6746 40 0
6746 -6543 -40 0
-6747 6545 0
-6747 39 0
6747 -6545 -39 0
-6748 6547 0
-6748 42 0
6748 -6547 -42 0
-6749 6549 0
-6749 46 0
6749 -6549 -46 0
-6750 6551 0
-6750 88 0
6750 -6551 -88 0
-6751 6553 0
-6751 94 0
6751 -6553 -94 0
-6752 6555 0
-6752 136 0
6752 -6555 -136 0
-6753 6557 0
-6753 142 0
6753 -6557 -142 0
-6754 6559 0
-6754 184 0
6754 -6559 -184 0
-6755 6561 0
-6755 183 0
6755 -6561 -183 0
-6756 6563 0
-6756 186 0
6756 -6563 -186 0
-6757 6746 6747 0
-6757 -6746 -6747 0
6757 -6746 6747 0
6757 6746 -6747 0
-6758 6757 6748 0
-6758 -6757 -6748 0
6758 -6757 6748 0
6758 6757 -6748 0
-6759 6758 6749 0
-6759 -6758 -6749 0
6759 -6758 6749 0
6759 6758 -6749 0
-6760 6759 6748 0
-6760 -6759 -6748 0
6760 -6759 6748 0
6760 6759 -6748 0
-6761 6760 6747 0
-6761 -6760 -6747 0
6761 -6760 6747 0
6761 6760 -6747 0
-6762 6761 6750 0
-6762 -6761 -6750 0
6762 -6761 6750 0
6762 6761 -6750 0
-6763 6762 6751 0
-6763 -6762 -6751 0
6763 -6762 6751 0
6763 6762 -6751 0
-6764 6763 6751 0
-6764 -6763 -6751 0
6764 -6763 6751 0
6764 6763 -6751 0
-6765 6764 6750 0
-6765 -6764 -6750 0
6765 -6764 6750 0
6765 6764 -6750 0
-6766 6765 6752 0
-6766 -6765 -6752 0
6766 -6765 6752 0
6766 6765 -6752 0
-6767 6766 6753 0
-6767 -6766 -6753 0
6767 -6766 6753 0
6767 6766 -6753 0
-6768 6767 6753 0
-6768 -6767 -6753 0
6768 -6767 6753 0
6768 6767 -6753 0
-6769 6768 6752 0
-6769 -6768 -6752 0
6769 -6768 6752 0
6769 6768 -6752 0
-6770 6769 6754 0
-6770 -6769 -6754 0
6770 -6769 6754 0
6770 6769 -6754 0
-6771 6770 6755 0
-6771 -6770 -6755 0
6771 -6770 6755 0
6771 6770 -6755 0
-6772 6771 6756 0
-6772 -6771 -6756 0
6772 -6771 6756 0
6772 6771 -6756 0
-6772 0
-6773 6543 0
-6773 42 0
6773 -6543 -42 0
-6774 6545 0
-6774 46 0
6774 -6545 -46 0
-6775 6547 0
-6775 47 0
6775 -6547 -47 0
-6776 6549 0
-6776 39 0
6776 -6549 -39 0
-6777 6547 0
-6777 40 0
6777 -6547 -40 0
-6778 6545 0
-6778 44 0
6778 -6545 -44 0
-6779 6551 0
-6779 90 0
6779 -6551 -90 0
-6780 6553 0
-6780 92 0
6780 -6553 -92 0
-6781 6553 0
-6781 87 0
6781 -6553 -87 0
-6782 6551 0
-6782 95 0
6782 -6551 -95 0
-6783 6555 0
-6783 138 0
6783 -6555 -138 0
-6784 6557 0
-6784 140 0
6784 -6557 -140 0
-6785 6557 0
-6785 135 0
6785 -6557 -135 0
-6786 6555 0
-6786 143 0
6786 -6555 -143 0
-6787 6559 0
-6787 186 0
6787 -6559 -186 0
-6788 6561 0
-6788 190 0
6788 -6561 -190 0
-6789 6563 0
-6789 191 0
6789 -6563 -191 0
-6790 6773 6774 0
-6790 -6773 -6774 0
6790 -6773 6774 0
6790 6773 -6774 0
-6791 6790 6775 0
-6791 -6790 -6775 0
6791 -6790 6775 0
6791 6790 -6775 0
-6792 6791 6776 0
-6792 -6791 -6776 0
6792 -6791 6776 0
6792 6791 -6776 0
-6793 6792 6777 0
-6793 -6792 -6777 0
6793 -6792 6777 0
6793 6792 -6777 0
-6794 6793 6778 0
-6794 -6793 -6778 0
6794 -6793 6778 0
6794 6793 -6778 0
-6795 6794 6779 0
-6795 -6794 -6779 0
6795 -6794 6779 0
6795 6794 -6779 0
-6796 6795 6780 0
-6796 -6795 -6780 0
6796 -6795 6780 0
6796 6795 -6780 0
-6797 6796 6781 0
-6797 -6796 -6781 0
6797 -6796 6781 0
6797 6796 -6781 0
-6798 6797 6782 0
-6798 -6797 -6782 0
6798 -6797 6782 0
6798 6797 -6782 0
-6799 6798 6783 0
-6799 -6798 -6783 0
6799 -6798 6783 0
6799 6798 -6783 0
-6800 6799 6784 0
-6800 -6799 -6784 0
6800 -6799 6784 0
6800 6799 -6784 0
-6801 6800 6785 0
-6801 -6800 -6785 0
6801 -6800 6785 0
6801 6800 -6785 0
-6802 6801 6786 0
-6802 -6801 -6786 0
6802 -6801 6786 0
6802 6801 -6786 0
-6803 6802 6787 0
-6803 -6802 -6787 0
6803 -6802 6787 0
6803 6802 -6787 0
-6804 6803 6788 0
-6804 -6803 -6788 0
6804 -6803 6788 0
6804 6803 -6788 0
-6805 6804 6789 0
-6805 -6804 -6789 0
6805 -6804 6789 0
6805 6804 -6789 0
6805 0
-6806 6543 0
-6806 43 0
6806 -6543 -43 0
-6807 6545 0
-6807 48 0
6807 -6545 -48 0
-6808 6547 0
-6808 48 0
6808 -6547 -48 0
-6809 6549 0
-6809 43 0
6809 -6549 -43 0
-6810 6551 0
-6810 91 0
6810 -6551 -91 0
-6811 6553 0
-6811 91 0
6811 -6553 -91 0
-6812 6555 0
-6812 139 0
6812 -6555 -139 0
-6813 6557 0
-6813 139 0
6813 -6557 -139 0
-6814 6559 0
-6814 187 0
6814 -6559 -187 0
-6815 6561 0
-6815 192 0
6815 -6561 -192 0
-6816 6563 0
-6816 192 0
6816 -6563 -192 0
-6817 6806 6807 0
-6817 -6806 -6807 0
6817 -6806 6807 0
6817 6806 -6807 0
-6818 6817 6808 0
-6818 -6817 -6808 0
6818 -6817 6808 0
6818 6817 -6808 0
-6819 6818 6809 0
-6819 -6818 -6809 0
6819 -6818 6809 0
6819 6818 -6809 0
-6820 6819 6808 0
-6820 -6819 -6808 0
6820 -6819 6808 0
6820 6819 -6808 0
-6821 6820 6807 0
-6821 -6820 -6807 0
6821 -6820 6807 0
6821 6820 -6807 0
-6822 6821 6810 0
-6822 -6821 -6810 0
6822 -6821 6810 0
6822 6821 -6810 0
-6823 6822 6811 0
-6823 -6822 -6811 0
6823 -6822 6811 0
6823 6822 -6811 0
-6824 6823 6811 0
-6824 -6823 -6811 0
6824 -6823 6811 0
6824 6823 -6811 0
-6825 6824 6810 0
-6825 -6824 -6810 0
6825 -6824 6810 0
6825 6824 -6810 0
-6826 6825 6812 0
-6826 -6825 -6812 0
6826 -6825 6812 0
6826 6825 -6812 0
-6827 6826 6813 0
-6827 -6826 -6813 0
6827 -6826 6813 0
6827 6826 -6813 0
-6828 6827 6813 0
-6828 -6827 -6813 0
6828 -6827 6813 0
6828 6827 -6813 0
-6829 6828 6812 0
-6829 -6828 -6812 0
6829 -6828 6812 0
6829 6828 -6812 0
-6830 6829 6814 0
-6830 -6829 -6814 0
6830 -6829 6814 0
6830 6829 -6814 0
-6831 6830 6815 0
-6831 -6830 -6815 0
6831 -6830 6815 0
6831 6830 -6815 0
-6832 6831 6816 0
-6832 -6831 -6816 0
6832 -6831 6816 0
6832 6831 -6816 0
-6832 0
-6833 6543 0
-6833 46 0
6833 -6543 -46 0
-6834 6545 0
-6834 42 0
6834 -6545 -42 0
-6835 6547 0
-6835 39 0
6835 -6547 -39 0
-6836 6549 0
-6836 40 0
6836 -6549 -40 0
-6837 6551 0
-6837 94 0
6837 -6551 -94 0
-6838 6553 0
-6838 88 0
6838 -6553 -88 0
-6839 6555 0
-6839 142 0
6839 -6555 -142 0
-6840 6557 0
-6840 136 0
6840 -6557 -136 0
-6841 6559 0
-6841 190 0
6841 -6559 -190 0
-6842 6561 0
-6842 186 0
6842 -6561 -186 0
-6843 6563 0
-6843 183 0
6843 -6563 -183 0
-6844 6833 6834 0
-6844 -6833 -6834 0
6844 -6833 6834 0
6844 6833 -6834 0
-6845 6844 6835 0
-6845 -6844 -6835 0
6845 -6844 6835 0
6845 6844 -6835 0
-6846 6845 6836 0
-6846 -6845 -6836 0
6846 -6845 6836 0
6846 6845 -6836 0
-6847 6846 6835 0
-6847 -6846 -6835 0
6847 -6846 6835 0
6847 6846 -6835 0
-6848 6847 6834 0
-6848 -6847 -6834 0
6848 -6847 6834 0
6848 6847 -6834 0
-6849 6848 6837 0
-6849 -6848 -6837 0
6849 -6848 6837 0
6849 6848 -6837 0
-6850 6849 6838 0
-6850 -6849 -6838 0
6850 -6849 6838 0
6850 6849 -6838 0
-6851 6850 6838 0
-6851 -6850 -6838 0
6851 -6850 6838 0
6851 6850 -6838 0
-6852 6851 6837 0
-6852 -6851 -6837 0
6852 -6851 6837 0
6852 6851 -6837 0
-6853 6852 6839 0
-6853 -6852 -6839 0
6853 -6852 6839 0
6853 6852 -6839 0
-6854 6853 6840 0
-6854 -6853 -6840 0
6854 -6853 6840 0
6854 6853 -6840 0
-6855 6854 6840 0
-6855 -6854 -6840 0
6855 -6854 6840 0
6855 6854 -6840 0
-6856 6855 6839 0
-6856 -6855 -6839 0
6856 -6855 6839 0
6856 6855 -6839 0
-6857 6856 6841 0
-6857 -6856 -6841 0
6857 -6856 6841 0
6857 6856 -6841 0
-6858 6857 6842 0
-6858 -6857 -6842 0
6858 -6857 6842 0
6858 6857 -6842 0
-6859 6858 6843 0
-6859 -6858 -6843 0
6859 -6858 6843 0
6859 6858 -6843 0
-6859 0
-6860 5 0
-6860 22 0
6860 -5 -22 0
-6861 6860 0
-6861 33 0
6861 -6860 -33 0
-6862 6 0
-6862 18 0
6862 -6 -18 0
-6863 6862 0
-6863 33 0
6863 -6862 -33 0
-6864 10 0
-6864 27 0
6864 -10 -27 0
-6865 6864 0
-6865 33 0
6865 -6864 -33 0
-6866 23 0
-6866 11 0
6866 -23 -11 0
-6867 6866 0
-6867 33 0
6867 -6866 -33 0
-6868 53 0
-6868 70 0
6868 -53 -70 0
-6869 6868 0
-6869 81 0
6869 -6868 -81 0
-6870 61 0
-6870 76 0
6870 -61 -76 0
-6871 6870 0
-6871 81 0
6871 -6870 -81 0
-6872 66 0
-6872 54 0
6872 -66 -54 0
-6873 6872 0
-6873 81 0
6873 -6872 -81 0
-6874 68 0
-6874 63 0
6874 -68 -63 0
-6875 6874 0
-6875 81 0
6875 -6874 -81 0
-6876 101 0
-6876 118 0
6876 -101 -118 0
-6877 6876 0
-6877 129 0
6877 -6876 -129 0
-6878 109 0
-6878 124 0
6878 -109 -124 0
-6879 6878 0
-6879 129 0
6879 -6878 -129 0
-6880 114 0
-6880 102 0
6880 -114 -102 0
-6881 6880 0
-6881 129 0
6881 -6880 -129 0
-6882 116 0
-6882 111 0
6882 -116 -111 0
-6883 6882 0
-6883 129 0
6883 -6882 -129 0
-6884 149 0
-6884 166 0
6884 -149 -166 0
-6885 6884 0
-6885 177 0
6885 -6884 -177 0
-6886 150 0
-6886 162 0
6886 -150 -162 0
-6887 6886 0
-6887 177 0
6887 -6886 -177 0
-6888 154 0
-6888 171 0
6888 -154 -171 0
-6889 6888 0
-6889 177 0
6889 -6888 -177 0
-6890 6861 6863 0
-6890 -6861 -6863 0
6890 -6861 6863 0
6890 6861 -6863 0
-6891 6890 6865 0
-6891 -6890 -6865 0
6891 -6890 6865 0
6891 6890 -6865 0
-6892 6891 6863 0
-6892 -6891 -6863 0
6892 -6891 6863 0
6892 6891 -6863 0
-6893 6892 6861 0
-6893 -6892 -6861 0
6893 -6892 6861 0
6893 6892 -6861 0
-6894 6893 6867 0
-6894 -6893 -6867 0
6894 -6893 6867 0
6894 6893 -6867 0
-6895 6894 6869 0
-6895 -6894 -6869 0
6895 -6894 6869 0
6895 6894 -6869 0
-6896 6895 6871 0
-6896 -6895 -6871 0
6896 -6895 6871 0
6896 6895 -6871 0
-6897 6896 6873 0
-6897 -6896 -6873 0
6897 -6896 6873 0
6897 6896 -6873 0
-6898 6897 6875 0
-6898 -6897 -6875 0
6898 -6897 6875 0
6898 6897 -6875 0
-6899 6898 6877 0
-6899 -6898 -6877 0
6899 -6898 6877 0
6899 6898 -6877 0
-6900 6899 6879 0
-6900 -6899 -6879 0
6900 -6899 6879 0
6900 6899 -6879 0
-6901 6900 6881 0
-6901 -6900 -6881 0
6901 -6900 6881 0
6901 6900 -6881 0
-6902 6901 6883 0
-6902 -6901 -6883 0
6902 -6901 6883 0
6902 6901 -6883 0
-6903 6902 6885 0
-6903 -6902 -6885 0
6903 -6902 6885 0
6903 6902 -6885 0
-6904 6903 6887 0
-6904 -6903 -6887 0
6904 -6903 6887 0
6904 6903 -6887 0
-6905 6904 6889 0
-6905 -6904 -6889 0
6905 -6904 6889 0
6905 6904 -6889 0
-6905 0
-6906 6860 0
-6906 34 0
6906 -6860 -34 0
-6907 6862 0
-6907 34 0
6907 -6862 -34 0
-6908 6864 0
-6908 35 0
6908 -6864 -35 0
-6909 6862 0
-6909 37 0
6909 -6862 -37 0
-6910 6860 0
-6910 37 0
6910 -6860 -37 0
-6911 6866 0
-6911 41 0
6911 -6866 -41 0
-6912 6868 0
-6912 82 0
6912 -6868 -82 0
-6913 6870 0
-6913 84 0
6913 -6870 -84 0
-6914 6872 0
-6914 85 0
6914 -6872 -85 0
-6915 6874 0
-6915 93 0
6915 -6874 -93 0
-6916 6876 0
-6916 130 0
6916 -6876 -130 0
-6917 6878 0
-6917 132 0
6917 -6878 -132 0
-6918 6880 0
-6918 133 0
6918 -6880 -133 0
-6919 6882 0
-6919 141 0
6919 -6882 -141 0
-6920 6884 0
-6920 178 0
6920 -6884 -178 0
-6921 6886 0
-6921 178 0
6921 -6886 -178 0
-6922 6888 0
-6922 179 0
6922 -6888 -179 0
-6923 6906 6907 0
-6923 -6906 -6907 0
6923 -6906 6907 0
6923 6906 -6907 0
-6924 6923 6908 0
-6924 -6923 -6908 0
6924 -6923 6908 0
6924 6923 -6908 0
-6925 6924 6909 0
-6925 -6924 -6909 0
6925 -6924 6909 0
6925 6924 -6909 0
-6926 6925 6910 0
-6926 -6925 -6910 0
6926 -6925 6910 0
6926 6925 -6910 0
-6927 6926 6911 0
-6927 -6926 -6911 0
6927 -6926 6911 0
6927 6926 -6911 0
-6928 6927 6912 0
-6928 -6927 -6912 0
6928 -6927 6912 0
6928 6927 -6912 0
-6929 6928 6913 0
-6929 -6928 -6913 0
6929 -6928 6913 0
6929 6928 -6913 0
-6930 6929 6914 0
-6930 -6929 -6914 0
6930 -6929 6914 0
6930 6929 -6914 0
-6931 6930 6915 0
-6931 -6930 -6915 0
6931 -6930 6915 0
6931 6930 -6915 0
-6932 6931 6916 0
-6932 -6931 -6916 0
6932 -6931 6916 0
6932 6931 -6916 0
-6933 6932 6917 0
-6933 -6932 -6917 0
6933 -6932 6917 0
6933 6932 -6917 0
-6934 6933 6918 0
-6934 -6933 -6918 0
6934 -6933 6918 0
6934 6933 -6918 0
-6935 6934 6919 0
-6935 -6934 -6919 0
6935 -6934 6919 0
6935 6934 -6919 0
-6936 6935 6920 0
-6936 -6935 -6920 0
6936 -6935 6920 0
6936 6935 -6920 0
-6937 6936 6921 0
-6937 -6936 -6921 0
6937 -6936 6921 0
6937 6936 -6921 0
-6938 6937 6922 0
-6938 -6937 -6922 0
6938 -6937 6922 0
6938 6937 -6922 0
-6938 0
-6939 6860 0
-6939 35 0
6939 -6860 -35 0
-6940 6862 0
-6940 36 0
6940 -6862 -36 0
-6941 6864 0
-6941 36 0
6941 -6864 -36 0
-6942 6862 0
-6942 41 0
6942 -6862 -41 0
-6943 6860 0
-6943 45 0
6943 -6860 -45 0
-6944 6866 0
-6944 45 0
6944 -6866 -45 0
-6945 6868 0
-6945 83 0
6945 -6868 -83 0
-6946 6870 0
-6946 83 0
6946 -6870 -83 0
-6947 6872 0
-6947 89 0
6947 -6872 -89 0
-6948 6874 0
-6948 89 0
6948 -6874 -89 0
-6949 6876 0
-6949 131 0
6949 -6876 -131 0
-6950 6878 0
-6950 131 0
6950 -6878 -131 0
-6951 6880 0
-6951 137 0
6951 -6880 -137 0
-6952 6882 0
-6952 137 0
6952 -6882 -137 0
-6953 6884 0
-6953 179 0
6953 -6884 -179 0
-6954 6886 0
-6954 180 0
6954 -6886 -180 0
-6955 6888 0
-6955 180 0
6955 -6888 -180 0
-6956 6939 6940 0
-6956 -6939 -6940 0
6956 -6939 6940 0
6956 6939 -6940 0
-6957 6956 6941 0
-6957 -6956 -6941 0
6957 -6956 6941 0
6957 6956 -6941 0
-6958 6957 6942 0
-6958 -6957 -6942 0
6958 -6957 6942 0
6958 6957 -6942 0
-6959 6958 6943 0
-6959 -6958 -6943 0
6959 -6958 6943 0
6959 6958 -6943 0
-6960 6959 6944 0
-6960 -6959 -6944 0
6960 -6959 6944 0
6960 6959 -6944 0
-6961 6960 6945 0
-6961 -6960 -6945 0
6961 -6960 6945 0
6961 6960 -6945 0
-6962 6961 6946 0
-6962 -6961 -6946 0
6962 -6961 6946 0
6962 6961 -6946 0
-6963 6962 6947 0
-6963 -6962 -6947 0
6963 -6962 6947 0
6963 6962 -6947 0
-6964 6963 6948 0
-6964 -6963 -6948 0
6964 -6963 6948 0
6964 6963 -6948 0
-6965 6964 6949 0
-6965 -6964 -6949 0
6965 -6964 6949 0
6965 6964 -6949 0
-6966 6965 6950 0
-6966 -6965 -6950 0
6966 -6965 6950 0
6966 6965 -6950 0
-6967 6966 6951 0
-6967 -6966 -6951 0
6967 -6966 6951 0
6967 6966 -6951 0
-6968 6967 6952 0
-6968 -6967 -6952 0
6968 -6967 6952 0
6968 6967 -6952 0
-6969 6968 6953 0
-6969 -6968 -6953 0
6969 -6968 6953 0
6969 6968 -6953 0
-6970 6969 6954 0
-6970 -6969 -6954 0
6970 -6969 6954 0
6970 6969 -6954 0
-6971 6970 6955 0
-6971 -6970 -6955 0
6971 -6970 6955 0
6971 6970 -6955 0
-6971 0
-6972 6860 0
-6972 36 0
6972 -6860 -36 0
-6973 6862 0
-6973 35 0
6973 -6862 -35 0
-6974 6864 0
-6974 34 0
6974 -6864 -34 0
-6975 6862 0
-6975 45 0
6975 -6862 -45 0
-6976 6860 0
-6976 41 0
6976 -6860 -41 0
-6977 6866 0
-6977 37 0
6977 -6866 -37 0
-6978 6868 0
-6978 84 0
6978 -6868 -84 0
-6979 6870 0
-6979 82 0
6979 -6870 -82 0
-6980 6872 0
-6980 93 0
6980 -6872 -93 0
-6981 6874 0
-6981 85 0
6981 -6874 -85 0
-6982 6876 0
-6982 132 0
6982 -6876 -132 0
-6983 6878 0
-6983 130 0
6983 -6878 -130 0
-6984 6880 0
-6984 141 0
6984 -6880 -141 0
-6985 6882 0
-6985 133 0
6985 -6882 -133 0
-6986 6884 0
-6986 180 0
6986 -6884 -180 0
-6987 6886 0
-6987 179 0
6987 -6886 -179 0
-6988 6888 0
-6988 178 0
6988 -6888 -178 0
-6989 6972 6973 0
-6989 -6972 -6973 0
6989 -6972 6973 0
6989 6972 -6973 0
-6990 6989 6974 0
-6990 -6989 -6974 0
6990 -6989 6974 0
6990 6989 -6974 0
-6991 6990 6975 0
-6991 -6990 -6975 0
6991 -6990 6975 0
6991 6990 -6975 0
-6992 6991 6976 0
-6992 -6991 -6976 0
6992 -6991 6976 0
6992 6991 -6976 0
-6993 6992 6977 0
-6993 -6992 -6977 0
6993 -6992 6977 0
6993 6992 -6977 0
-6994 6993 6978 0
-6994 -6993 -6978 0
6994 -6993 6978 0
6994 6993 -6978 0
-6995 6994 6979 0
-6995 -6994 -6979 0
6995 -6994 6979 0
6995 6994 -6979 0
-6996 6995 6980 0
-6996 -6995 -6980 0
6996 -6995 6980 0
6996 6995 -6980 0
-6997 6996 6981 0
-6997 -6996 -6981 0
6997 -6996 6981 0
6997 6996 -6981 0
-6998 6997 6982 0
-6998 -6997 -6982 0
6998 -6997 6982 0
6998 6997 -6982 0
-6999 6998 6983 0
-6999 -6998 -6983 0
6999 -6998 6983 0
6999 6998 -6983 0
-7000 6999 6984 0
-7000 -6999 -6984 0
7000 -6999 6984 0
7000 6999 -6984 0
-7001 7000 6985 0
-7001 -7000 -6985 0
7001 -7000 6985 0
7001 7000 -6985 0
-7002 7001 6986 0
-7002 -7001 -6986 0
7002 -7001 6986 0
7002 7001 -6986 0
-7003 7002 6987 0
-7003 -7002 -6987 0
7003 -7002 6987 0
7003 7002 -6987 0
-7004 7003 6988 0
-7004 -7003 -6988 0
7004 -7003 6988 0
7004 7003 -6988 0
-7004 0
-7005 6860 0
-7005 38 0
7005 -6860 -38 0
-7006 6862 0
-7006 38 0
7006 -6862 -38 0
-7007 6864 0
-7007 43 0
7007 -6864 -43 0
-7008 6866 0
-7008 43 0
7008 -6866 -43 0
-7009 6868 0
-7009 86 0
7009 -6868 -86 0
-7010 6870 0
-7010 96 0
7010 -6870 -96 0
-7011 6872 0
-7011 86 0
7011 -6872 -86 0
-7012 6874 0
-7012 96 0
7012 -6874 -96 0
-7013 6876 0
-7013 134 0
7013 -6876 -134 0
-7014 6878 0
-7014 144 0
7014 -6878 -144 0
-7015 6880 0
-7015 134 0
7015 -6880 -134 0
-7016 6882 0
-7016 144 0
7016 -6882 -144 0
-7017 6884 0
-7017 182 0
7017 -6884 -182 0
-7018 6886 0
-7018 182 0
7018 -6886 -182 0
-7019 6888 0
-7019 187 0
7019 -6888 -187 0
-7020 7005 7006 0
-7020 -7005 -7006 0
7020 -7005 7006 0
7020 7005 -7006 0
-7021 7020 7007 0
-7021 -7020 -7007 0
7021 -7020 7007 0
7021 7020 -7007 0
-7022 7021 7006 0
-7022 -7021 -7006 0
7022 -7021 7006 0
7022 7021 -7006 0
-7023 7022 7005 0
-7023 -7022 -7005 0
7023 -7022 7005 0
7023 7022 -7005 0
-7024 7023 7008 0
-7024 -7023 -7008 0
7024 -7023 7008 0
7024 7023 -7008 0
-7025 7024 7009 0
-7025 -7024 -7009 0
7025 -7024 7009 0
7025 7024 -7009 0
-7026 7025 7010 0
-7026 -7025 -7010 0
7026 -7025 7010 0
7026 7025 -7010 0
-7027 7026 7011 0
-7027 -7026 -7011 0
7027 -7026 7011 0
7027 7026 -7011 0
-7028 7027 7012 0
-7028 -7027 -7012 0
7028 -7027 7012 0
7028 7027 -7012 0
-7029 7028 7013 0
-7029 -7028 -7013 0
7029 -7028 7013 0
7029 7028 -7013 0
-7030 7029 7014 0
-7030 -7029 -7014 0
7030 -7029 7014 0
7030 7029 -7014 0
-7031 7030 7015 0
-7031 -7030 -7015 0
7031 -7030 7015 0
7031 7030 -7015 0
-7032 7031 7016 0
-7032 -7031 -7016 0
7032 -7031 7016 0
7032 7031 -7016 0
-7033 7032 7017 0
-7033 -7032 -7017 0
7033 -7032 7017 0
7033 7032 -7017 0
-7034 7033 7018 0
-7034 -7033 -7018 0
7034 -7033 7018 0
7034 7033 -7018 0
-7035 7034 7019 0
-7035 -7034 -7019 0
7035 -7034 7019 0
7035 7034 -7019 0
-7035 0
-7036 6860 0
-7036 39 0
7036 -6860 -39 0
-7037 6862 0
-7037 40 0
7037 -6862 -40 0
-7038 6864 0
-7038 44 0
7038 -6864 -44 0
-7039 6862 0
-7039 42 0
7039 -6862 -42 0
-7040 6860 0
-7040 46 0
7040 -6860 -46 0
-7041 6866 0
-7041 47 0
7041 -6866 -47 0
-7042 6868 0
-7042 87 0
7042 -6868 -87 0
-7043 6870 0
-7043 95 0
7043 -6870 -95 0
-7044 6872 0
-7044 90 0
7044 -6872 -90 0
-7045 6874 0
-7045 92 0
7045 -6874 -92 0
-7046 6876 0
-7046 135 0
7046 -6876 -135 0
-7047 6878 0
-7047 143 0
7047 -6878 -143 0
-7048 6880 0
-7048 138 0
7048 -6880 -138 0
-7049 6882 0
-7049 140 0
7049 -6882 -140 0
-7050 6884 0
-7050 183 0
7050 -6884 -183 0
-7051 6886 0
-7051 184 0
7051 -6886 -184 0
-7052 6888 0
-7052 188 0
7052 -6888 -188 0
-7053 7036 7037 0
-7053 -7036 -7037 0
7053 -7036 7037 0
7053 7036 -7037 0
-7054 7053 7038 0
-7054 -7053 -7038 0
7054 -7053 7038 0
7054 7053 -7038 0
-7055 7054 7039 0
-7055 -7054 -7039 0
7055 -7054 7039 0
7055 7054 -7039 0
-7056 7055 7040 0
-7056 -7055 -7040 0
7056 -7055 7040 0
7056 7055 -7040 0
-7057 7056 7041 0
-7057 -7056 -7041 0
7057 -7056 7041 0
7057 7056 -7041 0
-7058 7057 7042 0
-7058 -7057 -7042 0
7058 -7057 7042 0
7058 7057 -7042 0
-7059 7058 7043 0
-7059 -7058 -7043 0
7059 -7058 7043 0
7059 7058 -7043 0
-7060 7059 7044 0
-7060 -7059 -7044 0
7060 -7059 7044 0
7060 7059 -7044 0
-7061 7060 7045 0
-7061 -7060 -7045 0
7061 -7060 7045 0
7061 7060 -7045 0
-7062 7061 7046 0
-7062 -7061 -7046 0
7062 -7061 7046 0
7062 7061 -7046 0
-7063 7062 7047 0
-7063 -7062 -7047 0
7063 -7062 7047 0
7063 7062 -7047 0
-7064 7063 7048 0
-7064 -7063 -7048 0
7064 -7063 7048 0
7064 7063 -7048 0
-7065 7064 7049 0
-7065 -7064 -7049 0
7065 -7064 7049 0
7065 7064 -7049 0
-7066 7065 7050 0
-7066 -7065 -7050 0
7066 -7065 7050 0
7066 7065 -7050 0
-7067 7066 7051 0
-7067 -7066 -7051 0
7067 -7066 7051 0
7067 7066 -7051 0
-7068 7067 7052 0
-7068 -7067 -7052 0
7068 -7067 7052 0
7068 7067 -7052 0
-7068 0
-7069 6860 0
-7069 40 0
7069 -6860 -40 0
-7070 6862 0
-7070 39 0
7070 -6862 -39 0
-7071 6864 0
-7071 42 0
7071 -6864 -42 0
-7072 6862 0
-7072 46 0
7072 -6862 -46 0
-7073 6860 0
-7073 42 0
7073 -6860 -42 0
-7074 6866 0
-7074 39 0
7074 -6866 -39 0
-7075 6868 0
-7075 88 0
7075 -6868 -88 0
-7076 6870 0
-7076 94 0
7076 -6870 -94 0
-7077 6872 0
-7077 94 0
7077 -6872 -94 0
-7078 6874 0
-7078 88 0
7078 -6874 -88 0
-7079 6876 0
-7079 136 0
7079 -6876 -136 0
-7080 6878 0
-7080 142 0
7080 -6878 -142 0
-7081 6880 0
-7081 142 0
7081 -6880 -142 0
-7082 6882 0
-7082 136 0
7082 -6882 -136 0
-7083 6884 0
-7083 184 0
7083 -6884 -184 0
-7084 6886 0
-7084 183 0
7084 -6886 -183 0
-7085 6888 0
-7085 186 0
7085 -6888 -186 0
-7086 7069 7070 0
-7086 -7069 -7070 0
7086 -7069 7070 0
7086 7069 -7070 0
-7087 7086 7071 0
-7087 -7086 -7071 0
7087 -7086 7071 0
7087 7086 -7071 0
-7088 7087 7072 0
-7088 -7087 -7072 0
7088 -7087 7072 0
7088 7087 -7072 0
-7089 7088 7073 0
-7089 -7088 -7073 0
7089 -7088 7073 0
7089 7088 -7073 0
-7090 7089 7074 0
-7090 -7089 -7074 0
7090 -7089 7074 0
7090 7089 -7074 0
-7091 7090 7075 0
-7091 -7090 -7075 0
7091 -7090 7075 0
7091 7090 -7075 0
-7092 7091 7076 0
-7092 -7091 -7076 0
7092 -7091 7076 0
7092 7091 -7076 0
-7093 7092 7077 0
-7093 -7092 -7077 0
7093 -7092 7077 0
7093 7092 -7077 0
-7094 7093 7078 0
-7094 -7093 -7078 0
7094 -7093 7078 0
7094 7093 -7078 0
-7095 7094 7079 0
-7095 -7094 -7079 0
7095 -7094 7079 0
7095 7094 -7079 0
-7096 7095 7080 0
-7096 -7095 -7080 0
7096 -7095 7080 0
7096 7095 -7080 0
-7097 7096 7081 0
-7097 -7096 -7081 0
7097 -7096 7081 0
7097 7096 -7081 0
-7098 7097 7082 0
-7098 -7097 -7082 0
7098 -7097 7082 0
7098 7097 -7082 0
-7099 7098 7083 0
-7099 -7098 -7083 0
7099 -7098 7083 0
7099 7098 -7083 0
-7100 7099 7084 0
-7100 -7099 -7084 0
7100 -7099 7084 0
7100 7099 -7084 0
-7101 7100 7085 0
-7101 -7100 -7085 0
7101 -7100 7085 0
7101 7100 -7085 0
-7101 0
-7102 6860 0
-7102 43 0
7102 -6860 -43 0
-7103 6862 0
-7103 48 0
7103 -6862 -48 0
-7104 6864 0
-7104 48 0
7104 -6864 -48 0
-7105 6862 0
-7105 43 0
7105 -6862 -43 0
-7106 6860 0
-7106 48 0
7106 -6860 -48 0
-7107 6866 0
-7107 48 0
7107 -6866 -48 0
-7108 6868 0
-7108 91 0
7108 -6868 -91 0
-7109 6870 0
-7109 91 0
7109 -6870 -91 0
-7110 6872 0
-7110 91 0
7110 -6872 -91 0
-7111 6874 0
-7111 91 0
7111 -6874 -91 0
-7112 6876 0
-7112 139 0
7112 -6876 -139 0
-7113 6878 0
-7113 139 0
7113 -6878 -139 0
-7114 6880 0
-7114 139 0
7114 -6880 -139 0
-7115 6882 0
-7115 139 0
7115 -6882 -139 0
-7116 6884 0
-7116 187 0
7116 -6884 -187 0
-7117 6886 0
-7117 192 0
7117 -6886 -192 0
-7118 6888 0
-7118 192 0
7118 -6888 -192 0
-7119 7102 7103 0
-7119 -7102 -7103 0
7119 -7102 7103 0
7119 7102 -7103 0
-7120 7119 7104 0
-7120 -7119 -7104 0
7120 -7119 7104 0
7120 7119 -7104 0
-7121 7120 7105 0
-7121 -7120 -7105 0
7121 -7120 7105 0
7121 7120 -7105 0
-7122 7121 7106 0
-7122 -7121 -7106 0
7122 -7121 7106 0
7122 7121 -7106 0
-7123 7122 7107 0
-7123 -7122 -7107 0
7123 -7122 7107 0
7123 7122 -7107 0
-7124 7123 7108 0
-7124 -7123 -7108 0
7124 -7123 7108 0
7124 7123 -7108 0
-7125 7124 7109 0
-7125 -7124 -7109 0
7125 -7124 7109 0
7125 7124 -7109 0
-7126 7125 7110 0
-7126 -7125 -7110 0
7126 -7125 7110 0
7126 7125 -7110 0
-7127 7126 7111 0
-7127 -7126 -7111 0
7127 -7126 7111 0
7127 7126 -7111 0
-7128 7127 7112 0
-7128 -7127 -7112 0
7128 -7127 7112 0
7128 7127 -7112 0
-7129 7128 7113 0
-7129 -7128 -7113 0
7129 -7128 7113 0
7129 7128 -7113 0
-7130 7129 7114 0
-7130 -7129 -7114 0
7130 -7129 7114 0
7130 7129 -7114 0
-7131 7130 7115 0
-7131 -7130 -7115 0
7131 -7130 7115 0
7131 7130 -7115 0
-7132 7131 7116 0
-7132 -7131 -7116 0
7132 -7131 7116 0
7132 7131 -7116 0
-7133 7132 7117 0
-7133 -7132 -7117 0
7133 -7132 7117 0
7133 7132 -7117 0
-7134 7133 7118 0
-7134 -7133 -7118 0
7134 -7133 7118 0
7134 7133 -7118 0
-7134 0
-7135 6860 0
-7135 44 0
7135 -6860 -44 0
-7136 6862 0
-7136 47 0
7136 -6862 -47 0
-7137 6864 0
-7137 46 0
7137 -6864 -46 0
-7138 6866 0
-7138 40 0
7138 -6866 -40 0
-7139 6868 0
-7139 92 0
7139 -6868 -92 0
-7140 6870 0
-7140 90 0
7140 -6870 -90 0
-7141 6872 0
-7141 95 0
7141 -6872 -95 0
-7142 6874 0
-7142 87 0
7142 -6874 -87 0
-7143 6876 0
-7143 140 0
7143 -6876 -140 0
-7144 6878 0
-7144 138 0
7144 -6878 -138 0
-7145 6880 0
-7145 143 0
7145 -6880 -143 0
-7146 6882 0
-7146 135 0
7146 -6882 -135 0
-7147 6884 0
-7147 188 0
7147 -6884 -188 0
-7148 6886 0
-7148 191 0
7148 -6886 -191 0
-7149 6888 0
-7149 190 0
7149 -6888 -190 0
-7150 7135 7136 0
-7150 -7135 -7136 0
7150 -7135 7136 0
7150 7135 -7136 0
-7151 7150 7137 0
-7151 -7150 -7137 0
7151 -7150 7137 0
7151 7150 -7137 0
-7152 7151 7136 0
-7152 -7151 -7136 0
7152 -7151 7136 0
7152 7151 -7136 0
-7153 7152 7135 0
-7153 -7152 -7135 0
7153 -7152 7135 0
7153 7152 -7135 0
-7154 7153 7138 0
-7154 -7153 -7138 0
7154 -7153 7138 0
7154 7153 -7138 0
-7155 7154 7139 0
-7155 -7154 -7139 0
7155 -7154 7139 0
7155 7154 -7139 0
-7156 7155 7140 0
-7156 -7155 -7140 0
7156 -7155 7140 0
7156 7155 -7140 0
-7157 7156 7141 0
-7157 -7156 -7141 0
7157 -7156 7141 0
7157 7156 -7141 0
-7158 7157 7142 0
-7158 -7157 -7142 0
7158 -7157 7142 0
7158 7157 -7142 0
-7159 7158 7143 0
-7159 -7158 -7143 0
7159 -7158 7143 0
7159 7158 -7143 0
-7160 7159 7144 0
-7160 -7159 -7144 0
7160 -7159 7144 0
7160 7159 -7144 0
-7161 7160 7145 0
-7161 -7160 -7145 0
7161 -7160 7145 0
7161 7160 -7145 0
-7162 7161 7146 0
-7162 -7161 -7146 0
7162 -7161 7146 0
7162 7161 -7146 0
-7163 7162 7147 0
-7163 -7162 -7147 0
7163 -7162 7147 0
7163 7162 -7147 0
-7164 7163 7148 0
-7164 -7163 -7148 0
7164 -7163 7148 0
7164 7163 -7148 0
-7165 7164 7149 0
-7165 -7164 -7149 0
7165 -7164 7149 0
7165 7164 -7149 0
-7165 0
-7166 6860 0
-7166 47 0
7166 -6860 -47 0
-7167 6862 0
-7167 44 0
7167 -6862 -44 0
-7168 6864 0
-7168 40 0
7168 -6864 -40 0
-7169 6866 0
-7169 46 0
7169 -6866 -46 0
-7170 6868 0
-7170 95 0
7170 -6868 -95 0
-7171 6870 0
-7171 87 0
7171 -6870 -87 0
-7172 6872 0
-7172 92 0
7172 -6872 -92 0
-7173 6874 0
-7173 90 0
7173 -6874 -90 0
-7174 6876 0
-7174 143 0
7174 -6876 -143 0
-7175 6878 0
-7175 135 0
7175 -6878 -135 0
-7176 6880 0
-7176 140 0
7176 -6880 -140 0
-7177 6882 0
-7177 138 0
7177 -6882 -138 0
-7178 6884 0
-7178 191 0
7178 -6884 -191 0
-7179 6886 0
-7179 188 0
7179 -6886 -188 0
-7180 6888 0
-7180 184 0
7180 -6888 -184 0
-7181 7166 7167 0
-7181 -7166 -7167 0
7181 -7166 7167 0
7181 7166 -7167 0
-7182 7181 7168 0
-7182 -7181 -7168 0
7182 -7181 7168 0
7182 7181 -7168 0
-7183 7182 7167 0
-7183 -7182 -7167 0
7183 -7182 7167 0
7183 7182 -7167 0
-7184 7183 7166 0
-7184 -7183 -7166 0
7184 -7183 7166 0
7184 7183 -7166 0
-7185 7184 7169 0
-7185 -7184 -7169 0
7185 -7184 7169 0
7185 7184 -7169 0
-7186 7185 7170 0
-7186 -7185 -7170 0
7186 -7185 7170 0
7186 7185 -7170 0
-7187 7186 7171 0
-7187 -7186 -7171 0
7187 -7186 7171 0
7187 7186 -7171 0
-7188 7187 7172 0
-7188 -7187 -7172 0
7188 -7187 7172 0
7188 7187 -7172 0
-7189 7188 7173 0
-7189 -7188 -7173 0
7189 -7188 7173 0
7189 7188 -7173 0
-7190 7189 7174 0
-7190 -7189 -7174 0
7190 -7189 7174 0
7190 7189 -7174 0
-7191 7190 7175 0
-7191 -7190 -7175 0
7191 -7190 7175 0
7191 7190 -7175 0
-7192 7191 7176 0
-7192 -7191 -7176 0
7192 -7191 7176 0
7192 7191 -7176 0
-7193 7192 7177 0
-7193 -7192 -7177 0
7193 -7192 7177 0
7193 7192 -7177 0
-7194 7193 7178 0
-7194 -7193 -7178 0
7194 -7193 7178 0
7194 7193 -7178 0
-7195 7194 7179 0
-7195 -7194 -7179 0
7195 -7194 7179 0
7195 7194 -7179 0
-7196 7195 7180 0
-7196 -7195 -7180 0
7196 -7195 7180 0
7196 7195 -7180 0
-7196 0
-7197 5 0
-7197 23 0
7197 -5 -23 0
-7198 7197 0
-7198 33 0
7198 -7197 -33 0
-7199 6 0
-7199 20 0
7199 -6 -20 0
-7200 7199 0
-7200 33 0
7200 -7199 -33 0
-7201 10 0
-7201 28 0
7201 -10 -28 0
-7202 7201 0
-7202 33 0
7202 -7201 -33 0
-7203 18 0
-7203 10 0
7203 -18 -10 0
-7204 7203 0
-7204 33 0
7204 -7203 -33 0
-7205 22 0
-7205 13 0
7205 -22 -13 0
-7206 7205 0
-7206 33 0
7206 -7205 -33 0
-7207 23 0
-7207 15 0
7207 -23 -15 0
-7208 7207 0
-7208 33 0
7208 -7207 -33 0
-7209 53 0
-7209 71 0
7209 -53 -71 0
-7210 7209 0
-7210 81 0
7210 -7209 -81 0
-7211 61 0
-7211 75 0
7211 -61 -75 0
-7212 7211 0
-7212 81 0
7212 -7211 -81 0
-7213 66 0
-7213 58 0
7213 -66 -58 0
-7214 7213 0
-7214 81 0
7214 -7213 -81 0
-7215 68 0
-7215 59 0
7215 -68 -59 0
-7216 7215 0
-7216 81 0
7216 -7215 -81 0
-7217 101 0
-7217 119 0
7217 -101 -119 0
-7218 7217 0
-7218 129 0
7218 -7217 -129 0
-7219 109 0
-7219 123 0
7219 -109 -123 0
-7220 7219 0
-7220 129 0
7220 -7219 -129 0
-7221 114 0
-7221 106 0
7221 -114 -106 0
-7222 7221 0
-7222 129 0
7222 -7221 -129 0
-7223 116 0
-7223 107 0
7223 -116 -107 0
-7224 7223 0
-7224 129 0
7224 -7223 -129 0
-7225 149 0
-7225 167 0
7225 -149 -167 0
-7226 7225 0
-7226 177 0
7226 -7225 -177 0
-7227 150 0
-7227 164 0
7227 -150 -164 0
-7228 7227 0
-7228 177 0
7228 -7227 -177 0
-7229 154 0
-7229 172 0
7229 -154 -172 0
-7230 7229 0
-7230 177 0
7230 -7229 -177 0
-7231 7198 7200 0
-7231 -7198 -7200 0
7231 -7198 7200 0
7231 7198 -7200 0
-7232 7231 7202 0
-7232 -7231 -7202 0
7232 -7231 7202 0
7232 7231 -7202 0
-7233 7232 7204 0
-7233 -7232 -7204 0
7233 -7232 7204 0
7233 7232 -7204 0
-7234 7233 7206 0
-7234 -7233 -7206 0
7234 -7233 7206 0
7234 7233 -7206 0
-7235 7234 7208 0
-7235 -7234 -7208 0
7235 -7234 7208 0
7235 7234 -7208 0
-7236 7235 7210 0
-7236 -7235 -7210 0
7236 -7235 7210 0
7236 7235 -7210 0
-7237 7236 7212 0
-7237 -7236 -7212 0
7237 -7236 7212 0
7237 7236 -7212 0
-7238 7237 7214 0
-7238 -7237 -7214 0
7238 -7237 7214 0
7238 7237 -7214 0
-7239 7238 7216 0
-7239 -7238 -7216 0
7239 -7238 7216 0
7239 7238 -7216 0
-7240 7239 7218 0
-7240 -7239 -7218 0
7240 -7239 7218 0
7240 7239 -7218 0
-7241 7240 7220 0
-7241 -7240 -7220 0
7241 -7240 7220 0
7241 7240 -7220 0
-7242 7241 7222 0
-7242 -7241 -7222 0
7242 -7241 7222 0
7242 7241 -7222 0
-7243 7242 7224 0
-7243 -7242 -7224 0
7243 -7242 7224 0
7243 7242 -7224 0
-7244 7243 7226 0
-7244 -7243 -7226 0
7244 -7243 7226 0
7244 7243 -7226 0
-7245 7244 7228 0
-7245 -7244 -7228 0
7245 -7244 7228 0
7245 7244 -7228 0
-7246 7245 7230 0
-7246 -7245 -7230 0
7246 -7245 7230 0
7246 7245 -7230 0
-7246 0
-7247 7197 0
-7247 34 0
7247 -7197 -34 0
-7248 7199 0
-7248 34 0
7248 -7199 -34 0
-7249 7201 0
-7249 35 0
7249 -7201 -35 0
-7250 7203 0
-7250 37 0
7250 -7203 -37 0
-7251 7205 0
-7251 37 0
7251 -7205 -37 0
-7252 7207 0
-7252 41 0
7252 -7207 -41 0
-7253 7209 0
-7253 82 0
7253 -7209 -82 0
-7254 7211 0
-7254 84 0
7254 -7211 -84 0
-7255 7213 0
-7255 85 0
7255 -7213 -85 0
-7256 7215 0
-7256 93 0
7256 -7215 -93 0
-7257 7217 0
-7257 130 0
7257 -7217 -130 0
-7258 7219 0
-7258 132 0
7258 -7219 -132 0
-7259 7221 0
-7259 133 0
7259 -7221 -133 0
-7260 7223 0
-7260 141 0
7260 -7223 -141 0
-7261 7225 0
-7261 178 0
7261 -7225 -178 0
-7262 7227 0
-7262 178 0
7262 -7227 -178 0
-7263 7229 0
-7263 179 0
7263 -7229 -179 0
-7264 7247 7248 0
-7264 -7247 -7248 0
7264 -7247 7248 0
7264 7247 -7248 0
-7265 7264 7249 0
-7265 -7264 -7249 0
7265 -7264 7249 0
7265 7264 -7249 0
-7266 7265 7250 0
-7266 -7265 -7250 0
7266 -7265 7250 0
7266 7265 -7250 0
-7267 7266 7251 0
-7267 -7266 -7251 0
7267 -7266 7251 0
7267 7266 -7251 0
-7268 7267 7252 0
-7268 -7267 -7252 0
7268 -7267 7252 0
7268 7267 -7252 0
-7269 7268 7253 0
-7269 -7268 -7253 0
7269 -7268 7253 0
7269 7268 -7253 0
-7270 7269 7254 0
-7270 -7269 -7254 0
7270 -7269 7254 0
7270 7269 -7254 0
-7271 7270 7255 0
-7271 -7270 -7255 0
7271 -7270 7255 0
7271 7270 -7255 0
-7272 7271 7256 0
-7272 -7271 -7256 0
7272 -7271 7256 0
7272 7271 -7256 0
-7273 7272 7257 0
-7273 -7272 -7257 0
7273 -7272 7257 0
7273 7272 -7257 0
-7274 7273 7258 0
-7274 -7273 -7258 0
7274 -7273 7258 0
7274 7273 -7258 0
-7275 7274 7259 0
-7275 -7274 -7259 0
7275 -7274 7259 0
7275 7274 -7259 0
-7276 7275 7260 0
-7276 -7275 -7260 0
7276 -7275 7260 0
7276 7275 -7260 0
-7277 7276 7261 0
-7277 -7276 -7261 0
7277 -7276 7261 0
7277 7276 -7261 0
-7278 7277 7262 0
-7278 -7277 -7262 0
7278 -7277 7262 0
7278 7277 -7262 0
-7279 7278 7263 0
-7279 -7278 -7263 0
7279 -7278 7263 0
7279 7278 -7263 0
-7279 0
-7280 7197 0
-7280 35 0
7280 -7197 -35 0
-7281 7199 0
-7281 36 0
7281 -7199 -36 0
-7282 7201 0
-7282 36 0
7282 -7201 -36 0
-7283 7203 0
-7283 41 0
7283 -7203 -41 0
-7284 7205 0
-7284 45 0
7284 -7205 -45 0
-7285 7207 0
-7285 45 0
7285 -7207 -45 0
-7286 7209 0
-7286 83 0
7286 -7209 -83 0
-7287 7211 0
-7287 83 0
7287 -7211 -83 0
-7288 7213 0
-7288 89 0
7288 -7213 -89 0
-7289 7215 0
-7289 89 0
7289 -7215 -89 0
-7290 7217 0
-7290 131 0
7290 -7217 -131 0
-7291 7219 0
-7291 131 0
7291 -7219 -131 0
-7292 7221 0
-7292 137 0
7292 -7221 -137 0
-7293 7223 0
-7293 137 0
7293 -7223 -137 0
-7294 7225 0
-7294 179 0
7294 -7225 -179 0
-7295 7227 0
-7295 180 0
7295 -7227 -180 0
-7296 7229 0
-7296 180 0
7296 -7229 -180 0
-7297 7280 7281 0
-7297 -7280 -7281 0
7297 -7280 7281 0
7297 7280 -7281 0
-7298 7297 7282 0
-7298 -7297 -7282 0
7298 -7297 7282 0
7298 7297 -7282 0
-7299 7298 7283 0
-7299 -7298 -7283 0
7299 -7298 7283 0
7299 7298 -7283 0
-7300 7299 7284 0
-7300 -7299 -7284 0
7300 -7299 7284 0
7300 7299 -7284 0
-7301 7300 7285 0
-7301 -7300 -7285 0
7301 -7300 7285 0
7301 7300 -7285 0
-7302 7301 7286 0
-7302 -7301 -7286 0
7302 -7301 7286 0
7302 7301 -7286 0
-7303 7302 7287 0
-7303 -7302 -7287 0
7303 -7302 7287 0
7303 7302 -7287 0
-7304 7303 7288 0
-7304 -7303 -7288 0
7304 -7303 7288 0
7304 7303 -7288 0
-7305 7304 7289 0
-7305 -7304 -7289 0
7305 -7304 7289 0
7305 7304 -7289 0
-7306 7305 7290 0
-7306 -7305 -7290 0
7306 -7305 7290 0
7306 7305 -7290 0
-7307 7306 7291 0
-7307 -7306 -7291 0
7307 -7306 7291 0
7307 7306 -7291 0
-7308 7307 7292 0
-7308 -7307 -7292 0
7308 -7307 7292 0
7308 7307 -7292 0
-7309 7308 7293 0
-7309 -7308 -7293 0
7309 -7308 7293 0
7309 7308 -7293 0
-7310 7309 7294 0
-7310 -7309 -7294 0
7310 -7309 7294 0
7310 7309 -7294 0
-7311 7310 7295 0
-7311 -7310 -7295 0
7311 -7310 7295 0
7311 7310 -7295 0
-7312 7311 7296 0
-7312 -7311 -7296 0
7312 -7311 7296 0
7312 7311 -7296 0
-7312 0
-7313 7197 0
-7313 36 0
7313 -7197 -36 0
-7314 7199 0
-7314 35 0
7314 -7199 -35 0
-7315 7201 0
-7315 34 0
7315 -7201 -34 0
-7316 7203 0
-7316 45 0
7316 -7203 -45 0
-7317 7205 0
-7317 41 0
7317 -7205 -41 0
-7318 7207 0
-7318 37 0
7318 -7207 -37 0
-7319 7209 0
-7319 84 0
7319 -7209 -84 0
-7320 7211 0
-7320 82 0
7320 -7211 -82 0
-7321 7213 0
-7321 93 0
7321 -7213 -93 0
-7322 7215 0
-7322 85 0
7322 -7215 -85 0
-7323 7217 0
-7323 132 0
7323 -7217 -132 0
-7324 7219 0
-7324 130 0
7324 -7219 -130 0
-7325 7221 0
-7325 141 0
7325 -7221 -141 0
-7326 7223 0
-7326 133 0
7326 -7223 -133 0
-7327 7225 0
-7327 180 0
7327 -7225 -180 0
-7328 7227 0
-7328 179 0
7328 -7227 -179 0
-7329 7229 0
-7329 178 0
7329 -7229 -178 0
-7330 7313 7314 0
-7330 -7313 -7314 0
7330 -7313 7314 0
7330 7313 -7314 0
-7331 7330 7315 0
-7331 -7330 -7315 0
7331 -7330 7315 0
7331 7330 -7315 0
-7332 7331 7316 0
-7332 -7331 -7316 0
7332 -7331 7316 0
7332 7331 -7316 0
-7333 7332 7317 0
-7333 -7332 -7317 0
7333 -7332 7317 0
7333 7332 -7317 0
-7334 7333 7318 0
-7334 -7333 -7318 0
7334 -7333 7318 0
7334 7333 -7318 0
-7335 7334 7319 0
-7335 -7334 -7319 0
7335 -7334 7319 0
7335 7334 -7319 0
-7336 7335 7320 0
-7336 -7335 -7320 0
7336 -7335 7320 0
7336 7335 -7320 0
-7337 7336 7321 0
-7337 -7336 -7321 0
7337 -7336 7321 0
7337 7336 -7321 0
-7338 7337 7322 0
-7338 -7337 -7322 0
7338 -7337 7322 0
7338 7337 -7322 0
-7339 7338 7323 0
-7339 -7338 -7323 0
7339 -7338 7323 0
7339 7338 -7323 0
-7340 7339 7324 0
-7340 -7339 -7324 0
7340 -7339 7324 0
7340 7339 -7324 0
-7341 7340 7325 0
-7341 -7340 -7325 0
7341 -7340 7325 0
7341 7340 -7325 0
-7342 7341 7326 0
-7342 -7341 -7326 0
7342 -7341 7326 0
7342 7341 -7326 0
-7343 7342 7327 0
-7343 -7342 -7327 0
7343 -7342 7327 0
7343 7342 -7327 0
-7344 7343 7328 0
-7344 -7343 -7328 0
7344 -7343 7328 0
7344 7343 -7328 0
-7345 7344 7329 0
-7345 -7344 -7329 0
7345 -7344 7329 0
7345 7344 -7329 0
-7345 0
-7346 7197 0
-7346 37 0
7346 -7197 -37 0
-7347 7199 0
-7347 37 0
7347 -7199 -37 0
-7348 7201 0
-7348 41 0
7348 -7201 -41 0
-7349 7203 0
-7349 34 0
7349 -7203 -34 0
-7350 7205 0
-7350 34 0
7350 -7205 -34 0
-7351 7207 0
-7351 35 0
7351 -7207 -35 0
-7352 7209 0
-7352 85 0
7352 -7209 -85 0
-7353 7211 0
-7353 93 0
7353 -7211 -93 0
-7354 7213 0
-7354 82 0
7354 -7213 -82 0
-7355 7215 0
-7355 84 0
7355 -7215 -84 0
-7356 7217 0
-7356 133 0
7356 -7217 -133 0
-7357 7219 0
-7357 141 0
7357 -7219 -141 0
-7358 7221 0
-7358 130 0
7358 -7221 -130 0
-7359 7223 0
-7359 132 0
7359 -7223 -132 0
-7360 7225 0
-7360 181 0
7360 -7225 -181 0
-7361 7227 0
-7361 181 0
7361 -7227 -181 0
-7362 7229 0
-7362 185 0
7362 -7229 -185 0
-7363 7346 7347 0
-7363 -7346 -7347 0
7363 -7346 7347 0
7363 7346 -7347 0
-7364 7363 7348 0
-7364 -7363 -7348 0
7364 -7363 7348 0
7364 7363 -7348 0
-7365 7364 7349 0
-7365 -7364 -7349 0
7365 -7364 7349 0
7365 7364 -7349 0
-7366 7365 7350 0
-7366 -7365 -7350 0
7366 -7365 7350 0
7366 7365 -7350 0
-7367 7366 7351 0
-7367 -7366 -7351 0
7367 -7366 7351 0
7367 7366 -7351 0
-7368 7367 7352 0
-7368 -7367 -7352 0
7368 -7367 7352 0
7368 7367 -7352 0
-7369 7368 7353 0
-7369 -7368 -7353 0
7369 -7368 7353 0
7369 7368 -7353 0
-7370 7369 7354 0
-7370 -7369 -7354 0
7370 -7369 7354 0
7370 7369 -7354 0
-7371 7370 7355 0
-7371 -7370 -7355 0
7371 -7370 7355 0
7371 7370 -7355 0
-7372 7371 7356 0
-7372 -7371 -7356 0
7372 -7371 7356 0
7372 7371 -7356 0
-7373 7372 7357 0
-7373 -7372 -7357 0
7373 -7372 7357 0
7373 7372 -7357 0
-7374 7373 7358 0
-7374 -7373 -7358 0
7374 -7373 7358 0
7374 7373 -7358 0
-7375 7374 7359 0
-7375 -7374 -7359 0
7375 -7374 7359 0
7375 7374 -7359 0
-7376 7375 7360 0
-7376 -7375 -7360 0
7376 -7375 7360 0
7376 7375 -7360 0
-7377 7376 7361 0
-7377 -7376 -7361 0
7377 -7376 7361 0
7377 7376 -7361 0
-7378 7377 7362 0
-7378 -7377 -7362 0
7378 -7377 7362 0
7378 7377 -7362 0
-7378 0
-7379 7197 0
-7379 38 0
7379 -7197 -38 0
-7380 7199 0
-7380 38 0
7380 -7199 -38 0
-7381 7201 0
-7381 43 0
7381 -7201 -43 0
-7382 7203 0
-7382 38 0
7382 -7203 -38 0
-7383 7205 0
-7383 38 0
7383 -7205 -38 0
-7384 7207 0
-7384 43 0
7384 -7207 -43 0
-7385 7209 0
-7385 86 0
7385 -7209 -86 0
-7386 7211 0
-7386 96 0
7386 -7211 -96 0
-7387 7213 0
-7387 86 0
7387 -7213 -86 0
-7388 7215 0
-7388 96 0
7388 -7215 -96 0
-7389 7217 0
-7389 134 0
7389 -7217 -134 0
-7390 7219 0
-7390 144 0
7390 -7219 -144 0
-7391 7221 0
-7391 134 0
7391 -7221 -134 0
-7392 7223 0
-7392 144 0
7392 -7223 -144 0
-7393 7225 0
-7393 182 0
7393 -7225 -182 0
-7394 7227 0
-7394 182 0
7394 -7227 -182 0
-7395 7229 0
-7395 187 0
7395 -7229 -187 0
-7396 7379 7380 0
-7396 -7379 -7380 0
7396 -7379 7380 0
7396 7379 -7380 0
-7397 7396 7381 0
-7397 -7396 -7381 0
7397 -7396 7381 0
7397 7396 -7381 0
-7398 7397 7382 0
-7398 -7397 -7382 0
7398 -7397 7382 0
7398 7397 -7382 0
-7399 7398 7383 0
-7399 -7398 -7383 0
7399 -7398 7383 0
7399 7398 -7383 0
-7400 7399 7384 0
-7400 -7399 -7384 0
7400 -7399 7384 0
7400 7399 -7384 0
-7401 7400 7385 0
-7401 -7400 -7385 0
7401 -7400 7385 0
7401 7400 -7385 0
-7402 7401 7386 0
-7402 -7401 -7386 0
7402 -7401 7386 0
7402 7401 -7386 0
-7403 7402 7387 0
-7403 -7402 -7387 0
7403 -7402 7387 0
7403 7402 -7387 0
-7404 7403 7388 0
-7404 -7403 -7388 0
7404 -7403 7388 0
7404 7403 -7388 0
-7405 7404 7389 0
-7405 -7404 -7389 0
7405 -7404 7389 0
7405 7404 -7389 0
-7406 7405 7390 0
-7406 -7405 -7390 0
7406 -7405 7390 0
7406 7405 -7390 0
-7407 7406 7391 0
-7407 -7406 -7391 0
7407 -7406 7391 0
7407 7406 -7391 0
-7408 7407 7392 0
-7408 -7407 -7392 0
7408 -7407 7392 0
7408 7407 -7392 0
-7409 7408 7393 0
-7409 -7408 -7393 0
7409 -7408 7393 0
7409 7408 -7393 0
-7410 7409 7394 0
-7410 -7409 -7394 0
7410 -7409 7394 0
7410 7409 -7394 0
-7411 7410 7395 0
-7411 -7410 -7395 0
7411 -7410 7395 0
7411 7410 -7395 0
-7411 0
-7412 7197 0
-7412 39 0
7412 -7197 -39 0
-7413 7199 0
-7413 40 0
7413 -7199 -40 0
-7414 7201 0
-7414 44 0
7414 -7201 -44 0
-7415 7203 0
-7415 42 0
7415 -7203 -42 0
-7416 7205 0
-7416 46 0
7416 -7205 -46 0
-7417 7207 0
-7417 47 0
7417 -7207 -47 0
-7418 7209 0
-7418 87 0
7418 -7209 -87 0
-7419 7211 0
-7419 95 0
7419 -7211 -95 0
-7420 7213 0
-7420 90 0
7420 -7213 -90 0
-7421 7215 0
-7421 92 0
7421 -7215 -92 0
-7422 7217 0
-7422 135 0
7422 -7217 -135 0
-7423 7219 0
-7423 143 0
7423 -7219 -143 0
-7424 7221 0
-7424 138 0
7424 -7221 -138 0
-7425 7223 0
-7425 140 0
7425 -7223 -140 0
-7426 7225 0
-7426 183 0
7426 -7225 -183 0
-7427 7227 0
-7427 184 0
7427 -7227 -184 0
-7428 7229 0
-7428 188 0
7428 -7229 -188 0
-7429 7412 7413 0
-7429 -7412 -7413 0
7429 -7412 7413 0
7429 7412 -7413 0
-7430 7429 7414 0
-7430 -7429 -7414 0
7430 -7429 7414 0
7430 7429 -7414 0
-7431 7430 7415 0
-7431 -7430 -7415 0
7431 -7430 7415 0
7431 7430 -7415 0
-7432 7431 7416 0
-7432 -7431 -7416 0
7432 -7431 7416 0
7432 7431 -7416 0
-7433 7432 7417 0
-7433 -7432 -7417 0
7433 -7432 7417 0
7433 7432 -7417 0
-7434 7433 7418 0
-7434 -7433 -7418 0
7434 -7433 7418 0
7434 7433 -7418 0
-7435 7434 7419 0
-7435 -7434 -7419 0
7435 -7434 7419 0
7435 7434 -7419 0
-7436 7435 7420 0
-7436 -7435 -7420 0
7436 -7435 7420 0
7436 7435 -7420 0
-7437 7436 7421 0
-7437 -7436 -7421 0
7437 -7436 7421 0
7437 7436 -7421 0
-7438 7437 7422 0
-7438 -7437 -7422 0
7438 -7437 7422 0
7438 7437 -7422 0
-7439 7438 7423 0
-7439 -7438 -7423 0
7439 -7438 7423 0
7439 7438 -7423 0
-7440 7439 7424 0
-7440 -7439 -7424 0
7440 -7439 7424 0
7440 7439 -7424 0
-7441 7440 7425 0
-7441 -7440 -7425 0
7441 -7440 7425 0
7441 7440 -7425 0
-7442 7441 7426 0
-7442 -7441 -7426 0
7442 -7441 7426 0
7442 7441 -7426 0
-7443 7442 7427 0
-7443 -7442 -7427 0
7443 -7442 7427 0
7443 7442 -7427 0
-7444 7443 7428 0
-7444 -7443 -7428 0
7444 -7443 7428 0
7444 7443 -7428 0
-7444 0
-7445 7197 0
-7445 40 0
7445 -7197 -40 0
-7446 7199 0
-7446 39 0
7446 -7199 -39 0
-7447 7201 0
-7447 42 0
7447 -7201 -42 0
-7448 7203 0
-7448 46 0
7448 -7203 -46 0
-7449 7205 0
-7449 42 0
7449 -7205 -42 0
-7450 7207 0
-7450 39 0
7450 -7207 -39 0
-7451 7209 0
-7451 88 0
7451 -7209 -88 0
-7452 7211 0
-7452 94 0
7452 -7211 -94 0
-7453 7213 0
-7453 94 0
7453 -7213 -94 0
-7454 7215 0
-7454 88 0
7454 -7215 -88 0
-7455 7217 0
-7455 136 0
7455 -7217 -136 0
-7456 7219 0
-7456 142 0
7456 -7219 -142 0
-7457 7221 0
-7457 142 0
7457 -7221 -142 0
-7458 7223 0
-7458 136 0
7458 -7223 -136 0
-7459 7225 0
-7459 184 0
7459 -7225 -184 0
-7460 7227 0
-7460 183 0
7460 -7227 -183 0
-7461 7229 0
-7461 186 0
7461 -7229 -186 0
-7462 7445 7446 0
-7462 -7445 -7446 0
7462 -7445 7446 0
7462 7445 -7446 0
-7463 7462 7447 0
-7463 -7462 -7447 0
7463 -7462 7447 0
7463 7462 -7447 0
-7464 7463 7448 0
-7464 -7463 -7448 0
7464 -7463 7448 0
7464 7463 -7448 0
-7465 7464 7449 0
-7465 -7464 -7449 0
7465 -7464 7449 0
7465 7464 -7449 0
-7466 7465 7450 0
-7466 -7465 -7450 0
7466 -7465 7450 0
7466 7465 -7450 0
-7467 7466 7451 0
-7467 -7466 -7451 0
7467 -7466 7451 0
7467 7466 -7451 0
-7468 7467 7452 0
-7468 -7467 -7452 0
7468 -7467 7452 0
7468 7467 -7452 0
-7469 7468 7453 0
-7469 -7468 -7453 0
7469 -7468 7453 0
7469 7468 -7453 0
-7470 7469 7454 0
-7470 -7469 -7454 0
7470 -7469 7454 0
7470 7469 -7454 0
-7471 7470 7455 0
-7471 -7470 -7455 0
7471 -7470 7455 0
7471 7470 -7455 0
-7472 7471 7456 0
-7472 -7471 -7456 0
7472 -7471 7456 0
7472 7471 -7456 0
-7473 7472 7457 0
-7473 -7472 -7457 0
7473 -7472 7457 0
7473 7472 -7457 0
-7474 7473 7458 0
-7474 -7473 -7458 0
7474 -7473 7458 0
7474 7473 -7458 0
-7475 7474 7459 0
-7475 -7474 -7459 0
7475 -7474 7459 0
7475 7474 -7459 0
-7476 7475 7460 0
-7476 -7475 -7460 0
7476 -7475 7460 0
7476 7475 -7460 0
-7477 7476 7461 0
-7477 -7476 -7461 0
7477 -7476 7461 0
7477 7476 -7461 0
-7477 0
-7478 7197 0
-7478 41 0
7478 -7197 -41 0
-7479 7199 0
-7479 45 0
7479 -7199 -45 0
-7480 7201 0
-7480 45 0
7480 -7201 -45 0
-7481 7203 0
-7481 35 0
7481 -7203 -35 0
-7482 7205 0
-7482 36 0
7482 -7205 -36 0
-7483 7207 0
-7483 36 0
7483 -7207 -36 0
-7484 7209 0
-7484 89 0
7484 -7209 -89 0
-7485 7211 0
-7485 89 0
7485 -7211 -89 0
-7486 7213 0
-7486 83 0
7486 -7213 -83 0
-7487 7215 0
-7487 83 0
7487 -7215 -83 0
-7488 7217 0
-7488 137 0
7488 -7217 -137 0
-7489 7219 0
-7489 137 0
7489 -7219 -137 0
-7490 7221 0
-7490 131 0
7490 -7221 -131 0
-7491 7223 0
-7491 131 0
7491 -7223 -131 0
-7492 7225 0
-7492 185 0
7492 -7225 -185 0
-7493 7227 0
-7493 189 0
7493 -7227 -189 0
-7494 7229 0
-7494 189 0
7494 -7229 -189 0
-7495 7478 7479 0
-7495 -7478 -7479 0
7495 -7478 7479 0
7495 7478 -7479 0
-7496 7495 7480 0
-7496 -7495 -7480 0
7496 -7495 7480 0
7496 7495 -7480 0
-7497 7496 7481 0
-7497 -7496 -7481 0
7497 -7496 7481 0
7497 7496 -7481 0
-7498 7497 7482 0
-7498 -7497 -7482 0
7498 -7497 7482 0
7498 7497 -7482 0
-7499 7498 7483 0
-7499 -7498 -7483 0
7499 -7498 7483 0
7499 7498 -7483 0
-7500 7499 7484 0
-7500 -7499 -7484 0
7500 -7499 7484 0
7500 7499 -7484 0
-7501 7500 7485 0
-7501 -7500 -7485 0
7501 -7500 7485 0
7501 7500 -7485 0
-7502 7501 7486 0
-7502 -7501 -7486 0
7502 -7501 7486 0
7502 7501 -7486 0
-7503 7502 7487 0
-7503 -7502 -7487 0
7503 -7502 7487 0
7503 7502 -7487 0
-7504 7503 7488 0
-7504 -7503 -7488 0
7504 -7503 7488 0
7504 7503 -7488 0
-7505 7504 7489 0
-7505 -7504 -7489 0
7505 -7504 7489 0
7505 7504 -7489 0
-7506 7505 7490 0
-7506 -7505 -7490 0
7506 -7505 7490 0
7506 7505 -7490 0
-7507 7506 7491 0
-7507 -7506 -7491 0
7507 -7506 7491 0
7507 7506 -7491 0
-7508 7507 7492 0
-7508 -7507 -7492 0
7508 -7507 7492 0
7508 7507 -7492 0
-7509 7508 7493 0
-7509 -7508 -7493 0
7509 -7508 7493 0
7509 7508 -7493 0
-7510 7509 7494 0
-7510 -7509 -7494 0
7510 -7509 7494 0
7510 7509 -7494 0
-7510 0
-7511 7197 0
-7511 42 0
7511 -7197 -42 0
-7512 7199 0
-7512 46 0
7512 -7199 -46 0
-7513 7201 0
-7513 47 0
7513 -7201 -47 0
-7514 7203 0
-7514 39 0
7514 -7203 -39 0
-7515 7205 0
-7515 40 0
7515 -7205 -40 0
-7516 7207 0
-7516 44 0
7516 -7207 -44 0
-7517 7209 0
-7517 90 0
7517 -7209 -90 0
-7518 7211 0
-7518 92 0
7518 -7211 -92 0
-7519 7213 0
-7519 87 0
7519 -7213 -87 0
-7520 7215 0
-7520 95 0
7520 -7215 -95 0
-7521 7217 0
-7521 138 0
7521 -7217 -138 0
-7522 7219 0
-7522 140 0
7522 -7219 -140 0
-7523 7221 0
-7523 135 0
7523 -7221 -135 0
-7524 7223 0
-7524 143 0
7524 -7223 -143 0
-7525 7225 0
-7525 186 0
7525 -7225 -186 0
-7526 7227 0
-7526 190 0
7526 -7227 -190 0
-7527 7229 0
-7527 191 0
7527 -7229 -191 0
-7528 7511 7512 0
-7528 -7511 -7512 0
7528 -7511 7512 0
7528 7511 -7512 0
-7529 7528 7513 0
-7529 -7528 -7513 0
7529 -7528 7513 0
7529 7528 -7513 0
-7530 7529 7514 0
-7530 -7529 -7514 0
7530 -7529 7514 0
7530 7529 -7514 0
-7531 7530 7515 0
-7531 -7530 -7515 0
7531 -7530 7515 0
7531 7530 -7515 0
-7532 7531 7516 0
-7532 -7531 -7516 0
7532 -7531 7516 0
7532 7531 -7516 0
-7533 7532 7517 0
-7533 -7532 -7517 0
7533 -7532 7517 0
7533 7532 -7517 0
-7534 7533 7518 0
-7534 -7533 -7518 0
7534 -7533 7518 0
7534 7533 -7518 0
-7535 7534 7519 0
-7535 -7534 -7519 0
7535 -7534 7519 0
7535 7534 -7519 0
-7536 7535 7520 0
-7536 -7535 -7520 0
7536 -7535 7520 0
7536 7535 -7520 0
-7537 7536 7521 0
-7537 -7536 -7521 0
7537 -7536 7521 0
7537 7536 -7521 0
-7538 7537 7522 0
-7538 -7537 -7522 0
7538 -7537 7522 0
7538 7537 -7522 0
-7539 7538 7523 0
-7539 -7538 -7523 0
7539 -7538 7523 0
7539 7538 -7523 0
-7540 7539 7524 0
-7540 -7539 -7524 0
7540 -7539 7524 0
7540 7539 -7524 0
-7541 7540 7525 0
-7541 -7540 -7525 0
7541 -7540 7525 0
7541 7540 -7525 0
-7542 7541 7526 0
-7542 -7541 -7526 0
7542 -7541 7526 0
7542 7541 -7526 0
-7543 7542 7527 0
-7543 -7542 -7527 0
7543 -7542 7527 0
7543 7542 -7527 0
-7543 0
-7544 7197 0
-7544 43 0
7544 -7197 -43 0
-7545 7199 0
-7545 48 0
7545 -7199 -48 0
-7546 7201 0
-7546 48 0
7546 -7201 -48 0
-7547 7203 0
-7547 43 0
7547 -7203 -43 0
-7548 7205 0
-7548 48 0
7548 -7205 -48 0
-7549 7207 0
-7549 48 0
7549 -7207 -48 0
-7550 7209 0
-7550 91 0
7550 -7209 -91 0
-7551 7211 0
-7551 91 0
7551 -7211 -91 0
-7552 7213 0
-7552 91 0
7552 -7213 -91 0
-7553 7215 0
-7553 91 0
7553 -7215 -91 0
-7554 7217 0
-7554 139 0
7554 -7217 -139 0
-7555 7219 0
-7555 139 0
7555 -7219 -139 0
-7556 7221 0
-7556 139 0
7556 -7221 -139 0
-7557 7223 0
-7557 139 0
7557 -7223 -139 0
-7558 7225 0
-7558 187 0
7558 -7225 -187 0
-7559 7227 0
-7559 192 0
7559 -7227 -192 0
-7560 7229 0
-7560 192 0
7560 -7229 -192 0
-7561 7544 7545 0
-7561 -7544 -7545 0
7561 -7544 7545 0
7561 7544 -7545 0
-7562 7561 7546 0
-7562 -7561 -7546 0
7562 -7561 7546 0
7562 7561 -7546 0
-7563 7562 7547 0
-7563 -7562 -7547 0
7563 -7562 7547 0
7563 7562 -7547 0
-7564 7563 7548 0
-7564 -7563 -7548 0
7564 -7563 7548 0
7564 7563 -7548 0
-7565 7564 7549 0
-7565 -7564 -7549 0
7565 -7564 7549 0
7565 7564 -7549 0
-7566 7565 7550 0
-7566 -7565 -7550 0
7566 -7565 7550 0
7566 7565 -7550 0
-7567 7566 7551 0
-7567 -7566 -7551 0
7567 -7566 7551 0
7567 7566 -7551 0
-7568 7567 7552 0
-7568 -7567 -7552 0
7568 -7567 7552 0
7568 7567 -7552 0
-7569 7568 7553 0
-7569 -7568 -7553 0
7569 -7568 7553 0
7569 7568 -7553 0
-7570 7569 7554 0
-7570 -7569 -7554 0
7570 -7569 7554 0
7570 7569 -7554 0
-7571 7570 7555 0
-7571 -7570 -7555 0
7571 -7570 7555 0
7571 7570 -7555 0
-7572 7571 7556 0
-7572 -7571 -7556 0
7572 -7571 7556 0
7572 7571 -7556 0
-7573 7572 7557 0
-7573 -7572 -7557 0
7573 -7572 7557 0
7573 7572 -7557 0
-7574 7573 7558 0
-7574 -7573 -7558 0
7574 -7573 7558 0
7574 7573 -7558 0
-7575 7574 7559 0
-7575 -7574 -7559 0
7575 -7574 7559 0
7575 7574 -7559 0
-7576 7575 7560 0
-7576 -7575 -7560 0
7576 -7575 7560 0
7576 7575 -7560 0
-7576 0
-7577 7197 0
-7577 44 0
7577 -7197 -44 0
-7578 7199 0
-7578 47 0
7578 -7199 -47 0
-7579 7201 0
-7579 46 0
7579 -7201 -46 0
-7580 7203 0
-7580 47 0
7580 -7203 -47 0
-7581 7205 0
-7581 44 0
7581 -7205 -44 0
-7582 7207 0
-7582 40 0
7582 -7207 -40 0
-7583 7209 0
-7583 92 0
7583 -7209 -92 0
-7584 7211 0
-7584 90 0
7584 -7211 -90 0
-7585 7213 0
-7585 95 0
7585 -7213 -95 0
-7586 7215 0
-7586 87 0
7586 -7215 -87 0
-7587 7217 0
-7587 140 0
7587 -7217 -140 0
-7588 7219 0
-7588 138 0
7588 -7219 -138 0
-7589 7221 0
-7589 143 0
7589 -7221 -143 0
-7590 7223 0
-7590 135 0
7590 -7223 -135 0
-7591 7225 0
-7591 188 0
7591 -7225 -188 0
-7592 7227 0
-7592 191 0
7592 -7227 -191 0
-7593 7229 0
-7593 190 0
7593 -7229 -190 0
-7594 7577 7578 0
-7594 -7577 -7578 0
7594 -7577 7578 0
7594 7577 -7578 0
-7595 7594 7579 0
-7595 -7594 -7579 0
7595 -7594 7579 0
7595 7594 -7579 0
-7596 7595 7580 0
-7596 -7595 -7580 0
7596 -7595 7580 0
7596 7595 -7580 0
-7597 7596 7581 0
-7597 -7596 -7581 0
7597 -7596 7581 0
7597 7596 -7581 0
-7598 7597 7582 0
-7598 -7597 -7582 0
7598 -7597 7582 0
7598 7597 -7582 0
-7599 7598 7583 0
-7599 -7598 -7583 0
7599 -7598 7583 0
7599 7598 -7583 0
-7600 7599 7584 0
-7600 -7599 -7584 0
7600 -7599 7584 0
7600 7599 -7584 0
-7601 7600 7585 0
-7601 -7600 -7585 0
7601 -7600 7585 0
7601 7600 -7585 0
-7602 7601 7586 0
-7602 -7601 -7586 0
7602 -7601 7586 0
7602 7601 -7586 0
-7603 7602 7587 0
-7603 -7602 -7587 0
7603 -7602 7587 0
7603 7602 -7587 0
-7604 7603 7588 0
-7604 -7603 -7588 0
7604 -7603 7588 0
7604 7603 -7588 0
-7605 7604 7589 0
-7605 -7604 -7589 0
7605 -7604 7589 0
7605 7604 -7589 0
-7606 7605 7590 0
-7606 -7605 -7590 0
7606 -7605 7590 0
7606 7605 -7590 0
-7607 7606 7591 0
-7607 -7606 -7591 0
7607 -7606 7591 0
7607 7606 -7591 0
-7608 7607 7592 0
-7608 -7607 -7592 0
7608 -7607 7592 0
7608 7607 -7592 0
-7609 7608 7593 0
-7609 -7608 -7593 0
7609 -7608 7593 0
7609 7608 -7593 0
-7609 0
-7610 7197 0
-7610 45 0
7610 -7197 -45 0
-7611 7199 0
-7611 41 0
7611 -7199 -41 0
-7612 7201 0
-7612 37 0
7612 -7201 -37 0
-7613 7203 0
-7613 36 0
7613 -7203 -36 0
-7614 7205 0
-7614 35 0
7614 -7205 -35 0
-7615 7207 0
-7615 34 0
7615 -7207 -34 0
-7616 7209 0
-7616 93 0
7616 -7209 -93 0
-7617 7211 0
-7617 85 0
7617 -7211 -85 0
-7618 7213 0
-7618 84 0
7618 -7213 -84 0
-7619 7215 0
-7619 82 0
7619 -7215 -82 0
-7620 7217 0
-7620 141 0
7620 -7217 -141 0
-7621 7219 0
-7621 133 0
7621 -7219 -133 0
-7622 7221 0
-7622 132 0
7622 -7221 -132 0
-7623 7223 0
-7623 130 0
7623 -7223 -130 0
-7624 7225 0
-7624 189 0
7624 -7225 -189 0
-7625 7227 0
-7625 185 0
7625 -7227 -185 0
-7626 7229 0
-7626 181 0
7626 -7229 -181 0
-7627 7610 7611 0
-7627 -7610 -7611 0
7627 -7610 7611 0
7627 7610 -7611 0
-7628 7627 7612 0
-7628 -7627 -7612 0
7628 -7627 7612 0
7628 7627 -7612 0
-7629 7628 7613 0
-7629 -7628 -7613 0
7629 -7628 7613 0
7629 7628 -7613 0
-7630 7629 7614 0
-7630 -7629 -7614 0
7630 -7629 7614 0
7630 7629 -7614 0
-7631 7630 7615 0
-7631 -7630 -7615 0
7631 -7630 7615 0
7631 7630 -7615 0
-7632 7631 7616 0
-7632 -7631 -7616 0
7632 -7631 7616 0
7632 7631 -7616 0
-7633 7632 7617 0
-7633 -7632 -7617 0
7633 -7632 7617 0
7633 7632 -7617 0
-7634 7633 7618 0
-7634 -7633 -7618 0
7634 -7633 7618 0
7634 7633 -7618 0
-7635 7634 7619 0
-7635 -7634 -7619 0
7635 -7634 7619 0
7635 7634 -7619 0
-7636 7635 7620 0
-7636 -7635 -7620 0
7636 -7635 7620 0
7636 7635 -7620 0
-7637 7636 7621 0
-7637 -7636 -7621 0
7637 -7636 7621 0
7637 7636 -7621 0
-7638 7637 7622 0
-7638 -7637 -7622 0
7638 -7637 7622 0
7638 7637 -7622 0
-7639 7638 7623 0
-7639 -7638 -7623 0
7639 -7638 7623 0
7639 7638 -7623 0
-7640 7639 7624 0
-7640 -7639 -7624 0
7640 -7639 7624 0
7640 7639 -7624 0
-7641 7640 7625 0
-7641 -7640 -7625 0
7641 -7640 7625 0
7641 7640 -7625 0
-7642 7641 7626 0
-7642 -7641 -7626 0
7642 -7641 7626 0
7642 7641 -7626 0
-7642 0
-7643 7197 0
-7643 46 0
7643 -7197 -46 0
-7644 7199 0
-7644 42 0
7644 -7199 -42 0
-7645 7201 0
-7645 39 0
7645 -7201 -39 0
-7646 7203 0
-7646 40 0
7646 -7203 -40 0
-7647 7205 0
-7647 39 0
7647 -7205 -39 0
-7648 7207 0
-7648 42 0
7648 -7207 -42 0
-7649 7209 0
-7649 94 0
7649 -7209 -94 0
-7650 7211 0
-7650 88 0
7650 -7211 -88 0
-7651 7213 0
-7651 88 0
7651 -7213 -88 0
-7652 7215 0
-7652 94 0
7652 -7215 -94 0
-7653 7217 0
-7653 142 0
7653 -7217 -142 0
-7654 7219 0
-7654 136 0
7654 -7219 -136 0
-7655 7221 0
-7655 136 0
7655 -7221 -136 0
-7656 7223 0
-7656 142 0
7656 -7223 -142 0
-7657 7225 0
-7657 190 0
7657 -7225 -190 0
-7658 7227 0
-7658 186 0
7658 -7227 -186 0
-7659 7229 0
-7659 183 0
7659 -7229 -183 0
-7660 7643 7644 0
-7660 -7643 -7644 0
7660 -7643 7644 0
7660 7643 -7644 0
-7661 7660 7645 0
-7661 -7660 -7645 0
7661 -7660 7645 0
7661 7660 -7645 0
-7662 7661 7646 0
-7662 -7661 -7646 0
7662 -7661 7646 0
7662 7661 -7646 0
-7663 7662 7647 0
-7663 -7662 -7647 0
7663 -7662 7647 0
7663 7662 -7647 0
-7664 7663 7648 0
-7664 -7663 -7648 0
7664 -7663 7648 0
7664 7663 -7648 0
-7665 7664 7649 0
-7665 -7664 -7649 0
7665 -7664 7649 0
7665 7664 -7649 0
-7666 7665 7650 0
-7666 -7665 -7650 0
7666 -7665 7650 0
7666 7665 -7650 0
-7667 7666 7651 0
-7667 -7666 -7651 0
7667 -7666 7651 0
7667 7666 -7651 0
-7668 7667 7652 0
-7668 -7667 -7652 0
7668 -7667 7652 0
7668 7667 -7652 0
-7669 7668 7653 0
-7669 -7668 -7653 0
7669 -7668 7653 0
7669 7668 -7653 0
-7670 7669 7654 0
-7670 -7669 -7654 0
7670 -7669 7654 0
7670 7669 -7654 0
-7671 7670 7655 0
-7671 -7670 -7655 0
7671 -7670 7655 0
7671 7670 -7655 0
-7672 7671 7656 0
-7672 -7671 -7656 0
7672 -7671 7656 0
7672 7671 -7656 0
-7673 7672 7657 0
-7673 -7672 -7657 0
7673 -7672 7657 0
7673 7672 -7657 0
-7674 7673 7658 0
-7674 -7673 -7658 0
7674 -7673 7658 0
7674 7673 -7658 0
-7675 7674 7659 0
-7675 -7674 -7659 0
7675 -7674 7659 0
7675 7674 -7659 0
-7675 0
-7676 7197 0
-7676 47 0
7676 -7197 -47 0
-7677 7199 0
-7677 44 0
7677 -7199 -44 0
-7678 7201 0
-7678 40 0
7678 -7201 -40 0
-7679 7203 0
-7679 44 0
7679 -7203 -44 0
-7680 7205 0
-7680 47 0
7680 -7205 -47 0
-7681 7207 0
-7681 46 0
7681 -7207 -46 0
-7682 7209 0
-7682 95 0
7682 -7209 -95 0
-7683 7211 0
-7683 87 0
7683 -7211 -87 0
-7684 7213 0
-7684 92 0
7684 -7213 -92 0
-7685 7215 0
-7685 90 0
7685 -7215 -90 0
-7686 7217 0
-7686 143 0
7686 -7217 -143 0
-7687 7219 0
-7687 135 0
7687 -7219 -135 0
-7688 7221 0
-7688 140 0
7688 -7221 -140 0
-7689 7223 0
-7689 138 0
7689 -7223 -138 0
-7690 7225 0
-7690 191 0
7690 -7225 -191 0
-7691 7227 0
-7691 188 0
7691 -7227 -188 0
-7692 7229 0
-7692 184 0
7692 -7229 -184 0
-7693 7676 7677 0
-7693 -7676 -7677 0
7693 -7676 7677 0
7693 7676 -7677 0
-7694 7693 7678 0
-7694 -7693 -7678 0
7694 -7693 7678 0
7694 7693 -7678 0
-7695 7694 7679 0
-7695 -7694 -7679 0
7695 -7694 7679 0
7695 7694 -7679 0
-7696 7695 7680 0
-7696 -7695 -7680 0
7696 -7695 7680 0
7696 7695 -7680 0
-7697 7696 7681 0
-7697 -7696 -7681 0
7697 -7696 7681 0
7697 7696 -7681 0
-7698 7697 7682 0
-7698 -7697 -7682 0
7698 -7697 7682 0
7698 7697 -7682 0
-7699 7698 7683 0
-7699 -7698 -7683 0
7699 -7698 7683 0
7699 7698 -7683 0
-7700 7699 7684 0
-7700 -7699 -7684 0
7700 -7699 7684 0
7700 7699 -7684 0
-7701 7700 7685 0
-7701 -7700 -7685 0
7701 -7700 7685 0
7701 7700 -7685 0
-7702 7701 7686 0
-7702 -7701 -7686 0
7702 -7701 7686 0
7702 7701 -7686 0
-7703 7702 7687 0
-7703 -7702 -7687 0
7703 -7702 7687 0
7703 7702 -7687 0
-7704 7703 7688 0
-7704 -7703 -7688 0
7704 -7703 7688 0
7704 7703 -7688 0
-7705 7704 7689 0
-7705 -7704 -7689 0
7705 -7704 7689 0
7705 7704 -7689 0
-7706 7705 7690 0
-7706 -7705 -7690 0
7706 -7705 7690 0
7706 7705 -7690 0
-7707 7706 7691 0
-7707 -7706 -7691 0
7707 -7706 7691 0
7707 7706 -7691 0
-7708 7707 7692 0
-7708 -7707 -7692 0
7708 -7707 7692 0
7708 7707 -7692 0
-7708 0
-7709 7197 0
-7709 48 0
7709 -7197 -48 0
-7710 7199 0
-7710 43 0
7710 -7199 -43 0
-7711 7201 0
-7711 38 0
7711 -7201 -38 0
-7712 7203 0
-7712 48 0
7712 -7203 -48 0
-7713 7205 0
-7713 43 0
7713 -7205 -43 0
-7714 7207 0
-7714 38 0
7714 -7207 -38 0
-7715 7209 0
-7715 96 0
7715 -7209 -96 0
-7716 7211 0
-7716 86 0
7716 -7211 -86 0
-7717 7213 0
-7717 96 0
7717 -7213 -96 0
-7718 7215 0
-7718 86 0
7718 -7215 -86 0
-7719 7217 0
-7719 144 0
7719 -7217 -144 0
-7720 7219 0
-7720 134 0
7720 -7219 -134 0
-7721 7221 0
-7721 144 0
7721 -7221 -144 0
-7722 7223 0
-7722 134 0
7722 -7223 -134 0
-7723 7225 0
-7723 192 0
7723 -7225 -192 0
-7724 7227 0
-7724 187 0
7724 -7227 -187 0
-7725 7229 0
-7725 182 0
7725 -7229 -182 0
-7726 7709 7710 0
-7726 -7709 -7710 0
7726 -7709 7710 0
7726 7709 -7710 0
-7727 7726 7711 0
-7727 -7726 -7711 0
7727 -7726 7711 0
7727 7726 -7711 0
-7728 7727 7712 0
-7728 -7727 -7712 0
7728 -7727 7712 0
7728 7727 -7712 0
-7729 7728 7713 0
-7729 -7728 -7713 0
7729 -7728 7713 0
7729 7728 -7713 0
-7730 7729 7714 0
-7730 -7729 -7714 0
7730 -7729 7714 0
7730 7729 -7714 0
-7731 7730 7715 0
-7731 -7730 -7715 0
7731 -7730 7715 0
7731 7730 -7715 0
-7732 7731 7716 0
-7732 -7731 -7716 0
7732 -7731 7716 0
7732 7731 -7716 0
-7733 7732 7717 0
-7733 -7732 -7717 0
7733 -7732 7717 0
7733 7732 -7717 0
-7734 7733 7718 0
-7734 -7733 -7718 0
7734 -7733 7718 0
7734 7733 -7718 0
-7735 7734 7719 0
-7735 -7734 -7719 0
7735 -7734 7719 0
7735 7734 -7719 0
-7736 7735 7720 0
-7736 -7735 -7720 0
7736 -7735 7720 0
7736 7735 -7720 0
-7737 7736 7721 0
-7737 -7736 -7721 0
7737 -7736 7721 0
7737 7736 -7721 0
-7738 7737 7722 0
-7738 -7737 -7722 0
7738 -7737 7722 0
7738 7737 -7722 0
-7739 7738 7723 0
-7739 -7738 -7723 0
7739 -7738 7723 0
7739 7738 -7723 0
-7740 7739 7724 0
-7740 -7739 -7724 0
7740 -7739 7724 0
7740 7739 -7724 0
-7741 7740 7725 0
-7741 -7740 -7725 0
7741 -7740 7725 0
7741 7740 -7725 0
-7741 0
-7742 5 0
-7742 24 0
7742 -5 -24 0
-7743 7742 0
-7743 33 0
7743 -7742 -33 0
-7744 6 0
-7744 19 0
7744 -6 -19 0
-7745 7744 0
-7745 33 0
7745 -7744 -33 0
-7746 10 0
-7746 26 0
7746 -10 -26 0
-7747 7746 0
-7747 33 0
7747 -7746 -33 0
-7748 18 0
-7748 14 0
7748 -18 -14 0
-7749 7748 0
-7749 33 0
7749 -7748 -33 0
-7750 22 0
-7750 9 0
7750 -22 -9 0
-7751 7750 0
-7751 33 0
7751 -7750 -33 0
-7752 23 0
-7752 7 0
7752 -23 -7 0
-7753 7752 0
-7753 33 0
7753 -7752 -33 0
-7754 53 0
-7754 72 0
7754 -53 -72 0
-7755 7754 0
-7755 81 0
7755 -7754 -81 0
-7756 61 0
-7756 74 0
7756 -61 -74 0
-7757 7756 0
-7757 81 0
7757 -7756 -81 0
-7758 66 0
-7758 62 0
7758 -66 -62 0
-7759 7758 0
-7759 81 0
7759 -7758 -81 0
-7760 68 0
-7760 55 0
7760 -68 -55 0
-7761 7760 0
-7761 81 0
7761 -7760 -81 0
-7762 101 0
-7762 120 0
7762 -101 -120 0
-7763 7762 0
-7763 129 0
7763 -7762 -129 0
-7764 109 0
-7764 122 0
7764 -109 -122 0
-7765 7764 0
-7765 129 0
7765 -7764 -129 0
-7766 114 0
-7766 110 0
7766 -114 -110 0
-7767 7766 0
-7767 129 0
7767 -7766 -129 0
-7768 116 0
-7768 103 0
7768 -116 -103 0
-7769 7768 0
-7769 129 0
7769 -7768 -129 0
-7770 149 0
-7770 168 0
7770 -149 -168 0
-7771 7770 0
-7771 177 0
7771 -7770 -177 0
-7772 150 0
-7772 163 0
7772 -150 -163 0
-7773 7772 0
-7773 177 0
7773 -7772 -177 0
-7774 154 0
-7774 170 0
7774 -154 -170 0
-7775 7774 0
-7775 177 0
7775 -7774 -177 0
-7776 7743 7745 0
-7776 -7743 -7745 0
7776 -7743 7745 0
7776 7743 -7745 0
-7777 7776 7747 0
-7777 -7776 -7747 0
7777 -7776 7747 0
7777 7776 -7747 0
-7778 7777 7749 0
-7778 -7777 -7749 0
7778 -7777 7749 0
7778 7777 -7749 0
-7779 7778 7751 0
-7779 -7778 -7751 0
7779 -7778 7751 0
7779 7778 -7751 0
-7780 7779 7753 0
-7780 -7779 -7753 0
7780 -7779 7753 0
7780 7779 -7753 0
-7781 7780 7755 0
-7781 -7780 -7755 0
7781 -7780 7755 0
7781 7780 -7755 0
-7782 7781 7757 0
-7782 -7781 -7757 0
7782 -7781 7757 0
7782 7781 -7757 0
-7783 7782 7759 0
-7783 -7782 -7759 0
7783 -7782 7759 0
7783 7782 -7759 0
-7784 7783 7761 0
-7784 -7783 -7761 0
7784 -7783 7761 0
7784 7783 -7761 0
-7785 7784 7763 0
-7785 -7784 -7763 0
7785 -7784 7763 0
7785 7784 -7763 0
-7786 7785 7765 0
-7786 -7785 -7765 0
7786 -7785 7765 0
7786 7785 -7765 0
-7787 7786 7767 0
-7787 -7786 -7767 0
7787 -7786 7767 0
7787 7786 -7767 0
-7788 7787 7769 0
-7788 -7787 -7769 0
7788 -7787 7769 0
7788 7787 -7769 0
-7789 7788 7771 0
-7789 -7788 -7771 0
7789 -7788 7771 0
7789 7788 -7771 0
-7790 7789 7773 0
-7790 -7789 -7773 0
7790 -7789 7773 0
7790 7789 -7773 0
-7791 7790 7775 0
-7791 -7790 -7775 0
7791 -7790 7775 0
7791 7790 -7775 0
-7791 0
-7792 7742 0
-7792 34 0
7792 -7742 -34 0
-7793 7744 0
-7793 34 0
7793 -7744 -34 0
-7794 7746 0
-7794 35 0
7794 -7746 -35 0
-7795 7748 0
-7795 37 0
7795 -7748 -37 0
-7796 7750 0
-7796 37 0
7796 -7750 -37 0
-7797 7752 0
-7797 41 0
7797 -7752 -41 0
-7798 7754 0
-7798 82 0
7798 -7754 -82 0
-7799 7756 0
-7799 84 0
7799 -7756 -84 0
-7800 7758 0
-7800 85 0
7800 -7758 -85 0
-7801 7760 0
-7801 93 0
7801 -7760 -93 0
-7802 7762 0
-7802 130 0
7802 -7762 -130 0
-7803 7764 0
-7803 132 0
7803 -7764 -132 0
-7804 7766 0
-7804 133 0
7804 -7766 -133 0
-7805 7768 0
-7805 141 0
7805 -7768 -141 0
-7806 7770 0
-7806 178 0
7806 -7770 -178 0
-7807 7772 0
-7807 178 0
7807 -7772 -178 0
-7808 7774 0
-7808 179 0
7808 -7774 -179 0
-7809 7792 7793 0
-7809 -7792 -7793 0
7809 -7792 7793 0
7809 7792 -7793 0
-7810 7809 7794 0
-7810 -7809 -7794 0
7810 -7809 7794 0
7810 7809 -7794 0
-7811 7810 7795 0
-7811 -7810 -7795 0
7811 -7810 7795 0
7811 7810 -7795 0
-7812 7811 7796 0
-7812 -7811 -7796 0
7812 -7811 7796 0
7812 7811 -7796 0
-7813 7812 7797 0
-7813 -7812 -7797 0
7813 -7812 7797 0
7813 7812 -7797 0
-7814 7813 7798 0
-7814 -7813 -7798 0
7814 -7813 7798 0
7814 7813 -7798 0
-7815 7814 7799 0
-7815 -7814 -7799 0
7815 -7814 7799 0
7815 7814 -7799 0
-7816 7815 7800 0
-7816 -7815 -7800 0
7816 -7815 7800 0
7816 7815 -7800 0
-7817 7816 7801 0
-7817 -7816 -7801 0
7817 -7816 7801 0
7817 7816 -7801 0
-7818 7817 7802 0
-7818 -7817 -7802 0
7818 -7817 7802 0
7818 7817 -7802 0
-7819 7818 7803 0
-7819 -7818 -7803 0
7819 -7818 7803 0
7819 7818 -7803 0
-7820 7819 7804 0
-7820 -7819 -7804 0
7820 -7819 7804 0
7820 7819 -7804 0
-7821 7820 7805 0
-7821 -7820 -7805 0
7821 -7820 7805 0
7821 7820 -7805 0
-7822 7821 7806 0
-7822 -7821 -7806 0
7822 -7821 7806 0
7822 7821 -7806 0
-7823 7822 7807 0
-7823 -7822 -7807 0
7823 -7822 7807 0
7823 7822 -7807 0
-7824 7823 7808 0
-7824 -7823 -7808 0
7824 -7823 7808 0
7824 7823 -7808 0
-7824 0
-7825 7742 0
-7825 35 0
7825 -7742 -35 0
-7826 7744 0
-7826 36 0
7826 -7744 -36 0
-7827 7746 0
-7827 36 0
7827 -7746 -36 0
-7828 7748 0
-7828 41 0
7828 -7748 -41 0
-7829 7750 0
-7829 45 0
7829 -7750 -45 0
-7830 7752 0
-7830 45 0
7830 -7752 -45 0
-7831 7754 0
-7831 83 0
7831 -7754 -83 0
-7832 7756 0
-7832 83 0
7832 -7756 -83 0
-7833 7758 0
-7833 89 0
7833 -7758 -89 0
-7834 7760 0
-7834 89 0
7834 -7760 -89 0
-7835 7762 0
-7835 131 0
7835 -7762 -131 0
-7836 7764 0
-7836 131 0
7836 -7764 -131 0
-7837 7766 0
-7837 137 0
7837 -7766 -137 0
-7838 7768 0
-7838 137 0
7838 -7768 -137 0
-7839 7770 0
-7839 179 0
7839 -7770 -179 0
-7840 7772 0
-7840 180 0
7840 -7772 -180 0
-7841 7774 0
-7841 180 0
7841 -7774 -180 0
-7842 7825 7826 0
-7842 -7825 -7826 0
7842 -7825 7826 0
7842 7825 -7826 0
-7843 7842 7827 0
-7843 -7842 -7827 0
7843 -7842 7827 0
7843 7842 -7827 0
-7844 7843 7828 0
-7844 -7843 -7828 0
7844 -7843 7828 0
7844 7843 -7828 0
-7845 7844 7829 0
-7845 -7844 -7829 0
7845 -7844 7829 0
7845 7844 -7829 0
-7846 7845 7830 0
-7846 -7845 -7830 0
7846 -7845 7830 0
7846 7845 -7830 0
-7847 7846 7831 0
-7847 -7846 -7831 0
7847 -7846 7831 0
7847 7846 -7831 0
-7848 7847 7832 0
-7848 -7847 -7832 0
7848 -7847 7832 0
7848 7847 -7832 0
-7849 7848 7833 0
-7849 -7848 -7833 0
7849 -7848 7833 0
7849 7848 -7833 0
-7850 7849 7834 0
-7850 -7849 -7834 0
7850 -7849 7834 0
7850 7849 -7834 0
-7851 7850 7835 0
-7851 -7850 -7835 0
7851 -7850 7835 0
7851 7850 -7835 0
-7852 7851 7836 0
-7852 -7851 -7836 0
7852 -7851 7836 0
7852 7851 -7836 0
-7853 7852 7837 0
-7853 -7852 -7837 0
7853 -7852 7837 0
7853 7852 -7837 0
-7854 7853 7838 0
-7854 -7853 -7838 0
7854 -7853 7838 0
7854 7853 -7838 0
-7855 7854 7839 0
-7855 -7854 -7839 0
7855 -7854 7839 0
7855 7854 -7839 0
-7856 7855 7840 0
-7856 -7855 -7840 0
7856 -7855 7840 0
7856 7855 -7840 0
-7857 7856 7841 0
-7857 -7856 -7841 0
7857 -7856 7841 0
7857 7856 -7841 0
-7857 0
-7858 7742 0
-7858 36 0
7858 -7742 -36 0
-7859 7744 0
-7859 35 0
7859 -7744 -35 0
-7860 7746 0
-7860 34 0
7860 -7746 -34 0
-7861 7748 0
-7861 45 0
7861 -7748 -45 0
-7862 7750 0
-7862 41 0
7862 -7750 -41 0
-7863 7752 0
-7863 37 0
7863 -7752 -37 0
-7864 7754 0
-7864 84 0
7864 -7754 -84 0
-7865 7756 0
-7865 82 0
7865 -7756 -82 0
-7866 7758 0
-7866 93 0
7866 -7758 -93 0
-7867 7760 0
-7867 85 0
7867 -7760 -85 0
-7868 7762 0
-7868 132 0
7868 -7762 -132 0
-7869 7764 0
-7869 130 0
7869 -7764 -130 0
-7870 7766 0
-7870 141 0
7870 -7766 -141 0
-7871 7768 0
-7871 133 0
7871 -7768 -133 0
-7872 7770 0
-7872 180 0
7872 -7770 -180 0
-7873 7772 0
-7873 179 0
7873 -7772 -179 0
-7874 7774 0
-7874 178 0
7874 -7774 -178 0
-7875 7858 7859 0
-7875 -7858 -7859 0
7875 -7858 7859 0
7875 7858 -7859 0
-7876 7875 7860 0
-7876 -7875 -7860 0
7876 -7875 7860 0
7876 7875 -7860 0
-7877 7876 7861 0
-7877 -7876 -7861 0
7877 -7876 7861 0
7877 7876 -7861 0
-7878 7877 7862 0
-7878 -7877 -7862 0
7878 -7877 7862 0
7878 7877 -7862 0
-7879 7878 7863 0
-7879 -7878 -7863 0
7879 -7878 7863 0
7879 7878 -7863 0
-7880 7879 7864 0
-7880 -7879 -7864 0
7880 -7879 7864 0
7880 7879 -7864 0
-7881 7880 7865 0
-7881 -7880 -7865 0
7881 -7880 7865 0
7881 7880 -7865 0
-7882 7881 7866 0
-7882 -7881 -7866 0
7882 -7881 7866 0
7882 7881 -7866 0
-7883 7882 7867 0
-7883 -7882 -7867 0
7883 -7882 7867 0
7883 7882 -7867 0
-7884 7883 7868 0
-7884 -7883 -7868 0
7884 -7883 7868 0
7884 7883 -7868 0
-7885 7884 7869 0
-7885 -7884 -7869 0
7885 -7884 7869 0
7885 7884 -7869 0
-7886 7885 7870 0
-7886 -7885 -7870 0
7886 -7885 7870 0
7886 7885 -7870 0
-7887 7886 7871 0
-7887 -7886 -7871 0
7887 -7886 7871 0
7887 7886 -7871 0
-7888 7887 7872 0
-7888 -7887 -7872 0
7888 -7887 7872 0
7888 7887 -7872 0
-7889 7888 7873 0
-7889 -7888 -7873 0
7889 -7888 7873 0
7889 7888 -7873 0
-7890 7889 7874 0
-7890 -7889 -7874 0
7890 -7889 7874 0
7890 7889 -7874 0
-7890 0
-7891 7742 0
-7891 37 0
7891 -7742 -37 0
-7892 7744 0
-7892 37 0
7892 -7744 -37 0
-7893 7746 0
-7893 41 0
7893 -7746 -41 0
-7894 7748 0
-7894 34 0
7894 -7748 -34 0
-7895 7750 0
-7895 34 0
7895 -7750 -34 0
-7896 7752 0
-7896 35 0
7896 -7752 -35 0
-7897 7754 0
-7897 85 0
7897 -7754 -85 0
-7898 7756 0
-7898 93 0
7898 -7756 -93 0
-7899 7758 0
-7899 82 0
7899 -7758 -82 0
-7900 7760 0
-7900 84 0
7900 -7760 -84 0
-7901 7762 0
-7901 133 0
7901 -7762 -133 0
-7902 7764 0
-7902 141 0
7902 -7764 -141 0
-7903 7766 0
-7903 130 0
7903 -7766 -130 0
-7904 7768 0
-7904 132 0
7904 -7768 -132 0
-7905 7770 0
-7905 181 0
7905 -7770 -181 0
-7906 7772 0
-7906 181 0
7906 -7772 -181 0
-7907 7774 0
-7907 185 0
7907 -7774 -185 0
-7908 7891 7892 0
-7908 -7891 -7892 0
7908 -7891 7892 0
7908 7891 -7892 0
-7909 7908 7893 0
-7909 -7908 -7893 0
7909 -7908 7893 0
7909 7908 -7893 0
-7910 7909 7894 0
-7910 -7909 -7894 0
7910 -7909 7894 0
7910 7909 -7894 0
-7911 7910 7895 0
-7911 -7910 -7895 0
7911 -7910 7895 0
7911 7910 -7895 0
-7912 7911 7896 0
-7912 -7911 -7896 0
7912 -7911 7896 0
7912 7911 -7896 0
-7913 7912 7897 0
-7913 -7912 -7897 0
7913 -7912 7897 0
7913 7912 -7897 0
-7914 7913 7898 0
-7914 -7913 -7898 0
7914 -7913 7898 0
7914 7913 -7898 0
-7915 7914 7899 0
-7915 -7914 -7899 0
7915 -7914 7899 0
7915 7914 -7899 0
-7916 7915 7900 0
-7916 -7915 -7900 0
7916 -7915 7900 0
7916 7915 -7900 0
-7917 7916 7901 0
-7917 -7916 -7901 0
7917 -7916 7901 0
7917 7916 -7901 0
-7918 7917 7902 0
-7918 -7917 -7902 0
7918 -7917 7902 0
7918 7917 -7902 0
-7919 7918 7903 0
-7919 -7918 -7903 0
7919 -7918 7903 0
7919 7918 -7903 0
-7920 7919 7904 0
-7920 -7919 -7904 0
7920 -7919 7904 0
7920 7919 -7904 0
-7921 7920 7905 0
-7921 -7920 -7905 0
7921 -7920 7905 0
7921 7920 -7905 0
-7922 7921 7906 0
-7922 -7921 -7906 0
7922 -7921 7906 0
7922 7921 -7906 0
-7923 7922 7907 0
-7923 -7922 -7907 0
7923 -7922 7907 0
7923 7922 -7907 0
-7923 0
-7924 7742 0
-7924 38 0
7924 -7742 -38 0
-7925 7744 0
-7925 38 0
7925 -7744 -38 0
-7926 7746 0
-7926 43 0
7926 -7746 -43 0
-7927 7748 0
-7927 38 0
7927 -7748 -38 0
-7928 7750 0
-7928 38 0
7928 -7750 -38 0
-7929 7752 0
-7929 43 0
7929 -7752 -43 0
-7930 7754 0
-7930 86 0
7930 -7754 -86 0
-7931 7756 0
-7931 96 0
7931 -7756 -96 0
-7932 7758 0
-7932 86 0
7932 -7758 -86 0
-7933 7760 0
-7933 96 0
7933 -7760 -96 0
-7934 7762 0
-7934 134 0
7934 -7762 -134 0
-7935 7764 0
-7935 144 0
7935 -7764 -144 0
-7936 7766 0
-7936 134 0
7936 -7766 -134 0
-7937 7768 0
-7937 144 0
7937 -7768 -144 0
-7938 7770 0
-7938 182 0
7938 -7770 -182 0
-7939 7772 0
-7939 182 0
7939 -7772 -182 0
-7940 7774 0
-7940 187 0
7940 -7774 -187 0
-7941 7924 7925 0
-7941 -7924 -7925 0
7941 -7924 7925 0
7941 7924 -7925 0
-7942 7941 7926 0
-7942 -7941 -7926 0
7942 -7941 7926 0
7942 7941 -7926 0
-7943 7942 7927 0
-7943 -7942 -7927 0
7943 -7942 7927 0
7943 7942 -7927 0
-7944 7943 7928 0
-7944 -7943 -7928 0
7944 -7943 7928 0
7944 7943 -7928 0
-7945 7944 7929 0
-7945 -7944 -7929 0
7945 -7944 7929 0
7945 7944 -7929 0
-7946 7945 7930 0
-7946 -7945 -7930 0
7946 -7945 7930 0
7946 7945 -7930 0
-7947 7946 7931 0
-7947 -7946 -7931 0
7947 -7946 7931 0
7947 7946 -7931 0
-7948 7947 7932 0
-7948 -7947 -7932 0
7948 -7947 7932 0
7948 7947 -7932 0
-7949 7948 7933 0
-7949 -7948 -7933 0
7949 -7948 7933 0
7949 7948 -7933 0
-7950 7949 7934 0
-7950 -7949 -7934 0
7950 -7949 7934 0
7950 7949 -7934 0
-7951 7950 7935 0
-7951 -7950 -7935 0
7951 -7950 7935 0
7951 7950 -7935 0
-7952 7951 7936 0
-7952 -7951 -7936 0
7952 -7951 7936 0
7952 7951 -7936 0
-7953 7952 7937 0
-7953 -7952 -7937 0
7953 -7952 7937 0
7953 7952 -7937 0
-7954 7953 7938 0
-7954 -7953 -7938 0
7954 -7953 7938 0
7954 7953 -7938 0
-7955 7954 7939 0
-7955 -7954 -7939 0
7955 -7954 7939 0
7955 7954 -7939 0
-7956 7955 7940 0
-7956 -7955 -7940 0
7956 -7955 7940 0
7956 7955 -7940 0
-7956 0
-7957 7742 0
-7957 39 0
7957 -7742 -39 0
-7958 7744 0
-7958 40 0
7958 -7744 -40 0
-7959 7746 0
-7959 44 0
7959 -7746 -44 0
-7960 7748 0
-7960 42 0
7960 -7748 -42 0
-7961 7750 0
-7961 46 0
7961 -7750 -46 0
-7962 7752 0
-7962 47 0
7962 -7752 -47 0
-7963 7754 0
-7963 87 0
7963 -7754 -87 0
-7964 7756 0
-7964 95 0
7964 -7756 -95 0
-7965 7758 0
-7965 90 0
7965 -7758 -90 0
-7966 7760 0
-7966 92 0
7966 -7760 -92 0
-7967 7762 0
-7967 135 0
7967 -7762 -135 0
-7968 7764 0
-7968 143 0
7968 -7764 -143 0
-7969 7766 0
-7969 138 0
7969 -7766 -138 0
-7970 7768 0
-7970 140 0
7970 -7768 -140 0
-7971 7770 0
-7971 183 0
7971 -7770 -183 0
-7972 7772 0
-7972 184 0
7972 -7772 -184 0
-7973 7774 0
-7973 188 0
7973 -7774 -188 0
-7974 7957 7958 0
-7974 -7957 -7958 0
7974 -7957 7958 0
7974 7957 -7958 0
-7975 7974 7959 0
-7975 -7974 -7959 0
7975 -7974 7959 0
7975 7974 -7959 0
-7976 7975 7960 0
-7976 -7975 -7960 0
7976 -7975 7960 0
7976 7975 -7960 0
-7977 7976 7961 0
-7977 -7976 -7961 0
7977 -7976 7961 0
7977 7976 -7961 0
-7978 7977 7962 0
-7978 -7977 -7962 0
7978 -7977 7962 0
7978 7977 -7962 0
-7979 7978 7963 0
-7979 -7978 -7963 0
7979 -7978 7963 0
7979 7978 -7963 0
-7980 7979 7964 0
-7980 -7979 -7964 0
7980 -7979 7964 0
7980 7979 -7964 0
-7981 7980 7965 0
-7981 -7980 -7965 0
7981 -7980 7965 0
7981 7980 -7965 0
-7982 7981 7966 0
-7982 -7981 -7966 0
7982 -7981 7966 0
7982 7981 -7966 0
-7983 7982 7967 0
-7983 -7982 -7967 0
7983 -7982 7967 0
7983 7982 -7967 0
-7984 7983 7968 0
-7984 -7983 -7968 0
7984 -7983 7968 0
7984 7983 -7968 0
-7985 7984 7969 0
-7985 -7984 -7969 0
7985 -7984 7969 0
7985 7984 -7969 0
-7986 7985 7970 0
-7986 -7985 -7970 0
7986 -7985 7970 0
7986 7985 -7970 0
-7987 7986 7971 0
-7987 -7986 -7971 0
7987 -7986 7971 0
7987 7986 -7971 0
-7988 7987 7972 0
-7988 -7987 -7972 0
7988 -7987 7972 0
7988 7987 -7972 0
-7989 7988 7973 0
-7989 -7988 -7973 0
7989 -7988 7973 0
7989 7988 -7973 0
-7989 0
-7990 7742 0
-7990 40 0
7990 -7742 -40 0
-7991 7744 0
-7991 39 0
7991 -7744 -39 0
-7992 7746 0
-7992 42 0
7992 -7746 -42 0
-7993 7748 0
-7993 46 0
7993 -7748 -46 0
-7994 7750 0
-7994 42 0
7994 -7750 -42 0
-7995 7752 0
-7995 39 0
7995 -7752 -39 0
-7996 7754 0
-7996 88 0
7996 -7754 -88 0
-7997 7756 0
-7997 94 0
7997 -7756 -94 0
-7998 7758 0
-7998 94 0
7998 -7758 -94 0
-7999 7760 0
-7999 88 0
7999 -7760 -88 0
-8000 7762 0
-8000 136 0
8000 -7762 -136 0
-8001 7764 0
-8001 142 0
8001 -7764 -142 0
-8002 7766 0
-8002 142 0
8002 -7766 -142 0
-8003 7768 0
-8003 136 0
8003 -7768 -136 0
-8004 7770 0
-8004 184 0
8004 -7770 -184 0
-8005 7772 0
-8005 183 0
8005 -7772 -183 0
-8006 7774 0
-8006 186 0
8006 -7774 -186 0
-8007 7990 7991 0
-8007 -7990 -7991 0
8007 -7990 7991 0
8007 7990 -7991 0
-8008 8007 7992 0
-8008 -8007 -7992 0
8008 -8007 7992 0
8008 8007 -7992 0
-8009 8008 7993 0
-8009 -8008 -7993 0
8009 -8008 7993 0
8009 8008 -7993 0
-8010 8009 7994 0
-8010 -8009 -7994 0
8010 -8009 7994 0
8010 8009 -7994 0
-8011 8010 7995 0
-8011 -8010 -7995 0
8011 -8010 7995 0
8011 8010 -7995 0
-8012 8011 7996 0
-8012 -8011 -7996 0
8012 -8011 7996 0
8012 8011 -7996 0
-8013 8012 7997 0
-8013 -8012 -7997 0
8013 -8012 7997 0
8013 8012 -7997 0
-8014 8013 7998 0
-8014 -8013 -7998 0
8014 -8013 7998 0
8014 8013 -7998 0
-8015 8014 7999 0
-8015 -8014 -7999 0
8015 -8014 7999 0
8015 8014 -7999 0
-8016 8015 8000 0
-8016 -8015 -8000 0
8016 -8015 8000 0
8016 8015 -8000 0
-8017 8016 8001 0
-8017 -8016 -8001 0
8017 -8016 8001 0
8017 8016 -8001 0
-8018 8017 8002 0
-8018 -8017 -8002 0
8018 -8017 8002 0
8018 8017 -8002 0
-8019 8018 8003 0
-8019 -8018 -8003 0
8019 -8018 8003 0
8019 8018 -8003 0
-8020 8019 8004 0
-8020 -8019 -8004 0
8020 -8019 8004 0
8020 8019 -8004 0
-8021 8020 8005 0
-8021 -8020 -8005 0
8021 -8020 8005 0
8021 8020 -8005 0
-8022 8021 8006 0
-8022 -8021 -8006 0
8022 -8021 8006 0
8022 8021 -8006 0
-8022 0
-8023 7742 0
-8023 41 0
8023 -7742 -41 0
-8024 7744 0
-8024 45 0
8024 -7744 -45 0
-8025 7746 0
-8025 45 0
8025 -7746 -45 0
-8026 7748 0
-8026 35 0
8026 -7748 -35 0
-8027 7750 0
-8027 36 0
8027 -7750 -36 0
-8028 7752 0
-8028 36 0
8028 -7752 -36 0
-8029 7754 0
-8029 89 0
8029 -7754 -89 0
-8030 7756 0
-8030 89 0
8030 -7756 -89 0
-8031 7758 0
-8031 83 0
8031 -7758 -83 0
-8032 7760 0
-8032 83 0
8032 -7760 -83 0
-8033 7762 0
-8033 137 0
8033 -7762 -137 0
-8034 7764 0
-8034 137 0
8034 -7764 -137 0
-8035 7766 0
-8035 131 0
8035 -7766 -131 0
-8036 7768 0
-8036 131 0
8036 -7768 -131 0
-8037 7770 0
-8037 185 0
8037 -7770 -185 0
-8038 7772 0
-8038 189 0
8038 -7772 -189 0
-8039 7774 0
-8039 189 0
8039 -7774 -189 0
-8040 8023 8024 0
-8040 -8023 -8024 0
8040 -8023 8024 0
8040 8023 -8024 0
-8041 8040 8025 0
-8041 -8040 -8025 0
8041 -8040 8025 0
8041 8040 -8025 0
-8042 8041 8026 0
-8042 -8041 -8026 0
8042 -8041 8026 0
8042 8041 -8026 0
-8043 8042 8027 0
-8043 -8042 -8027 0
8043 -8042 8027 0
8043 8042 -8027 0
-8044 8043 8028 0
-8044 -8043 -8028 0
8044 -8043 8028 0
8044 8043 -8028 0
-8045 8044 8029 0
-8045 -8044 -8029 0
8045 -8044 8029 0
8045 8044 -8029 0
-8046 8045 8030 0
-8046 -8045 -8030 0
8046 -8045 8030 0
8046 8045 -8030 0
-8047 8046 8031 0
-8047 -8046 -8031 0
8047 -8046 8031 0
8047 8046 -8031 0
-8048 8047 8032 0
-8048 -8047 -8032 0
8048 -8047 8032 0
8048 8047 -8032 0
-8049 8048 8033 0
-8049 -8048 -8033 0
8049 -8048 8033 0
8049 8048 -8033 0
-8050 8049 8034 0
-8050 -8049 -8034 0
8050 -8049 8034 0
8050 8049 -8034 0
-8051 8050 8035 0
-8051 -8050 -8035 0
8051 -8050 8035 0
8051 8050 -8035 0
-8052 8051 8036 0
-8052 -8051 -8036 0
8052 -8051 8036 0
8052 8051 -8036 0
-8053 8052 8037 0
-8053 -8052 -8037 0
8053 -8052 8037 0
8053 8052 -8037 0
-8054 8053 8038 0
-8054 -8053 -8038 0
8054 -8053 8038 0
8054 8053 -8038 0
-8055 8054 8039 0
-8055 -8054 -8039 0
8055 -8054 8039 0
8055 8054 -8039 0
-8055 0
-8056 7742 0
-8056 42 0
8056 -7742 -42 0
-8057 7744 0
-8057 46 0
8057 -7744 -46 0
-8058 7746 0
-8058 47 0
8058 -7746 -47 0
-8059 7748 0
-8059 39 0
8059 -7748 -39 0
-8060 7750 0
-8060 40 0
8060 -7750 -40 0
-8061 7752 0
-8061 44 0
8061 -7752 -44 0
-8062 7754 0
-8062 90 0
8062 -7754 -90 0
-8063 7756 0
-8063 92 0
8063 -7756 -92 0
-8064 7758 0
-8064 87 0
8064 -7758 -87 0
-8065 7760 0
-8065 95 0
8065 -7760 -95 0
-8066 7762 0
-8066 138 0
8066 -7762 -138 0
-8067 7764 0
-8067 140 0
8067 -7764 -140 0
-8068 7766 0
-8068 135 0
8068 -7766 -135 0
-8069 7768 0
-8069 143 0
8069 -7768 -143 0
-8070 7770 0
-8070 186 0
8070 -7770 -186 0
-8071 7772 0
-8071 190 0
8071 -7772 -190 0
-8072 7774 0
-8072 191 0
8072 -7774 -191 0
-8073 8056 8057 0
-8073 -8056 -8057 0
8073 -8056 8057 0
8073 8056 -8057 0
-8074 8073 8058 0
-8074 -8073 -8058 0
8074 -8073 8058 0
8074 8073 -8058 0
-8075 8074 8059 0
-8075 -8074 -8059 0
8075 -8074 8059 0
8075 8074 -8059 0
-8076 8075 8060 0
-8076 -8075 -8060 0
8076 -8075 8060 0
8076 8075 -8060 0
-8077 8076 8061 0
-8077 -8076 -8061 0
8077 -8076 8061 0
8077 8076 -8061 0
-8078 8077 8062 0
-8078 -8077 -8062 0
8078 -8077 8062 0
8078 8077 -8062 0
-8079 8078 8063 0
-8079 -8078 -8063 0
8079 -8078 8063 0
8079 8078 -8063 0
-8080 8079 8064 0
-8080 -8079 -8064 0
8080 -8079 8064 0
8080 8079 -8064 0
-8081 8080 8065 0
-8081 -8080 -8065 0
8081 -8080 8065 0
8081 8080 -8065 0
-8082 8081 8066 0
-8082 -8081 -8066 0
8082 -8081 8066 0
8082 8081 -8066 0
-8083 8082 8067 0
-8083 -8082 -8067 0
8083 -8082 8067 0
8083 8082 -8067 0
-8084 8083 8068 0
-8084 -8083 -8068 0
8084 -8083 8068 0
8084 8083 -8068 0
-8085 8084 8069 0
-8085 -8084 -8069 0
8085 -8084 8069 0
8085 8084 -8069 0
-8086 8085 8070 0
-8086 -8085 -8070 0
8086 -8085 8070 0
8086 8085 -8070 0
-8087 8086 8071 0
-8087 -8086 -8071 0
8087 -8086 8071 0
8087 8086 -8071 0
-8088 8087 8072 0
-8088 -8087 -8072 0
8088 -8087 8072 0
8088 8087 -8072 0
-8088 0
-8089 7742 0
-8089 43 0
8089 -7742 -43 0
-8090 7744 0
-8090 48 0
8090 -7744 -48 0
-8091 7746 0
-8091 48 0
8091 -7746 -48 0
-8092 7748 0
-8092 43 0
8092 -7748 -43 0
-8093 7750 0
-8093 48 0
8093 -7750 -48 0
-8094 7752 0
-8094 48 0
8094 -7752 -48 0
-8095 7754 0
-8095 91 0
8095 -7754 -91 0
-8096 7756 0
-8096 91 0
8096 -7756 -91 0
-8097 7758 0
-8097 91 0
8097 -7758 -91 0
-8098 7760 0
-8098 91 0
8098 -7760 -91 0
-8099 7762 0
-8099 139 0
8099 -7762 -139 0
-8100 7764 0
-8100 139 0
8100 -7764 -139 0
-8101 7766 0
-8101 139 0
8101 -7766 -139 0
-8102 7768 0
-8102 139 0
8102 -7768 -139 0
-8103 7770 0
-8103 187 0
8103 -7770 -187 0
-8104 7772 0
-8104 192 0
8104 -7772 -192 0
-8105 7774 0
-8105 192 0
8105 -7774 -192 0
-8106 8089 8090 0
-8106 -8089 -8090 0
8106 -8089 8090 0
8106 8089 -8090 0
-8107 8106 8091 0
-8107 -8106 -8091 0
8107 -8106 8091 0
8107 8106 -8091 0
-8108 8107 8092 0
-8108 -8107 -8092 0
8108 -8107 8092 0
8108 8107 -8092 0
-8109 8108 8093 0
-8109 -8108 -8093 0
8109 -8108 8093 0
8109 8108 -8093 0
-8110 8109 8094 0
-8110 -8109 -8094 0
8110 -8109 8094 0
8110 8109 -8094 0
-8111 8110 8095 0
-8111 -8110 -8095 0
8111 -8110 8095 0
8111 8110 -8095 0
-8112 8111 8096 0
-8112 -8111 -8096 0
8112 -8111 8096 0
8112 8111 -8096 0
-8113 8112 8097 0
-8113 -8112 -8097 0
8113 -8112 8097 0
8113 8112 -8097 0
-8114 8113 8098 0
-8114 -8113 -8098 0
8114 -8113 8098 0
8114 8113 -8098 0
-8115 8114 8099 0
-8115 -8114 -8099 0
8115 -8114 8099 0
8115 8114 -8099 0
-8116 8115 8100 0
-8116 -8115 -8100 0
8116 -8115 8100 0
8116 8115 -8100 0
-8117 8116 8101 0
-8117 -8116 -8101 0
8117 -8116 8101 0
8117 8116 -8101 0
-8118 8117 8102 0
-8118 -8117 -8102 0
8118 -8117 8102 0
8118 8117 -8102 0
-8119 8118 8103 0
-8119 -8118 -8103 0
8119 -8118 8103 0
8119 8118 -8103 0
-8120 8119 8104 0
-8120 -8119 -8104 0
8120 -8119 8104 0
8120 8119 -8104 0
-8121 8120 8105 0
-8121 -8120 -8105 0
8121 -8120 8105 0
8121 8120 -8105 0
-8121 0
-8122 7742 0
-8122 44 0
8122 -7742 -44 0
-8123 7744 0
-8123 47 0
8123 -7744 -47 0
-8124 7746 0
-8124 46 0
8124 -7746 -46 0
-8125 7748 0
-8125 47 0
8125 -7748 -47 0
-8126 7750 0
-8126 44 0
8126 -7750 -44 0
-8127 7752 0
-8127 40 0
8127 -7752 -40 0
-8128 7754 0
-8128 92 0
8128 -7754 -92 0
-8129 7756 0
-8129 90 0
8129 -7756 -90 0
-8130 7758 0
-8130 95 0
8130 -7758 -95 0
-8131 7760 0
-8131 87 0
8131 -7760 -87 0
-8132 7762 0
-8132 140 0
8132 -7762 -140 0
-8133 7764 0
-8133 138 0
8133 -7764 -138 0
-8134 7766 0
-8134 143 0
8134 -7766 -143 0
-8135 7768 0
-8135 135 0
8135 -7768 -135 0
-8136 7770 0
-8136 188 0
8136 -7770 -188 0
-8137 7772 0
-8137 191 0
8137 -7772 -191 0
-8138 7774 0
-8138 190 0
8138 -7774 -190 0
-8139 8122 8123 0
-8139 -8122 -8123 0
8139 -8122 8123 0
8139 8122 -8123 0
-8140 8139 8124 0
-8140 -8139 -8124 0
8140 -8139 8124 0
8140 8139 -8124 0
-8141 8140 8125 0
-8141 -8140 -8125 0
8141 -8140 8125 0
8141 8140 -8125 0
-8142 8141 8126 0
-8142 -8141 -8126 0
8142 -8141 8126 0
8142 8141 -8126 0
-8143 8142 8127 0
-8143 -8142 -8127 0
8143 -8142 8127 0
8143 8142 -8127 0
-8144 8143 8128 0
-8144 -8143 -8128 0
8144 -8143 8128 0
8144 8143 -8128 0
-8145 8144 8129 0
-8145 -8144 -8129 0
8145 -8144 8129 0
8145 8144 -8129 0
-8146 8145 8130 0
-8146 -8145 -8130 0
8146 -8145 8130 0
8146 8145 -8130 0
-8147 8146 8131 0
-8147 -8146 -8131 0
8147 -8146 8131 0
8147 8146 -8131 0
-8148 8147 8132 0
-8148 -8147 -8132 0
8148 -8147 8132 0
8148 8147 -8132 0
-8149 8148 8133 0
-8149 -8148 -8133 0
8149 -8148 8133 0
8149 8148 -8133 0
-8150 8149 8134 0
-8150 -8149 -8134 0
8150 -8149 8134 0
8150 8149 -8134 0
-8151 8150 8135 0
-8151 -8150 -8135 0
8151 -8150 8135 0
8151 8150 -8135 0
-8152 8151 8136 0
-8152 -8151 -8136 0
8152 -8151 8136 0
8152 8151 -8136 0
-8153 8152 8137 0
-8153 -8152 -8137 0
8153 -8152 8137 0
8153 8152 -8137 0
-8154 8153 8138 0
-8154 -8153 -8138 0
8154 -8153 8138 0
8154 8153 -8138 0
-8154 0
-8155 7742 0
-8155 45 0
8155 -7742 -45 0
-8156 7744 0
-8156 41 0
8156 -7744 -41 0
-8157 7746 0
-8157 37 0
8157 -7746 -37 0
-8158 7748 0
-8158 36 0
8158 -7748 -36 0
-8159 7750 0
-8159 35 0
8159 -7750 -35 0
-8160 7752 0
-8160 34 0
8160 -7752 -34 0
-8161 7754 0
-8161 93 0
8161 -7754 -93 0
-8162 7756 0
-8162 85 0
8162 -7756 -85 0
-8163 7758 0
-8163 84 0
8163 -7758 -84 0
-8164 7760 0
-8164 82 0
8164 -7760 -82 0
-8165 7762 0
-8165 141 0
8165 -7762 -141 0
-8166 7764 0
-8166 133 0
8166 -7764 -133 0
-8167 7766 0
-8167 132 0
8167 -7766 -132 0
-8168 7768 0
-8168 130 0
8168 -7768 -130 0
-8169 7770 0
-8169 189 0
8169 -7770 -189 0
-8170 7772 0
-8170 185 0
8170 -7772 -185 0
-8171 7774 0
-8171 181 0
8171 -7774 -181 0
-8172 8155 8156 0
-8172 -8155 -8156 0
8172 -8155 8156 0
8172 8155 -8156 0
-8173 8172 8157 0
-8173 -8172 -8157 0
8173 -8172 8157 0
8173 8172 -8157 0
-8174 8173 8158 0
-8174 -8173 -8158 0
8174 -8173 8158 0
8174 8173 -8158 0
-8175 8174 8159 0
-8175 -8174 -8159 0
8175 -8174 8159 0
8175 8174 -8159 0
-8176 8175 8160 0
-8176 -8175 -8160 0
8176 -8175 8160 0
8176 8175 -8160 0
-8177 8176 8161 0
-8177 -8176 -8161 0
8177 -8176 8161 0
8177 8176 -8161 0
-8178 8177 8162 0
-8178 -8177 -8162 0
8178 -8177 8162 0
8178 8177 -8162 0
-8179 8178 8163 0
-8179 -8178 -8163 0
8179 -8178 8163 0
8179 8178 -8163 0
-8180 8179 8164 0
-8180 -8179 -8164 0
8180 -8179 8164 0
8180 8179 -8164 0
-8181 8180 8165 0
-8181 -8180 -8165 0
8181 -8180 8165 0
8181 8180 -8165 0
-8182 8181 8166 0
-8182 -8181 -8166 0
8182 -8181 8166 0
8182 8181 -8166 0
-8183 8182 8167 0
-8183 -8182 -8167 0
8183 -8182 8167 0
8183 8182 -8167 0
-8184 8183 8168 0
-8184 -8183 -8168 0
8184 -8183 8168 0
8184 8183 -8168 0
-8185 8184 8169 0
-8185 -8184 -8169 0
8185 -8184 8169 0
8185 8184 -8169 0
-8186 8185 8170 0
-8186 -8185 -8170 0
8186 -8185 8170 0
8186 8185 -8170 0
-8187 8186 8171 0
-8187 -8186 -8171 0
8187 -8186 8171 0
8187 8186 -8171 0
-8187 0
-8188 7742 0
-8188 46 0
8188 -7742 -46 0
-8189 7744 0
-8189 42 0
8189 -7744 -42 0
-8190 7746 0
-8190 39 0
8190 -7746 -39 0
-8191 7748 0
-8191 40 0
8191 -7748 -40 0
-8192 7750 0
-8192 39 0
8192 -7750 -39 0
-8193 7752 0
-8193 42 0
8193 -7752 -42 0
-8194 7754 0
-8194 94 0
8194 -7754 -94 0
-8195 7756 0
-8195 88 0
8195 -7756 -88 0
-8196 7758 0
-8196 88 0
8196 -7758 -88 0
-8197 7760 0
-8197 94 0
8197 -7760 -94 0
-8198 7762 0
-8198 142 0
8198 -7762 -142 0
-8199 7764 0
-8199 136 0
8199 -7764 -136 0
-8200 7766 0
-8200 136 0
8200 -7766 -136 0
-8201 7768 0
-8201 142 0
8201 -7768 -142 0
-8202 7770 0
-8202 190 0
8202 -7770 -190 0
-8203 7772 0
-8203 186 0
8203 -7772 -186 0
-8204 7774 0
-8204 183 0
8204 -7774 -183 0
-8205 8188 8189 0
-8205 -8188 -8189 0
8205 -8188 8189 0
8205 8188 -8189 0
-8206 8205 8190 0
-8206 -8205 -8190 0
8206 -8205 8190 0
8206 8205 -8190 0
-8207 8206 8191 0
-8207 -8206 -8191 0
8207 -8206 8191 0
8207 8206 -8191 0
-8208 8207 8192 0
-8208 -8207 -8192 0
8208 -8207 8192 0
8208 8207 -8192 0
-8209 8208 8193 0
-8209 -8208 -8193 0
8209 -8208 8193 0
8209 8208 -8193 0
-8210 8209 8194 0
-8210 -8209 -8194 0
8210 -8209 8194 0
8210 8209 -8194 0
-8211 8210 8195 0
-8211 -8210 -8195 0
8211 -8210 8195 0
8211 8210 -8195 0
-8212 8211 8196 0
-8212 -8211 -8196 0
8212 -8211 8196 0
8212 8211 -8196 0
-8213 8212 8197 0
-8213 -8212 -8197 0
8213 -8212 8197 0
8213 8212 -8197 0
-8214 8213 8198 0
-8214 -8213 -8198 0
8214 -8213 8198 0
8214 8213 -8198 0
-8215 8214 8199 0
-8215 -8214 -8199 0
8215 -8214 8199 0
8215 8214 -8199 0
-8216 8215 8200 0
-8216 -8215 -8200 0
8216 -8215 8200 0
8216 8215 -8200 0
-8217 8216 8201 0
-8217 -8216 -8201 0
8217 -8216 8201 0
8217 8216 -8201 0
-8218 8217 8202 0
-8218 -8217 -8202 0
8218 -8217 8202 0
8218 8217 -8202 0
-8219 8218 8203 0
-8219 -8218 -8203 0
8219 -8218 8203 0
8219 8218 -8203 0
-8220 8219 8204 0
-8220 -8219 -8204 0
8220 -8219 8204 0
8220 8219 -8204 0
-8220 0
-8221 7742 0
-8221 47 0
8221 -7742 -47 0
-8222 7744 0
-8222 44 0
8222 -7744 -44 0
-8223 7746 0
-8223 40 0
8223 -7746 -40 0
-8224 7748 0
-8224 44 0
8224 -7748 -44 0
-8225 7750 0
-8225 47 0
8225 -7750 -47 0
-8226 7752 0
-8226 46 0
8226 -7752 -46 0
-8227 7754 0
-8227 95 0
8227 -7754 -95 0
-8228 7756 0
-8228 87 0
8228 -7756 -87 0
-8229 7758 0
-8229 92 0
8229 -7758 -92 0
-8230 7760 0
-8230 90 0
8230 -7760 -90 0
-8231 7762 0
-8231 143 0
8231 -7762 -143 0
-8232 7764 0
-8232 135 0
8232 -7764 -135 0
-8233 7766 0
-8233 140 0
8233 -7766 -140 0
-8234 7768 0
-8234 138 0
8234 -7768 -138 0
-8235 7770 0
-8235 191 0
8235 -7770 -191 0
-8236 7772 0
-8236 188 0
8236 -7772 -188 0
-8237 7774 0
-8237 184 0
8237 -7774 -184 0
-8238 8221 8222 0
-8238 -8221 -8222 0
8238 -8221 8222 0
8238 8221 -8222 0
-8239 8238 8223 0
-8239 -8238 -8223 0
8239 -8238 8223 0
8239 8238 -8223 0
-8240 8239 8224 0
-8240 -8239 -8224 0
8240 -8239 8224 0
8240 8239 -8224 0
-8241 8240 8225 0
-8241 -8240 -8225 0
8241 -8240 8225 0
8241 8240 -8225 0
-8242 8241 8226 0
-8242 -8241 -8226 0
8242 -8241 8226 0
8242 8241 -8226 0
-8243 8242 8227 0
-8243 -8242 -8227 0
8243 -8242 8227 0
8243 8242 -8227 0
-8244 8243 8228 0
-8244 -8243 -8228 0
8244 -8243 8228 0
8244 8243 -8228 0
-8245 8244 8229 0
-8245 -8244 -8229 0
8245 -8244 8229 0
8245 8244 -8229 0
-8246 8245 8230 0
-8246 -8245 -8230 0
8246 -8245 8230 0
8246 8245 -8230 0
-8247 8246 8231 0
-8247 -8246 -8231 0
8247 -8246 8231 0
8247 8246 -8231 0
-8248 8247 8232 0
-8248 -8247 -8232 0
8248 -8247 8232 0
8248 8247 -8232 0
-8249 8248 8233 0
-8249 -8248 -8233 0
8249 -8248 8233 0
8249 8248 -8233 0
-8250 8249 8234 0
-8250 -8249 -8234 0
8250 -8249 8234 0
8250 8249 -8234 0
-8251 8250 8235 0
-8251 -8250 -8235 0
8251 -8250 8235 0
8251 8250 -8235 0
-8252 8251 8236 0
-8252 -8251 -8236 0
8252 -8251 8236 0
8252 8251 -8236 0
-8253 8252 8237 0
-8253 -8252 -8237 0
8253 -8252 8237 0
8253 8252 -8237 0
-8253 0
-8254 7742 0
-8254 48 0
8254 -7742 -48 0
-8255 7744 0
-8255 43 0
8255 -7744 -43 0
-8256 7746 0
-8256 38 0
8256 -7746 -38 0
-8257 7748 0
-8257 48 0
8257 -7748 -48 0
-8258 7750 0
-8258 43 0
8258 -7750 -43 0
-8259 7752 0
-8259 38 0
8259 -7752 -38 0
-8260 7754 0
-8260 96 0
8260 -7754 -96 0
-8261 7756 0
-8261 86 0
8261 -7756 -86 0
-8262 7758 0
-8262 96 0
8262 -7758 -96 0
-8263 7760 0
-8263 86 0
8263 -7760 -86 0
-8264 7762 0
-8264 144 0
8264 -7762 -144 0
-8265 7764 0
-8265 134 0
8265 -7764 -134 0
-8266 7766 0
-8266 144 0
8266 -7766 -144 0
-8267 7768 0
-8267 134 0
8267 -7768 -134 0
-8268 7770 0
-8268 192 0
8268 -7770 -192 0
-8269 7772 0
-8269 187 0
8269 -7772 -187 0
-8270 7774 0
-8270 182 0
8270 -7774 -182 0
-8271 8254 8255 0
-8271 -8254 -8255 0
8271 -8254 8255 0
8271 8254 -8255 0
-8272 8271 8256 0
-8272 -8271 -8256 0
8272 -8271 8256 0
8272 8271 -8256 0
-8273 8272 8257 0
-8273 -8272 -8257 0
8273 -8272 8257 0
8273 8272 -8257 0
-8274 8273 8258 0
-8274 -8273 -8258 0
8274 -8273 8258 0
8274 8273 -8258 0
-8275 8274 8259 0
-8275 -8274 -8259 0
8275 -8274 8259 0
8275 8274 -8259 0
-8276 8275 8260 0
-8276 -8275 -8260 0
8276 -8275 8260 0
8276 8275 -8260 0
-8277 8276 8261 0
-8277 -8276 -8261 0
8277 -8276 8261 0
8277 8276 -8261 0
-8278 8277 8262 0
-8278 -8277 -8262 0
8278 -8277 8262 0
8278 8277 -8262 0
-8279 8278 8263 0
-8279 -8278 -8263 0
8279 -8278 8263 0
8279 8278 -8263 0
-8280 8279 8264 0
-8280 -8279 -8264 0
8280 -8279 8264 0
8280 8279 -8264 0
-8281 8280 8265 0
-8281 -8280 -8265 0
8281 -8280 8265 0
8281 8280 -8265 0
-8282 8281 8266 0
-8282 -8281 -8266 0
8282 -8281 8266 0
8282 8281 -8266 0
-8283 8282 8267 0
-8283 -8282 -8267 0
8283 -8282 8267 0
8283 8282 -8267 0
-8284 8283 8268 0
-8284 -8283 -8268 0
8284 -8283 8268 0
8284 8283 -8268 0
-8285 8284 8269 0
-8285 -8284 -8269 0
8285 -8284 8269 0
8285 8284 -8269 0
-8286 8285 8270 0
-8286 -8285 -8270 0
8286 -8285 8270 0
8286 8285 -8270 0
-8286 0
-8287 5 0
-8287 26 0
8287 -5 -26 0
-8288 8287 0
-8288 33 0
8288 -8287 -33 0
-8289 6 0
-8289 26 0
8289 -6 -26 0
-8290 8289 0
-8290 33 0
8290 -8289 -33 0
-8291 10 0
-8291 19 0
8291 -10 -19 0
-8292 8291 0
-8292 33 0
8292 -8291 -33 0
-8293 18 0
-8293 7 0
8293 -18 -7 0
-8294 8293 0
-8294 33 0
8294 -8293 -33 0
-8295 22 0
-8295 7 0
8295 -22 -7 0
-8296 8295 0
-8296 33 0
8296 -8295 -33 0
-8297 23 0
-8297 9 0
8297 -23 -9 0
-8298 8297 0
-8298 33 0
8298 -8297 -33 0
-8299 53 0
-8299 74 0
8299 -53 -74 0
-8300 8299 0
-8300 81 0
8300 -8299 -81 0
-8301 61 0
-8301 72 0
8301 -61 -72 0
-8302 8301 0
-8302 81 0
8302 -8301 -81 0
-8303 66 0
-8303 55 0
8303 -66 -55 0
-8304 8303 0
-8304 81 0
8304 -8303 -81 0
-8305 68 0
-8305 62 0
8305 -68 -62 0
-8306 8305 0
-8306 81 0
8306 -8305 -81 0
-8307 101 0
-8307 122 0
8307 -101 -122 0
-8308 8307 0
-8308 129 0
8308 -8307 -129 0
-8309 109 0
-8309 120 0
8309 -109 -120 0
-8310 8309 0
-8310 129 0
8310 -8309 -129 0
-8311 114 0
-8311 103 0
8311 -114 -103 0
-8312 8311 0
-8312 129 0
8312 -8311 -129 0
-8313 116 0
-8313 110 0
8313 -116 -110 0
-8314 8313 0
-8314 129 0
8314 -8313 -129 0
-8315 149 0
-8315 170 0
8315 -149 -170 0
-8316 8315 0
-8316 177 0
8316 -8315 -177 0
-8317 150 0
-8317 170 0
8317 -150 -170 0
-8318 8317 0
-8318 177 0
8318 -8317 -177 0
-8319 154 0
-8319 163 0
8319 -154 -163 0
-8320 8319 0
-8320 177 0
8320 -8319 -177 0
-8321 8288 8290 0
-8321 -8288 -8290 0
8321 -8288 8290 0
8321 8288 -8290 0
-8322 8321 8292 0
-8322 -8321 -8292 0
8322 -8321 8292 0
8322 8321 -8292 0
-8323 8322 8294 0
-8323 -8322 -8294 0
8323 -8322 8294 0
8323 8322 -8294 0
-8324 8323 8296 0
-8324 -8323 -8296 0
8324 -8323 8296 0
8324 8323 -8296 0
-8325 8324 8298 0
-8325 -8324 -8298 0
8325 -8324 8298 0
8325 8324 -8298 0
-8326 8325 8300 0
-8326 -8325 -8300 0
8326 -8325 8300 0
8326 8325 -8300 0
-8327 8326 8302 0
-8327 -8326 -8302 0
8327 -8326 8302 0
8327 8326 -8302 0
-8328 8327 8304 0
-8328 -8327 -8304 0
8328 -8327 8304 0
8328 8327 -8304 0
-8329 8328 8306 0
-8329 -8328 -8306 0
8329 -8328 8306 0
8329 8328 -8306 0
-8330 8329 8308 0
-8330 -8329 -8308 0
8330 -8329 8308 0
8330 8329 -8308 0
-8331 8330 8310 0
-8331 -8330 -8310 0
8331 -8330 8310 0
8331 8330 -8310 0
-8332 8331 8312 0
-8332 -8331 -8312 0
8332 -8331 8312 0
8332 8331 -8312 0
-8333 8332 8314 0
-8333 -8332 -8314 0
8333 -8332 8314 0
8333 8332 -8314 0
-8334 8333 8316 0
-8334 -8333 -8316 0
8334 -8333 8316 0
8334 8333 -8316 0
-8335 8334 8318 0
-8335 -8334 -8318 0
8335 -8334 8318 0
8335 8334 -8318 0
-8336 8335 8320 0
-8336 -8335 -8320 0
8336 -8335 8320 0
8336 8335 -8320 0
-8336 0
-8337 8287 0
-8337 34 0
8337 -8287 -34 0
-8338 8289 0
-8338 34 0
8338 -8289 -34 0
-8339 8291 0
-8339 35 0
8339 -8291 -35 0
-8340 8293 0
-8340 37 0
8340 -8293 -37 0
-8341 8295 0
-8341 37 0
8341 -8295 -37 0
-8342 8297 0
-8342 41 0
8342 -8297 -41 0
-8343 8299 0
-8343 82 0
8343 -8299 -82 0
-8344 8301 0
-8344 84 0
8344 -8301 -84 0
-8345 8303 0
-8345 85 0
8345 -8303 -85 0
-8346 8305 0
-8346 93 0
8346 -8305 -93 0
-8347 8307 0
-8347 130 0
8347 -8307 -130 0
-8348 8309 0
-8348 132 0
8348 -8309 -132 0
-8349 8311 0
-8349 133 0
8349 -8311 -133 0
-8350 8313 0
-8350 141 0
8350 -8313 -141 0
-8351 8315 0
-8351 178 0
8351 -8315 -178 0
-8352 8317 0
-8352 178 0
8352 -8317 -178 0
-8353 8319 0
-8353 179 0
8353 -8319 -179 0
-8354 8337 8338 0
-8354 -8337 -8338 0
8354 -8337 8338 0
8354 8337 -8338 0
-8355 8354 8339 0
-8355 -8354 -8339 0
8355 -8354 8339 0
8355 8354 -8339 0
-8356 8355 8340 0
-8356 -8355 -8340 0
8356 -8355 8340 0
8356 8355 -8340 0
-8357 8356 8341 0
-8357 -8356 -8341 0
8357 -8356 8341 0
8357 8356 -8341 0
-8358 8357 8342 0
-8358 -8357 -8342 0
8358 -8357 8342 0
8358 8357 -8342 0
-8359 8358 8343 0
-8359 -8358 -8343 0
8359 -8358 8343 0
8359 8358 -8343 0
-8360 8359 8344 0
-8360 -8359 -8344 0
8360 -8359 8344 0
8360 8359 -8344 0
-8361 8360 8345 0
-8361 -8360 -8345 0
8361 -8360 8345 0
8361 8360 -8345 0
-8362 8361 8346 0
-8362 -8361 -8346 0
8362 -8361 8346 0
8362 8361 -8346 0
-8363 8362 8347 0
-8363 -8362 -8347 0
8363 -8362 8347 0
8363 8362 -8347 0
-8364 8363 8348 0
-8364 -8363 -8348 0
8364 -8363 8348 0
8364 8363 -8348 0
-8365 8364 8349 0
-8365 -8364 -8349 0
8365 -8364 8349 0
8365 8364 -8349 0
-8366 8365 8350 0
-8366 -8365 -8350 0
8366 -8365 8350 0
8366 8365 -8350 0
-8367 8366 8351 0
-8367 -8366 -8351 0
8367 -8366 8351 0
8367 8366 -8351 0
-8368 8367 8352 0
-8368 -8367 -8352 0
8368 -8367 8352 0
8368 8367 -8352 0
-8369 8368 8353 0
-8369 -8368 -8353 0
8369 -8368 8353 0
8369 8368 -8353 0
-8369 0
-8370 8287 0
-8370 35 0
8370 -8287 -35 0
-8371 8289 0
-8371 36 0
8371 -8289 -36 0
-8372 8291 0
-8372 36 0
8372 -8291 -36 0
-8373 8293 0
-8373 41 0
8373 -8293 -41 0
-8374 8295 0
-8374 45 0
8374 -8295 -45 0
-8375 8297 0
-8375 45 0
8375 -8297 -45 0
-8376 8299 0
-8376 83 0
8376 -8299 -83 0
-8377 8301 0
-8377 83 0
8377 -8301 -83 0
-8378 8303 0
-8378 89 0
8378 -8303 -89 0
-8379 8305 0
-8379 89 0
8379 -8305 -89 0
-8380 8307 0
-8380 131 0
8380 -8307 -131 0
-8381 8309 0
-8381 131 0
8381 -8309 -131 0
-8382 8311 0
-8382 137 0
8382 -8311 -137 0
-8383 8313 0
-8383 137 0
8383 -8313 -137 0
-8384 8315 0
-8384 179 0
8384 -8315 -179 0
-8385 8317 0
-8385 180 0
8385 -8317 -180 0
-8386 8319 0
-8386 180 0
8386 -8319 -180 0
-8387 8370 8371 0
-8387 -8370 -8371 0
8387 -8370 8371 0
8387 8370 -8371 0
-8388 8387 8372 0
-8388 -8387 -8372 0
8388 -8387 8372 0
8388 8387 -8372 0
-8389 8388 8373 0
-8389 -8388 -8373 0
8389 -8388 8373 0
8389 8388 -8373 0
-8390 8389 8374 0
-8390 -8389 -8374 0
8390 -8389 8374 0
8390 8389 -8374 0
-8391 8390 8375 0
-8391 -8390 -8375 0
8391 -8390 8375 0
8391 8390 -8375 0
-8392 8391 8376 0
-8392 -8391 -8376 0
8392 -8391 8376 0
8392 8391 -8376 0
-8393 8392 8377 0
-8393 -8392 -8377 0
8393 -8392 8377 0
8393 8392 -8377 0
-8394 8393 8378 0
-8394 -8393 -8378 0
8394 -8393 8378 0
8394 8393 -8378 0
-8395 8394 8379 0
-8395 -8394 -8379 0
8395 -8394 8379 0
8395 8394 -8379 0
-8396 8395 8380 0
-8396 -8395 -8380 0
8396 -8395 8380 0
8396 8395 -8380 0
-8397 8396 8381 0
-8397 -8396 -8381 0
8397 -8396 8381 0
8397 8396 -8381 0
-8398 8397 8382 0
-8398 -8397 -8382 0
8398 -8397 8382 0
8398 8397 -8382 0
-8399 8398 8383 0
-8399 -8398 -8383 0
8399 -8398 8383 0
8399 8398 -8383 0
-8400 8399 8384 0
-8400 -8399 -8384 0
8400 -8399 8384 0
8400 8399 -8384 0
-8401 8400 8385 0
-8401 -8400 -8385 0
8401 -8400 8385 0
8401 8400 -8385 0
-8402 8401 8386 0
-8402 -8401 -8386 0
8402 -8401 8386 0
8402 8401 -8386 0
-8402 0
-8403 8287 0
-8403 36 0
8403 -8287 -36 0
-8404 8289 0
-8404 35 0
8404 -8289 -35 0
-8405 8291 0
-8405 34 0
8405 -8291 -34 0
-8406 8293 0
-8406 45 0
8406 -8293 -45 0
-8407 8295 0
-8407 41 0
8407 -8295 -41 0
-8408 8297 0
-8408 37 0
8408 -8297 -37 0
-8409 8299 0
-8409 84 0
8409 -8299 -84 0
-8410 8301 0
-8410 82 0
8410 -8301 -82 0
-8411 8303 0
-8411 93 0
8411 -8303 -93 0
-8412 8305 0
-8412 85 0
8412 -8305 -85 0
-8413 8307 0
-8413 132 0
8413 -8307 -132 0
-8414 8309 0
-8414 130 0
8414 -8309 -130 0
-8415 8311 0
-8415 141 0
8415 -8311 -141 0
-8416 8313 0
-8416 133 0
8416 -8313 -133 0
-8417 8315 0
-8417 180 0
8417 -8315 -180 0
-8418 8317 0
-8418 179 0
8418 -8317 -179 0
-8419 8319 0
-8419 178 0
8419 -8319 -178 0
-8420 8403 8404 0
-8420 -8403 -8404 0
8420 -8403 8404 0
8420 8403 -8404 0
-8421 8420 8405 0
-8421 -8420 -8405 0
8421 -8420 8405 0
8421 8420 -8405 0
-8422 8421 8406 0
-8422 -8421 -8406 0
8422 -8421 8406 0
8422 8421 -8406 0
-8423 8422 8407 0
-8423 -8422 -8407 0
8423 -8422 8407 0
8423 8422 -8407 0
-8424 8423 8408 0
-8424 -8423 -8408 0
8424 -8423 8408 0
8424 8423 -8408 0
-8425 8424 8409 0
-8425 -8424 -8409 0
8425 -8424 8409 0
8425 8424 -8409 0
-8426 8425 8410 0
-8426 -8425 -8410 0
8426 -8425 8410 0
8426 8425 -8410 0
-8427 8426 8411 0
-8427 -8426 -8411 0
8427 -8426 8411 0
8427 8426 -8411 0
-8428 8427 8412 0
-8428 -8427 -8412 0
8428 -8427 8412 0
8428 8427 -8412 0
-8429 8428 8413 0
-8429 -8428 -8413 0
8429 -8428 8413 0
8429 8428 -8413 0
-8430 8429 8414 0
-8430 -8429 -8414 0
8430 -8429 8414 0
8430 8429 -8414 0
-8431 8430 8415 0
-8431 -8430 -8415 0
8431 -8430 8415 0
8431 8430 -8415 0
-8432 8431 8416 0
-8432 -8431 -8416 0
8432 -8431 8416 0
8432 8431 -8416 0
-8433 8432 8417 0
-8433 -8432 -8417 0
8433 -8432 8417 0
8433 8432 -8417 0
-8434 8433 8418 0
-8434 -8433 -8418 0
8434 -8433 8418 0
8434 8433 -8418 0
-8435 8434 8419 0
-8435 -8434 -8419 0
8435 -8434 8419 0
8435 8434 -8419 0
-8435 0
-8436 8287 0
-8436 37 0
8436 -8287 -37 0
-8437 8289 0
-8437 37 0
8437 -8289 -37 0
-8438 8291 0
-8438 41 0
8438 -8291 -41 0
-8439 8293 0
-8439 34 0
8439 -8293 -34 0
-8440 8295 0
-8440 34 0
8440 -8295 -34 0
-8441 8297 0
-8441 35 0
8441 -8297 -35 0
-8442 8299 0
-8442 85 0
8442 -8299 -85 0
-8443 8301 0
-8443 93 0
8443 -8301 -93 0
-8444 8303 0
-8444 82 0
8444 -8303 -82 0
-8445 8305 0
-8445 84 0
8445 -8305 -84 0
-8446 8307 0
-8446 133 0
8446 -8307 -133 0
-8447 8309 0
-8447 141 0
8447 -8309 -141 0
-8448 8311 0
-8448 130 0
8448 -8311 -130 0
-8449 8313 0
-8449 132 0
8449 -8313 -132 0
-8450 8315 0
-8450 181 0
8450 -8315 -181 0
-8451 8317 0
-8451 181 0
8451 -8317 -181 0
-8452 8319 0
-8452 185 0
8452 -8319 -185 0
-8453 8436 8437 0
-8453 -8436 -8437 0
8453 -8436 8437 0
8453 8436 -8437 0
-8454 8453 8438 0
-8454 -8453 -8438 0
8454 -8453 8438 0
8454 8453 -8438 0
-8455 8454 8439 0
-8455 -8454 -8439 0
8455 -8454 8439 0
8455 8454 -8439 0
-8456 8455 8440 0
-8456 -8455 -8440 0
8456 -8455 8440 0
8456 8455 -8440 0
-8457 8456 8441 0
-8457 -8456 -8441 0
8457 -8456 8441 0
8457 8456 -8441 0
-8458 8457 8442 0
-8458 -8457 -8442 0
8458 -8457 8442 0
8458 8457 -8442 0
-8459 8458 8443 0
-8459 -8458 -8443 0
8459 -8458 8443 0
8459 8458 -8443 0
-8460 8459 8444 0
-8460 -8459 -8444 0
8460 -8459 8444 0
8460 8459 -8444 0
-8461 8460 8445 0
-8461 -8460 -8445 0
8461 -8460 8445 0
8461 8460 -8445 0
-8462 8461 8446 0
-8462 -8461 -8446 0
8462 -8461 8446 0
8462 8461 -8446 0
-8463 8462 8447 0
-8463 -8462 -8447 0
8463 -8462 8447 0
8463 8462 -8447 0
-8464 8463 8448 0
-8464 -8463 -8448 0
8464 -8463 8448 0
8464 8463 -8448 0
-8465 8464 8449 0
-8465 -8464 -8449 0
8465 -8464 8449 0
8465 8464 -8449 0
-8466 8465 8450 0
-8466 -8465 -8450 0
8466 -8465 8450 0
8466 8465 -8450 0
-8467 8466 8451 0
-8467 -8466 -8451 0
8467 -8466 8451 0
8467 8466 -8451 0
-8468 8467 8452 0
-8468 -8467 -8452 0
8468 -8467 8452 0
8468 8467 -8452 0
-8468 0
-8469 8287 0
-8469 38 0
8469 -8287 -38 0
-8470 8289 0
-8470 38 0
8470 -8289 -38 0
-8471 8291 0
-8471 43 0
8471 -8291 -43 0
-8472 8293 0
-8472 38 0
8472 -8293 -38 0
-8473 8295 0
-8473 38 0
8473 -8295 -38 0
-8474 8297 0
-8474 43 0
8474 -8297 -43 0
-8475 8299 0
-8475 86 0
8475 -8299 -86 0
-8476 8301 0
-8476 96 0
8476 -8301 -96 0
-8477 8303 0
-8477 86 0
8477 -8303 -86 0
-8478 8305 0
-8478 96 0
8478 -8305 -96 0
-8479 8307 0
-8479 134 0
8479 -8307 -134 0
-8480 8309 0
-8480 144 0
8480 -8309 -144 0
-8481 8311 0
-8481 134 0
8481 -8311 -134 0
-8482 8313 0
-8482 144 0
8482 -8313 -144 0
-8483 8315 0
-8483 182 0
8483 -8315 -182 0
-8484 8317 0
-8484 182 0
8484 -8317 -182 0
-8485 8319 0
-8485 187 0
8485 -8319 -187 0
-8486 8469 8470 0
-8486 -8469 -8470 0
8486 -8469 8470 0
8486 8469 -8470 0
-8487 8486 8471 0
-8487 -8486 -8471 0
8487 -8486 8471 0
8487 8486 -8471 0
-8488 8487 8472 0
-8488 -8487 -8472 0
8488 -8487 8472 0
8488 8487 -8472 0
-8489 8488 8473 0
-8489 -8488 -8473 0
8489 -8488 8473 0
8489 8488 -8473 0
-8490 8489 8474 0
-8490 -8489 -8474 0
8490 -8489 8474 0
8490 8489 -8474 0
-8491 8490 8475 0
-8491 -8490 -8475 0
8491 -8490 8475 0
8491 8490 -8475 0
-8492 8491 8476 0
-8492 -8491 -8476 0
8492 -8491 8476 0
8492 8491 -8476 0
-8493 8492 8477 0
-8493 -8492 -8477 0
8493 -8492 8477 0
8493 8492 -8477 0
-8494 8493 8478 0
-8494 -8493 -8478 0
8494 -8493 8478 0
8494 8493 -8478 0
-8495 8494 8479 0
-8495 -8494 -8479 0
8495 -8494 8479 0
8495 8494 -8479 0
-8496 8495 8480 0
-8496 -8495 -8480 0
8496 -8495 8480 0
8496 8495 -8480 0
-8497 8496 8481 0
-8497 -8496 -8481 0
8497 -8496 8481 0
8497 8496 -8481 0
-8498 8497 8482 0
-8498 -8497 -8482 0
8498 -8497 8482 0
8498 8497 -8482 0
-8499 8498 8483 0
-8499 -8498 -8483 0
8499 -8498 8483 0
8499 8498 -8483 0
-8500 8499 8484 0
-8500 -8499 -8484 0
8500 -8499 8484 0
8500 8499 -8484 0
-8501 8500 8485 0
-8501 -8500 -8485 0
8501 -8500 8485 0
8501 8500 -8485 0
-8501 0
-8502 8287 0
-8502 39 0
8502 -8287 -39 0
-8503 8289 0
-8503 40 0
8503 -8289 -40 0
-8504 8291 0
-8504 44 0
8504 -8291 -44 0
-8505 8293 0
-8505 42 0
8505 -8293 -42 0
-8506 8295 0
-8506 46 0
8506 -8295 -46 0
-8507 8297 0
-8507 47 0
8507 -8297 -47 0
-8508 8299 0
-8508 87 0
8508 -8299 -87 0
-8509 8301 0
-8509 95 0
8509 -8301 -95 0
-8510 8303 0
-8510 90 0
8510 -8303 -90 0
-8511 8305 0
-8511 92 0
8511 -8305 -92 0
-8512 8307 0
-8512 135 0
8512 -8307 -135 0
-8513 8309 0
-8513 143 0
8513 -8309 -143 0
-8514 8311 0
-8514 138 0
8514 -8311 -138 0
-8515 8313 0
-8515 140 0
8515 -8313 -140 0
-8516 8315 0
-8516 183 0
8516 -8315 -183 0
-8517 8317 0
-8517 184 0
8517 -8317 -184 0
-8518 8319 0
-8518 188 0
8518 -8319 -188 0
-8519 8502 8503 0
-8519 -8502 -8503 0
8519 -8502 8503 0
8519 8502 -8503 0
-8520 8519 8504 0
-8520 -8519 -8504 0
8520 -8519 8504 0
8520 8519 -8504 0
-8521 8520 8505 0
-8521 -8520 -8505 0
8521 -8520 8505 0
8521 8520 -8505 0
-8522 8521 8506 0
-8522 -8521 -8506 0
8522 -8521 8506 0
8522 8521 -8506 0
-8523 8522 8507 0
-8523 -8522 -8507 0
8523 -8522 8507 0
8523 8522 -8507 0
-8524 8523 8508 0
-8524 -8523 -8508 0
8524 -8523 8508 0
8524 8523 -8508 0
-8525 8524 8509 0
-8525 -8524 -8509 0
8525 -8524 8509 0
8525 8524 -8509 0
-8526 8525 8510 0
-8526 -8525 -8510 0
8526 -8525 8510 0
8526 8525 -8510 0
-8527 8526 8511 0
-8527 -8526 -8511 0
8527 -8526 8511 0
8527 8526 -8511 0
-8528 8527 8512 0
-8528 -8527 -8512 0
8528 -8527 8512 0
8528 8527 -8512 0
-8529 8528 8513 0
-8529 -8528 -8513 0
8529 -8528 8513 0
8529 8528 -8513 0
-8530 8529 8514 0
-8530 -8529 -8514 0
8530 -8529 8514 0
8530 8529 -8514 0
-8531 8530 8515 0
-8531 -8530 -8515 0
8531 -8530 8515 0
8531 8530 -8515 0
-8532 8531 8516 0
-8532 -8531 -8516 0
8532 -8531 8516 0
8532 8531 -8516 0
-8533 8532 8517 0
-8533 -8532 -8517 0
8533 -8532 8517 0
8533 8532 -8517 0
-8534 8533 8518 0
-8534 -8533 -8518 0
8534 -8533 8518 0
8534 8533 -8518 0
-8534 0
-8535 8287 0
-8535 40 0
8535 -8287 -40 0
-8536 8289 0
-8536 39 0
8536 -8289 -39 0
-8537 8291 0
-8537 42 0
8537 -8291 -42 0
-8538 8293 0
-8538 46 0
8538 -8293 -46 0
-8539 8295 0
-8539 42 0
8539 -8295 -42 0
-8540 8297 0
-8540 39 0
8540 -8297 -39 0
-8541 8299 0
-8541 88 0
8541 -8299 -88 0
-8542 8301 0
-8542 94 0
8542 -8301 -94 0
-8543 8303 0
-8543 94 0
8543 -8303 -94 0
-8544 8305 0
-8544 88 0
8544 -8305 -88 0
-8545 8307 0
-8545 136 0
8545 -8307 -136 0
-8546 8309 0
-8546 142 0
8546 -8309 -142 0
-8547 8311 0
-8547 142 0
8547 -8311 -142 0
-8548 8313 0
-8548 136 0
8548 -8313 -136 0
-8549 8315 0
-8549 184 0
8549 -8315 -184 0
-8550 8317 0
-8550 183 0
8550 -8317 -183 0
-8551 8319 0
-8551 186 0
8551 -8319 -186 0
-8552 8535 8536 0
-8552 -8535 -8536 0
8552 -8535 8536 0
8552 8535 -8536 0
-8553 8552 8537 0
-8553 -8552 -8537 0
8553 -8552 8537 0
8553 8552 -8537 0
-8554 8553 8538 0
-8554 -8553 -8538 0
8554 -8553 8538 0
8554 8553 -8538 0
-8555 8554 8539 0
-8555 -8554 -8539 0
8555 -8554 8539 0
8555 8554 -8539 0
-8556 8555 8540 0
-8556 -8555 -8540 0
8556 -8555 8540 0
8556 8555 -8540 0
-8557 8556 8541 0
-8557 -8556 -8541 0
8557 -8556 8541 0
8557 8556 -8541 0
-8558 8557 8542 0
-8558 -8557 -8542 0
8558 -8557 8542 0
8558 8557 -8542 0
-8559 8558 8543 0
-8559 -8558 -8543 0
8559 -8558 8543 0
8559 8558 -8543 0
-8560 8559 8544 0
-8560 -8559 -8544 0
8560 -8559 8544 0
8560 8559 -8544 0
-8561 8560 8545 0
-8561 -8560 -8545 0
8561 -8560 8545 0
8561 8560 -8545 0
-8562 8561 8546 0
-8562 -8561 -8546 0
8562 -8561 8546 0
8562 8561 -8546 0
-8563 8562 8547 0
-8563 -8562 -8547 0
8563 -8562 8547 0
8563 8562 -8547 0
-8564 8563 8548 0
-8564 -8563 -8548 0
8564 -8563 8548 0
8564 8563 -8548 0
-8565 8564 8549 0
-8565 -8564 -8549 0
8565 -8564 8549 0
8565 8564 -8549 0
-8566 8565 8550 0
-8566 -8565 -8550 0
8566 -8565 8550 0
8566 8565 -8550 0
-8567 8566 8551 0
-8567 -8566 -8551 0
8567 -8566 8551 0
8567 8566 -8551 0
-8567 0
-8568 8287 0
-8568 41 0
8568 -8287 -41 0
-8569 8289 0
-8569 45 0
8569 -8289 -45 0
-8570 8291 0
-8570 45 0
8570 -8291 -45 0
-8571 8293 0
-8571 35 0
8571 -8293 -35 0
-8572 8295 0
-8572 36 0
8572 -8295 -36 0
-8573 8297 0
-8573 36 0
8573 -8297 -36 0
-8574 8299 0
-8574 89 0
8574 -8299 -89 0
-8575 8301 0
-8575 89 0
8575 -8301 -89 0
-8576 8303 0
-8576 83 0
8576 -8303 -83 0
-8577 8305 0
-8577 83 0
8577 -8305 -83 0
-8578 8307 0
-8578 137 0
8578 -8307 -137 0
-8579 8309 0
-8579 137 0
8579 -8309 -137 0
-8580 8311 0
-8580 131 0
8580 -8311 -131 0
-8581 8313 0
-8581 131 0
8581 -8313 -131 0
-8582 8315 0
-8582 185 0
8582 -8315 -185 0
-8583 8317 0
-8583 189 0
8583 -8317 -189 0
-8584 8319 0
-8584 189 0
8584 -8319 -189 0
-8585 8568 8569 0
-8585 -8568 -8569 0
8585 -8568 8569 0
8585 8568 -8569 0
-8586 8585 8570 0
-8586 -8585 -8570 0
8586 -8585 8570 0
8586 8585 -8570 0
-8587 8586 8571 0
-8587 -8586 -8571 0
8587 -8586 8571 0
8587 8586 -8571 0
-8588 8587 8572 0
-8588 -8587 -8572 0
8588 -8587 8572 0
8588 8587 -8572 0
-8589 8588 8573 0
-8589 -8588 -8573 0
8589 -8588 8573 0
8589 8588 -8573 0
-8590 8589 8574 0
-8590 -8589 -8574 0
8590 -8589 8574 0
8590 8589 -8574 0
-8591 8590 8575 0
-8591 -8590 -8575 0
8591 -8590 8575 0
8591 8590 -8575 0
-8592 8591 8576 0
-8592 -8591 -8576 0
8592 -8591 8576 0
8592 8591 -8576 0
-8593 8592 8577 0
-8593 -8592 -8577 0
8593 -8592 8577 0
8593 8592 -8577 0
-8594 8593 8578 0
-8594 -8593 -8578 0
8594 -8593 8578 0
8594 8593 -8578 0
-8595 8594 8579 0
-8595 -8594 -8579 0
8595 -8594 8579 0
8595 8594 -8579 0
-8596 8595 8580 0
-8596 -8595 -8580 0
8596 -8595 8580 0
8596 8595 -8580 0
-8597 8596 8581 0
-8597 -8596 -8581 0
8597 -8596 8581 0
8597 8596 -8581 0
-8598 8597 8582 0
-8598 -8597 -8582 0
8598 -8597 8582 0
8598 8597 -8582 0
-8599 8598 8583 0
-8599 -8598 -8583 0
8599 -8598 8583 0
8599 8598 -8583 0
-8600 8599 8584 0
-8600 -8599 -8584 0
8600 -8599 8584 0
8600 8599 -8584 0
-8600 0
-8601 8287 0
-8601 42 0
8601 -8287 -42 0
-8602 8289 0
-8602 46 0
8602 -8289 -46 0
-8603 8291 0
-8603 47 0
8603 -8291 -47 0
-8604 8293 0
-8604 39 0
8604 -8293 -39 0
-8605 8295 0
-8605 40 0
8605 -8295 -40 0
-8606 8297 0
-8606 44 0
8606 -8297 -44 0
-8607 8299 0
-8607 90 0
8607 -8299 -90 0
-8608 8301 0
-8608 92 0
8608 -8301 -92 0
-8609 8303 0
-8609 87 0
8609 -8303 -87 0
-8610 8305 0
-8610 95 0
8610 -8305 -95 0
-8611 8307 0
-8611 138 0
8611 -8307 -138 0
-8612 8309 0
-8612 140 0
8612 -8309 -140 0
-8613 8311 0
-8613 135 0
8613 -8311 -135 0
-8614 8313 0
-8614 143 0
8614 -8313 -143 0
-8615 8315 0
-8615 186 0
8615 -8315 -186 0
-8616 8317 0
-8616 190 0
8616 -8317 -190 0
-8617 8319 0
-8617 191 0
8617 -8319 -191 0
-8618 8601 8602 0
-8618 -8601 -8602 0
8618 -8601 8602 0
8618 8601 -8602 0
-8619 8618 8603 0
-8619 -8618 -8603 0
8619 -8618 8603 0
8619 8618 -8603 0
-8620 8619 8604 0
-8620 -8619 -8604 0
8620 -8619 8604 0
8620 8619 -8604 0
-8621 8620 8605 0
-8621 -8620 -8605 0
8621 -8620 8605 0
8621 8620 -8605 0
-8622 8621 8606 0
-8622 -8621 -8606 0
8622 -8621 8606 0
8622 8621 -8606 0
-8623 8622 8607 0
-8623 -8622 -8607 0
8623 -8622 8607 0
8623 8622 -8607 0
-8624 8623 8608 0
-8624 -8623 -8608 0
8624 -8623 8608 0
8624 8623 -8608 0
-8625 8624 8609 0
-8625 -8624 -8609 0
8625 -8624 8609 0
8625 8624 -8609 0
-8626 8625 8610 0
-8626 -8625 -8610 0
8626 -8625 8610 0
8626 8625 -8610 0
-8627 8626 8611 0
-8627 -8626 -8611 0
8627 -8626 8611 0
8627 8626 -8611 0
-8628 8627 8612 0
-8628 -8627 -8612 0
8628 -8627 8612 0
8628 8627 -8612 0
-8629 8628 8613 0
-8629 -8628 -8613 0
8629 -8628 8613 0
8629 8628 -8613 0
-8630 8629 8614 0
-8630 -8629 -8614 0
8630 -8629 8614 0
8630 8629 -8614 0
-8631 8630 8615 0
-8631 -8630 -8615 0
8631 -8630 8615 0
8631 8630 -8615 0
-8632 8631 8616 0
-8632 -8631 -8616 0
8632 -8631 8616 0
8632 8631 -8616 0
-8633 8632 8617 0
-8633 -8632 -8617 0
8633 -8632 8617 0
8633 8632 -8617 0
-8633 0
-8634 8287 0
-8634 43 0
8634 -8287 -43 0
-8635 8289 0
-8635 48 0
8635 -8289 -48 0
-8636 8291 0
-8636 48 0
8636 -8291 -48 0
-8637 8293 0
-8637 43 0
8637 -8293 -43 0
-8638 8295 0
-8638 48 0
8638 -8295 -48 0
-8639 8297 0
-8639 48 0
8639 -8297 -48 0
-8640 8299 0
-8640 91 0
8640 -8299 -91 0
-8641 8301 0
-8641 91 0
8641 -8301 -91 0
-8642 8303 0
-8642 91 0
8642 -8303 -91 0
-8643 8305 0
-8643 91 0
8643 -8305 -91 0
-8644 8307 0
-8644 139 0
8644 -8307 -139 0
-8645 8309 0
-8645 139 0
8645 -8309 -139 0
-8646 8311 0
-8646 139 0
8646 -8311 -139 0
-8647 8313 0
-8647 139 0
8647 -8313 -139 0
-8648 8315 0
-8648 187 0
8648 -8315 -187 0
-8649 8317 0
-8649 192 0
8649 -8317 -192 0
-8650 8319 0
-8650 192 0
8650 -8319 -192 0
-8651 8634 8635 0
-8651 -8634 -8635 0
8651 -8634 8635 0
8651 8634 -8635 0
-8652 8651 8636 0
-8652 -8651 -8636 0
8652 -8651 8636 0
8652 8651 -8636 0
-8653 8652 8637 0
-8653 -8652 -8637 0
8653 -8652 8637 0
8653 8652 -8637 0
-8654 8653 8638 0
-8654 -8653 -8638 0
8654 -8653 8638 0
8654 8653 -8638 0
-8655 8654 8639 0
-8655 -8654 -8639 0
8655 -8654 8639 0
8655 8654 -8639 0
-8656 8655 8640 0
-8656 -8655 -8640 0
8656 -8655 8640 0
8656 8655 -8640 0
-8657 8656 8641 0
-8657 -8656 -8641 0
8657 -8656 8641 0
8657 8656 -8641 0
-8658 8657 8642 0
-8658 -8657 -8642 0
8658 -8657 8642 0
8658 8657 -8642 0
-8659 8658 8643 0
-8659 -8658 -8643 0
8659 -8658 8643 0
8659 8658 -8643 0
-8660 8659 8644 0
-8660 -8659 -8644 0
8660 -8659 8644 0
8660 8659 -8644 0
-8661 8660 8645 0
-8661 -8660 -8645 0
8661 -8660 8645 0
8661 8660 -8645 0
-8662 8661 8646 0
-8662 -8661 -8646 0
8662 -8661 8646 0
8662 8661 -8646 0
-8663 8662 8647 0
-8663 -8662 -8647 0
8663 -8662 8647 0
8663 8662 -8647 0
-8664 8663 8648 0
-8664 -8663 -8648 0
8664 -8663 8648 0
8664 8663 -8648 0
-8665 8664 8649 0
-8665 -8664 -8649 0
8665 -8664 8649 0
8665 8664 -8649 0
-8666 8665 8650 0
-8666 -8665 -8650 0
8666 -8665 8650 0
8666 8665 -8650 0
-8666 0
-8667 8287 0
-8667 44 0
8667 -8287 -44 0
-8668 8289 0
-8668 47 0
8668 -8289 -47 0
-8669 8291 0
-8669 46 0
8669 -8291 -46 0
-8670 8293 0
-8670 47 0
8670 -8293 -47 0
-8671 8295 0
-8671 44 0
8671 -8295 -44 0
-8672 8297 0
-8672 40 0
8672 -8297 -40 0
-8673 8299 0
-8673 92 0
8673 -8299 -92 0
-8674 8301 0
-8674 90 0
8674 -8301 -90 0
-8675 8303 0
-8675 95 0
8675 -8303 -95 0
-8676 8305 0
-8676 87 0
8676 -8305 -87 0
-8677 8307 0
-8677 140 0
8677 -8307 -140 0
-8678 8309 0
-8678 138 0
8678 -8309 -138 0
-8679 8311 0
-8679 143 0
8679 -8311 -143 0
-8680 8313 0
-8680 135 0
8680 -8313 -135 0
-8681 8315 0
-8681 188 0
8681 -8315 -188 0
-8682 8317 0
-8682 191 0
8682 -8317 -191 0
-8683 8319 0
-8683 190 0
8683 -8319 -190 0
-8684 8667 8668 0
-8684 -8667 -8668 0
8684 -8667 8668 0
8684 8667 -8668 0
-8685 8684 8669 0
-8685 -8684 -8669 0
8685 -8684 8669 0
8685 8684 -8669 0
-8686 8685 8670 0
-8686 -8685 -8670 0
8686 -8685 8670 0
8686 8685 -8670 0
-8687 8686 8671 0
-8687 -8686 -8671 0
8687 -8686 8671 0
8687 8686 -8671 0
-8688 8687 8672 0
-8688 -8687 -8672 0
8688 -8687 8672 0
8688 8687 -8672 0
-8689 8688 8673 0
-8689 -8688 -8673 0
8689 -8688 8673 0
8689 8688 -8673 0
-8690 8689 8674 0
-8690 -8689 -8674 0
8690 -8689 8674 0
8690 8689 -8674 0
-8691 8690 8675 0
-8691 -8690 -8675 0
8691 -8690 8675 0
8691 8690 -8675 0
-8692 8691 8676 0
-8692 -8691 -8676 0
8692 -8691 8676 0
8692 8691 -8676 0
-8693 8692 8677 0
-8693 -8692 -8677 0
8693 -8692 8677 0
8693 8692 -8677 0
-8694 8693 8678 0
-8694 -8693 -8678 0
8694 -8693 8678 0
8694 8693 -8678 0
-8695 8694 8679 0
-8695 -8694 -8679 0
8695 -8694 8679 0
8695 8694 -8679 0
-8696 8695 8680 0
-8696 -8695 -8680 0
8696 -8695 8680 0
8696 8695 -8680 0
-8697 8696 8681 0
-8697 -8696 -8681 0
8697 -8696 8681 0
8697 8696 -8681 0
-8698 8697 8682 0
-8698 -8697 -8682 0
8698 -8697 8682 0
8698 8697 -8682 0
-8699 8698 8683 0
-8699 -8698 -8683 0
8699 -8698 8683 0
8699 8698 -8683 0
-8699 0
-8700 8287 0
-8700 45 0
8700 -8287 -45 0
-8701 8289 0
-8701 41 0
8701 -8289 -41 0
-8702 8291 0
-8702 37 0
8702 -8291 -37 0
-8703 8293 0
-8703 36 0
8703 -8293 -36 0
-8704 8295 0
-8704 35 0
8704 -8295 -35 0
-8705 8297 0
-8705 34 0
8705 -8297 -34 0
-8706 8299 0
-8706 93 0
8706 -8299 -93 0
-8707 8301 0
-8707 85 0
8707 -8301 -85 0
-8708 8303 0
-8708 84 0
8708 -8303 -84 0
-8709 8305 0
-8709 82 0
8709 -8305 -82 0
-8710 8307 0
-8710 141 0
8710 -8307 -141 0
-8711 8309 0
-8711 133 0
8711 -8309 -133 0
-8712 8311 0
-8712 132 0
8712 -8311 -132 0
-8713 8313 0
-8713 130 0
8713 -8313 -130 0
-8714 8315 0
-8714 189 0
8714 -8315 -189 0
-8715 8317 0
-8715 185 0
8715 -8317 -185 0
-8716 8319 0
-8716 181 0
8716 -8319 -181 0
-8717 8700 8701 0
-8717 -8700 -8701 0
8717 -8700 8701 0
8717 8700 -8701 0
-8718 8717 8702 0
-8718 -8717 -8702 0
8718 -8717 8702 0
8718 8717 -8702 0
-8719 8718 8703 0
-8719 -8718 -8703 0
8719 -8718 8703 0
8719 8718 -8703 0
-8720 8719 8704 0
-8720 -8719 -8704 0
8720 -8719 8704 0
8720 8719 -8704 0
-8721 8720 8705 0
-8721 -8720 -8705 0
8721 -8720 8705 0
8721 8720 -8705 0
-8722 8721 8706 0
-8722 -8721 -8706 0
8722 -8721 8706 0
8722 8721 -8706 0
-8723 8722 8707 0
-8723 -8722 -8707 0
8723 -8722 8707 0
8723 8722 -8707 0
-8724 8723 8708 0
-8724 -8723 -8708 0
8724 -8723 8708 0
8724 8723 -8708 0
-8725 8724 8709 0
-8725 -8724 -8709 0
8725 -8724 8709 0
8725 8724 -8709 0
-8726 8725 8710 0
-8726 -8725 -8710 0
8726 -8725 8710 0
8726 8725 -8710 0
-8727 8726 8711 0
-8727 -8726 -8711 0
8727 -8726 8711 0
8727 8726 -8711 0
-8728 8727 8712 0
-8728 -8727 -8712 0
8728 -8727 8712 0
8728 8727 -8712 0
-8729 8728 8713 0
-8729 -8728 -8713 0
8729 -8728 8713 0
8729 8728 -8713 0
-8730 8729 8714 0
-8730 -8729 -8714 0
8730 -8729 8714 0
8730 8729 -8714 0
-8731 8730 8715 0
-8731 -8730 -8715 0
8731 -8730 8715 0
8731 8730 -8715 0
-8732 8731 8716 0
-8732 -8731 -8716 0
8732 -8731 8716 0
8732 8731 -8716 0
-8732 0
-8733 8287 0
-8733 46 0
8733 -8287 -46 0
-8734 8289 0
-8734 42 0
8734 -8289 -42 0
-8735 8291 0
-8735 39 0
8735 -8291 -39 0
-8736 8293 0
-8736 40 0
8736 -8293 -40 0
-8737 8295 0
-8737 39 0
8737 -8295 -39 0
-8738 8297 0
-8738 42 0
8738 -8297 -42 0
-8739 8299 0
-8739 94 0
8739 -8299 -94 0
-8740 8301 0
-8740 88 0
8740 -8301 -88 0
-8741 8303 0
-8741 88 0
8741 -8303 -88 0
-8742 8305 0
-8742 94 0
8742 -8305 -94 0
-8743 8307 0
-8743 142 0
8743 -8307 -142 0
-8744 8309 0
-8744 136 0
8744 -8309 -136 0
-8745 8311 0
-8745 136 0
8745 -8311 -136 0
-8746 8313 0
-8746 142 0
8746 -8313 -142 0
-8747 8315 0
-8747 190 0
8747 -8315 -190 0
-8748 8317 0
-8748 186 0
8748 -8317 -186 0
-8749 8319 0
-8749 183 0
8749 -8319 -183 0
-8750 8733 8734 0
-8750 -8733 -8734 0
8750 -8733 8734 0
8750 8733 -8734 0
-8751 8750 8735 0
-8751 -8750 -8735 0
8751 -8750 8735 0
8751 8750 -8735 0
-8752 8751 8736 0
-8752 -8751 -8736 0
8752 -8751 8736 0
8752 8751 -8736 0
-8753 8752 8737 0
-8753 -8752 -8737 0
8753 -8752 8737 0
8753 8752 -8737 0
-8754 8753 8738 0
-8754 -8753 -8738 0
8754 -8753 8738 0
8754 8753 -8738 0
-8755 8754 8739 0
-8755 -8754 -8739 0
8755 -8754 8739 0
8755 8754 -8739 0
-8756 8755 8740 0
-8756 -8755 -8740 0
8756 -8755 8740 0
8756 8755 -8740 0
-8757 8756 8741 0
-8757 -8756 -8741 0
8757 -8756 8741 0
8757 8756 -8741 0
-8758 8757 8742 0
-8758 -8757 -8742 0
8758 -8757 8742 0
8758 8757 -8742 0
-8759 8758 8743 0
-8759 -8758 -8743 0
8759 -8758 8743 0
8759 8758 -8743 0
-8760 8759 8744 0
-8760 -8759 -8744 0
8760 -8759 8744 0
8760 8759 -8744 0
-8761 8760 8745 0
-8761 -8760 -8745 0
8761 -8760 8745 0
8761 8760 -8745 0
-8762 8761 8746 0
-8762 -8761 -8746 0
8762 -8761 8746 0
8762 8761 -8746 0
-8763 8762 8747 0
-8763 -8762 -8747 0
8763 -8762 8747 0
8763 8762 -8747 0
-8764 8763 8748 0
-8764 -8763 -8748 0
8764 -8763 8748 0
8764 8763 -8748 0
-8765 8764 8749 0
-8765 -8764 -8749 0
8765 -8764 8749 0
8765 8764 -8749 0
-8765 0
-8766 8287 0
-8766 47 0
8766 -8287 -47 0
-8767 8289 0
-8767 44 0
8767 -8289 -44 0
-8768 8291 0
-8768 40 0
8768 -8291 -40 0
-8769 8293 0
-8769 44 0
8769 -8293 -44 0
-8770 8295 0
-8770 47 0
8770 -8295 -47 0
-8771 8297 0
-8771 46 0
8771 -8297 -46 0
-8772 8299 0
-8772 95 0
8772 -8299 -95 0
-8773 8301 0
-8773 87 0
8773 -8301 -87 0
-8774 8303 0
-8774 92 0
8774 -8303 -92 0
-8775 8305 0
-8775 90 0
8775 -8305 -90 0
-8776 8307 0
-8776 143 0
8776 -8307 -143 0
-8777 8309 0
-8777 135 0
8777 -8309 -135 0
-8778 8311 0
-8778 140 0
8778 -8311 -140 0
-8779 8313 0
-8779 138 0
8779 -8313 -138 0
-8780 8315 0
-8780 191 0
8780 -8315 -191 0
-8781 8317 0
-8781 188 0
8781 -8317 -188 0
-8782 8319 0
-8782 184 0
8782 -8319 -184 0
-8783 8766 8767 0
-8783 -8766 -8767 0
8783 -8766 8767 0
8783 8766 -8767 0
-8784 8783 8768 0
-8784 -8783 -8768 0
8784 -8783 8768 0
8784 8783 -8768 0
-8785 8784 8769 0
-8785 -8784 -8769 0
8785 -8784 8769 0
8785 8784 -8769 0
-8786 8785 8770 0
-8786 -8785 -8770 0
8786 -8785 8770 0
8786 8785 -8770 0
-8787 8786 8771 0
-8787 -8786 -8771 0
8787 -8786 8771 0
8787 8786 -8771 0
-8788 8787 8772 0
-8788 -8787 -8772 0
8788 -8787 8772 0
8788 8787 -8772 0
-8789 8788 8773 0
-8789 -8788 -8773 0
8789 -8788 8773 0
8789 8788 -8773 0
-8790 8789 8774 0
-8790 -8789 -8774 0
8790 -8789 8774 0
8790 8789 -8774 0
-8791 8790 8775 0
-8791 -8790 -8775 0
8791 -8790 8775 0
8791 8790 -8775 0
-8792 8791 8776 0
-8792 -8791 -8776 0
8792 -8791 8776 0
8792 8791 -8776 0
-8793 8792 8777 0
-8793 -8792 -8777 0
8793 -8792 8777 0
8793 8792 -8777 0
-8794 8793 8778 0
-8794 -8793 -8778 0
8794 -8793 8778 0
8794 8793 -8778 0
-8795 8794 8779 0
-8795 -8794 -8779 0
8795 -8794 8779 0
8795 8794 -8779 0
-8796 8795 8780 0
-8796 -8795 -8780 0
8796 -8795 8780 0
8796 8795 -8780 0
-8797 8796 8781 0
-8797 -8796 -8781 0
8797 -8796 8781 0
8797 8796 -8781 0
-8798 8797 8782 0
-8798 -8797 -8782 0
8798 -8797 8782 0
8798 8797 -8782 0
-8798 0
-8799 8287 0
-8799 48 0
8799 -8287 -48 0
-8800 8289 0
-8800 43 0
8800 -8289 -43 0
-8801 8291 0
-8801 38 0
8801 -8291 -38 0
-8802 8293 0
-8802 48 0
8802 -8293 -48 0
-8803 8295 0
-8803 43 0
8803 -8295 -43 0
-8804 8297 0
-8804 38 0
8804 -8297 -38 0
-8805 8299 0
-8805 96 0
8805 -8299 -96 0
-8806 8301 0
-8806 86 0
8806 -8301 -86 0
-8807 8303 0
-8807 96 0
8807 -8303 -96 0
-8808 8305 0
-8808 86 0
8808 -8305 -86 0
-8809 8307 0
-8809 144 0
8809 -8307 -144 0
-8810 8309 0
-8810 134 0
8810 -8309 -134 0
-8811 8311 0
-8811 144 0
8811 -8311 -144 0
-8812 8313 0
-8812 134 0
8812 -8313 -134 0
-8813 8315 0
-8813 192 0
8813 -8315 -192 0
-8814 8317 0
-8814 187 0
8814 -8317 -187 0
-8815 8319 0
-8815 182 0
8815 -8319 -182 0
-8816 8799 8800 0
-8816 -8799 -8800 0
8816 -8799 8800 0
8816 8799 -8800 0
-8817 8816 8801 0
-8817 -8816 -8801 0
8817 -8816 8801 0
8817 8816 -8801 0
-8818 8817 8802 0
-8818 -8817 -8802 0
8818 -8817 8802 0
8818 8817 -8802 0
-8819 8818 8803 0
-8819 -8818 -8803 0
8819 -8818 8803 0
8819 8818 -8803 0
-8820 8819 8804 0
-8820 -8819 -8804 0
8820 -8819 8804 0
8820 8819 -8804 0
-8821 8820 8805 0
-8821 -8820 -8805 0
8821 -8820 8805 0
8821 8820 -8805 0
-8822 8821 8806 0
-8822 -8821 -8806 0
8822 -8821 8806 0
8822 8821 -8806 0
-8823 8822 8807 0
-8823 -8822 -8807 0
8823 -8822 8807 0
8823 8822 -8807 0
-8824 8823 8808 0
-8824 -8823 -8808 0
8824 -8823 8808 0
8824 8823 -8808 0
-8825 8824 8809 0
-8825 -8824 -8809 0
8825 -8824 8809 0
8825 8824 -8809 0
-8826 8825 8810 0
-8826 -8825 -8810 0
8826 -8825 8810 0
8826 8825 -8810 0
-8827 8826 8811 0
-8827 -8826 -8811 0
8827 -8826 8811 0
8827 8826 -8811 0
-8828 8827 8812 0
-8828 -8827 -8812 0
8828 -8827 8812 0
8828 8827 -8812 0
-8829 8828 8813 0
-8829 -8828 -8813 0
8829 -8828 8813 0
8829 8828 -8813 0
-8830 8829 8814 0
-8830 -8829 -8814 0
8830 -8829 8814 0
8830 8829 -8814 0
-8831 8830 8815 0
-8831 -8830 -8815 0
8831 -8830 8815 0
8831 8830 -8815 0
-8831 0
-8832 5 0
-8832 27 0
8832 -5 -27 0
-8833 8832 0
-8833 33 0
8833 -8832 -33 0
-8834 6 0
-8834 28 0
8834 -6 -28 0
-8835 8834 0
-8835 33 0
8835 -8834 -33 0
-8836 10 0
-8836 20 0
8836 -10 -20 0
-8837 8836 0
-8837 33 0
8837 -8836 -33 0
-8838 18 0
-8838 11 0
8838 -18 -11 0
-8839 8838 0
-8839 33 0
8839 -8838 -33 0
-8840 22 0
-8840 15 0
8840 -22 -15 0
-8841 8840 0
-8841 33 0
8841 -8840 -33 0
-8842 23 0
-8842 13 0
8842 -23 -13 0
-8843 8842 0
-8843 33 0
8843 -8842 -33 0
-8844 53 0
-8844 75 0
8844 -53 -75 0
-8845 8844 0
-8845 81 0
8845 -8844 -81 0
-8846 61 0
-8846 71 0
8846 -61 -71 0
-8847 8846 0
-8847 81 0
8847 -8846 -81 0
-8848 66 0
-8848 59 0
8848 -66 -59 0
-8849 8848 0
-8849 81 0
8849 -8848 -81 0
-8850 68 0
-8850 58 0
8850 -68 -58 0
-8851 8850 0
-8851 81 0
8851 -8850 -81 0
-8852 101 0
-8852 123 0
8852 -101 -123 0
-8853 8852 0
-8853 129 0
8853 -8852 -129 0
-8854 109 0
-8854 119 0
8854 -109 -119 0
-8855 8854 0
-8855 129 0
8855 -8854 -129 0
-8856 114 0
-8856 107 0
8856 -114 -107 0
-8857 8856 0
-8857 129 0
8857 -8856 -129 0
-8858 116 0
-8858 106 0
8858 -116 -106 0
-8859 8858 0
-8859 129 0
8859 -8858 -129 0
-8860 149 0
-8860 171 0
8860 -149 -171 0
-8861 8860 0
-8861 177 0
8861 -8860 -177 0
-8862 150 0
-8862 172 0
8862 -150 -172 0
-8863 8862 0
-8863 177 0
8863 -8862 -177 0
-8864 154 0
-8864 164 0
8864 -154 -164 0
-8865 8864 0
-8865 177 0
8865 -8864 -177 0
-8866 8833 8835 0
-8866 -8833 -8835 0
8866 -8833 8835 0
8866 8833 -8835 0
-8867 8866 8837 0
-8867 -8866 -8837 0
8867 -8866 8837 0
8867 8866 -8837 0
-8868 8867 8839 0
-8868 -8867 -8839 0
8868 -8867 8839 0
8868 8867 -8839 0
-8869 8868 8841 0
-8869 -8868 -8841 0
8869 -8868 8841 0
8869 8868 -8841 0
-8870 8869 8843 0
-8870 -8869 -8843 0
8870 -8869 8843 0
8870 8869 -8843 0
-8871 8870 8845 0
-8871 -8870 -8845 0
8871 -8870 8845 0
8871 8870 -8845 0
-8872 8871 8847 0
-8872 -8871 -8847 0
8872 -8871 8847 0
8872 8871 -8847 0
-8873 8872 8849 0
-8873 -8872 -8849 0
8873 -8872 8849 0
8873 8872 -8849 0
-8874 8873 8851 0
-8874 -8873 -8851 0
8874 -8873 8851 0
8874 8873 -8851 0
-8875 8874 8853 0
-8875 -8874 -8853 0
8875 -8874 8853 0
8875 8874 -8853 0
-8876 8875 8855 0
-8876 -8875 -8855 0
8876 -8875 8855 0
8876 8875 -8855 0
-8877 8876 8857 0
-8877 -8876 -8857 0
8877 -8876 8857 0
8877 8876 -8857 0
-8878 8877 8859 0
-8878 -8877 -8859 0
8878 -8877 8859 0
8878 8877 -8859 0
-8879 8878 8861 0
-8879 -8878 -8861 0
8879 -8878 8861 0
8879 8878 -8861 0
-8880 8879 8863 0
-8880 -8879 -8863 0
8880 -8879 8863 0
8880 8879 -8863 0
-8881 8880 8865 0
-8881 -8880 -8865 0
8881 -8880 8865 0
8881 8880 -8865 0
-8881 0
-8882 8832 0
-8882 34 0
8882 -8832 -34 0
-8883 8834 0
-8883 34 0
8883 -8834 -34 0
-8884 8836 0
-8884 35 0
8884 -8836 -35 0
-8885 8838 0
-8885 37 0
8885 -8838 -37 0
-8886 8840 0
-8886 37 0
8886 -8840 -37 0
-8887 8842 0
-8887 41 0
8887 -8842 -41 0
-8888 8844 0
-8888 82 0
8888 -8844 -82 0
-8889 8846 0
-8889 84 0
8889 -8846 -84 0
-8890 8848 0
-8890 85 0
8890 -8848 -85 0
-8891 8850 0
-8891 93 0
8891 -8850 -93 0
-8892 8852 0
-8892 130 0
8892 -8852 -130 0
-8893 8854 0
-8893 132 0
8893 -8854 -132 0
-8894 8856 0
-8894 133 0
8894 -8856 -133 0
-8895 8858 0
-8895 141 0
8895 -8858 -141 0
-8896 8860 0
-8896 178 0
8896 -8860 -178 0
-8897 8862 0
-8897 178 0
8897 -8862 -178 0
-8898 8864 0
-8898 179 0
8898 -8864 -179 0
-8899 8882 8883 0
-8899 -8882 -8883 0
8899 -8882 8883 0
8899 8882 -8883 0
-8900 8899 8884 0
-8900 -8899 -8884 0
8900 -8899 8884 0
8900 8899 -8884 0
-8901 8900 8885 0
-8901 -8900 -8885 0
8901 -8900 8885 0
8901 8900 -8885 0
-8902 8901 8886 0
-8902 -8901 -8886 0
8902 -8901 8886 0
8902 8901 -8886 0
-8903 8902 8887 0
-8903 -8902 -8887 0
8903 -8902 8887 0
8903 8902 -8887 0
-8904 8903 8888 0
-8904 -8903 -8888 0
8904 -8903 8888 0
8904 8903 -8888 0
-8905 8904 8889 0
-8905 -8904 -8889 0
8905 -8904 8889 0
8905 8904 -8889 0
-8906 8905 8890 0
-8906 -8905 -8890 0
8906 -8905 8890 0
8906 8905 -8890 0
-8907 8906 8891 0
-8907 -8906 -8891 0
8907 -8906 8891 0
8907 8906 -8891 0
-8908 8907 8892 0
-8908 -8907 -8892 0
8908 -8907 8892 0
8908 8907 -8892 0
-8909 8908 8893 0
-8909 -8908 -8893 0
8909 -8908 8893 0
8909 8908 -8893 0
-8910 8909 8894 0
-8910 -8909 -8894 0
8910 -8909 8894 0
8910 8909 -8894 0
-8911 8910 8895 0
-8911 -8910 -8895 0
8911 -8910 8895 0
8911 8910 -8895 0
-8912 8911 8896 0
-8912 -8911 -8896 0
8912 -8911 8896 0
8912 8911 -8896 0
-8913 8912 8897 0
-8913 -8912 -8897 0
8913 -8912 8897 0
8913 8912 -8897 0
-8914 8913 8898 0
-8914 -8913 -8898 0
8914 -8913 8898 0
8914 8913 -8898 0
-8914 0
-8915 8832 0
-8915 35 0
8915 -8832 -35 0
-8916 8834 0
-8916 36 0
8916 -8834 -36 0
-8917 8836 0
-8917 36 0
8917 -8836 -36 0
-8918 8838 0
-8918 41 0
8918 -8838 -41 0
-8919 8840 0
-8919 45 0
8919 -8840 -45 0
-8920 8842 0
-8920 45 0
8920 -8842 -45 0
-8921 8844 0
-8921 83 0
8921 -8844 -83 0
-8922 8846 0
-8922 83 0
8922 -8846 -83 0
-8923 8848 0
-8923 89 0
8923 -8848 -89 0
-8924 8850 0
-8924 89 0
8924 -8850 -89 0
-8925 8852 0
-8925 131 0
8925 -8852 -131 0
-8926 8854 0
-8926 131 0
8926 -8854 -131 0
-8927 8856 0
-8927 137 0
8927 -8856 -137 0
-8928 8858 0
-8928 137 0
8928 -8858 -137 0
-8929 8860 0
-8929 179 0
8929 -8860 -179 0
-8930 8862 0
-8930 180 0
8930 -8862 -180 0
-8931 8864 0
-8931 180 0
8931 -8864 -180 0
-8932 8915 8916 0
-8932 -8915 -8916 0
8932 -8915 8916 0
8932 8915 -8916 0
-8933 8932 8917 0
-8933 -8932 -8917 0
8933 -8932 8917 0
8933 8932 -8917 0
-8934 8933 8918 0
-8934 -8933 -8918 0
8934 -8933 8918 0
8934 8933 -8918 0
-8935 8934 8919 0
-8935 -8934 -8919 0
8935 -8934 8919 0
8935 8934 -8919 0
-8936 8935 8920 0
-8936 -8935 -8920 0
8936 -8935 8920 0
8936 8935 -8920 0
-8937 8936 8921 0
-8937 -8936 -8921 0
8937 -8936 8921 0
8937 8936 -8921 0
-8938 8937 8922 0
-8938 -8937 -8922 0
8938 -8937 8922 0
8938 8937 -8922 0
-8939 8938 8923 0
-8939 -8938 -8923 0
8939 -8938 8923 0
8939 8938 -8923 0
-8940 8939 8924 0
-8940 -8939 -8924 0
8940 -8939 8924 0
8940 8939 -8924 0
-8941 8940 8925 0
-8941 -8940 -8925 0
8941 -8940 8925 0
8941 8940 -8925 0
-8942 8941 8926 0
-8942 -8941 -8926 0
8942 -8941 8926 0
8942 8941 -8926 0
-8943 8942 8927 0
-8943 -8942 -8927 0
8943 -8942 8927 0
8943 8942 -8927 0
-8944 8943 8928 0
-8944 -8943 -8928 0
8944 -8943 8928 0
8944 8943 -8928 0
-8945 8944 8929 0
-8945 -8944 -8929 0
8945 -8944 8929 0
8945 8944 -8929 0
-8946 8945 8930 0
-8946 -8945 -8930 0
8946 -8945 8930 0
8946 8945 -8930 0
-8947 8946 8931 0
-8947 -8946 -8931 0
8947 -8946 8931 0
8947 8946 -8931 0
-8947 0
-8948 8832 0
-8948 36 0
8948 -8832 -36 0
-8949 8834 0
-8949 35 0
8949 -8834 -35 0
-8950 8836 0
-8950 34 0
8950 -8836 -34 0
-8951 8838 0
-8951 45 0
8951 -8838 -45 0
-8952 8840 0
-8952 41 0
8952 -8840 -41 0
-8953 8842 0
-8953 37 0
8953 -8842 -37 0
-8954 8844 0
-8954 84 0
8954 -8844 -84 0
-8955 8846 0
-8955 82 0
8955 -8846 -82 0
-8956 8848 0
-8956 93 0
8956 -8848 -93 0
-8957 8850 0
-8957 85 0
8957 -8850 -85 0
-8958 8852 0
-8958 132 0
8958 -8852 -132 0
-8959 8854 0
-8959 130 0
8959 -8854 -130 0
-8960 8856 0
-8960 141 0
8960 -8856 -141 0
-8961 8858 0
-8961 133 0
8961 -8858 -133 0
-8962 8860 0
-8962 180 0
8962 -8860 -180 0
-8963 8862 0
-8963 179 0
8963 -8862 -179 0
-8964 8864 0
-8964 178 0
8964 -8864 -178 0
-8965 8948 8949 0
-8965 -8948 -8949 0
8965 -8948 8949 0
8965 8948 -8949 0
-8966 8965 8950 0
-8966 -8965 -8950 0
8966 -8965 8950 0
8966 8965 -8950 0
-8967 8966 8951 0
-8967 -8966 -8951 0
8967 -8966 8951 0
8967 8966 -8951 0
-8968 8967 8952 0
-8968 -8967 -8952 0
8968 -8967 8952 0
8968 8967 -8952 0
-8969 8968 8953 0
-8969 -8968 -8953 0
8969 -8968 8953 0
8969 8968 -8953 0
-8970 8969 8954 0
-8970 -8969 -8954 0
8970 -8969 8954 0
8970 8969 -8954 0
-8971 8970 8955 0
-8971 -8970 -8955 0
8971 -8970 8955 0
8971 8970 -8955 0
-8972 8971 8956 0
-8972 -8971 -8956 0
8972 -8971 8956 0
8972 8971 -8956 0
-8973 8972 8957 0
-8973 -8972 -8957 0
8973 -8972 8957 0
8973 8972 -8957 0
-8974 8973 8958 0
-8974 -8973 -8958 0
8974 -8973 8958 0
8974 8973 -8958 0
-8975 8974 8959 0
-8975 -8974 -8959 0
8975 -8974 8959 0
8975 8974 -8959 0
-8976 8975 8960 0
-8976 -8975 -8960 0
8976 -8975 8960 0
8976 8975 -8960 0
-8977 8976 8961 0
-8977 -8976 -8961 0
8977 -8976 8961 0
8977 8976 -8961 0
-8978 8977 8962 0
-8978 -8977 -8962 0
8978 -8977 8962 0
8978 8977 -8962 0
-8979 8978 8963 0
-8979 -8978 -8963 0
8979 -8978 8963 0
8979 8978 -8963 0
-8980 8979 8964 0
-8980 -8979 -8964 0
8980 -8979 8964 0
8980 8979 -8964 0
-8980 0
-8981 8832 0
-8981 38 0
8981 -8832 -38 0
-8982 8834 0
-8982 38 0
8982 -8834 -38 0
-8983 8836 0
-8983 43 0
8983 -8836 -43 0
-8984 8838 0
-8984 38 0
8984 -8838 -38 0
-8985 8840 0
-8985 38 0
8985 -8840 -38 0
-8986 8842 0
-8986 43 0
8986 -8842 -43 0
-8987 8844 0
-8987 86 0
8987 -8844 -86 0
-8988 8846 0
-8988 96 0
8988 -8846 -96 0
-8989 8848 0
-8989 86 0
8989 -8848 -86 0
-8990 8850 0
-8990 96 0
8990 -8850 -96 0
-8991 8852 0
-8991 134 0
8991 -8852 -134 0
-8992 8854 0
-8992 144 0
8992 -8854 -144 0
-8993 8856 0
-8993 134 0
8993 -8856 -134 0
-8994 8858 0
-8994 144 0
8994 -8858 -144 0
-8995 8860 0
-8995 182 0
8995 -8860 -182 0
-8996 8862 0
-8996 182 0
8996 -8862 -182 0
-8997 8864 0
-8997 187 0
8997 -8864 -187 0
-8998 8981 8982 0
-8998 -8981 -8982 0
8998 -8981 8982 0
8998 8981 -8982 0
-8999 8998 8983 0
-8999 -8998 -8983 0
8999 -8998 8983 0
8999 8998 -8983 0
-9000 8999 8984 0
-9000 -8999 -8984 0
9000 -8999 8984 0
9000 8999 -8984 0
-9001 9000 8985 0
-9001 -9000 -8985 0
9001 -9000 8985 0
9001 9000 -8985 0
-9002 9001 8986 0
-9002 -9001 -8986 0
9002 -9001 8986 0
9002 9001 -8986 0
-9003 9002 8987 0
-9003 -9002 -8987 0
9003 -9002 8987 0
9003 9002 -8987 0
-9004 9003 8988 0
-9004 -9003 -8988 0
9004 -9003 8988 0
9004 9003 -8988 0
-9005 9004 8989 0
-9005 -9004 -8989 0
9005 -9004 8989 0
9005 9004 -8989 0
-9006 9005 8990 0
-9006 -9005 -8990 0
9006 -9005 8990 0
9006 9005 -8990 0
-9007 9006 8991 0
-9007 -9006 -8991 0
9007 -9006 8991 0
9007 9006 -8991 0
-9008 9007 8992 0
-9008 -9007 -8992 0
9008 -9007 8992 0
9008 9007 -8992 0
-9009 9008 8993 0
-9009 -9008 -8993 0
9009 -9008 8993 0
9009 9008 -8993 0
-9010 9009 8994 0
-9010 -9009 -8994 0
9010 -9009 8994 0
9010 9009 -8994 0
-9011 9010 8995 0
-9011 -9010 -8995 0
9011 -9010 8995 0
9011 9010 -8995 0
-9012 9011 8996 0
-9012 -9011 -8996 0
9012 -9011 8996 0
9012 9011 -8996 0
-9013 9012 8997 0
-9013 -9012 -8997 0
9013 -9012 8997 0
9013 9012 -8997 0
9013 0
-9014 8832 0
-9014 39 0
9014 -8832 -39 0
-9015 8834 0
-9015 40 0
9015 -8834 -40 0
-9016 8836 0
-9016 44 0
9016 -8836 -44 0
-9017 8838 0
-9017 42 0
9017 -8838 -42 0
-9018 8840 0
-9018 46 0
9018 -8840 -46 0
-9019 8842 0
-9019 47 0
9019 -8842 -47 0
-9020 8844 0
-9020 87 0
9020 -8844 -87 0
-9021 8846 0
-9021 95 0
9021 -8846 -95 0
-9022 8848 0
-9022 90 0
9022 -8848 -90 0
-9023 8850 0
-9023 92 0
9023 -8850 -92 0
-9024 8852 0
-9024 135 0
9024 -8852 -135 0
-9025 8854 0
-9025 143 0
9025 -8854 -143 0
-9026 8856 0
-9026 138 0
9026 -8856 -138 0
-9027 8858 0
-9027 140 0
9027 -8858 -140 0
-9028 8860 0
-9028 183 0
9028 -8860 -183 0
-9029 8862 0
-9029 184 0
9029 -8862 -184 0
-9030 8864 0
-9030 188 0
9030 -8864 -188 0
-9031 9014 9015 0
-9031 -9014 -9015 0
9031 -9014 9015 0
9031 9014 -9015 0
-9032 9031 9016 0
-9032 -9031 -9016 0
9032 -9031 9016 0
9032 9031 -9016 0
-9033 9032 9017 0
-9033 -9032 -9017 0
9033 -9032 9017 0
9033 9032 -9017 0
-9034 9033 9018 0
-9034 -9033 -9018 0
9034 -9033 9018 0
9034 9033 -9018 0
-9035 9034 9019 0
-9035 -9034 -9019 0
9035 -9034 9019 0
9035 9034 -9019 0
-9036 9035 9020 0
-9036 -9035 -9020 0
9036 -9035 9020 0
9036 9035 -9020 0
-9037 9036 9021 0
-9037 -9036 -9021 0
9037 -9036 9021 0
9037 9036 -9021 0
-9038 9037 9022 0
-9038 -9037 -9022 0
9038 -9037 9022 0
9038 9037 -9022 0
-9039 9038 9023 0
-9039 -9038 -9023 0
9039 -9038 9023 0
9039 9038 -9023 0
-9040 9039 9024 0
-9040 -9039 -9024 0
9040 -9039 9024 0
9040 9039 -9024 0
-9041 9040 9025 0
-9041 -9040 -9025 0
9041 -9040 9025 0
9041 9040 -9025 0
-9042 9041 9026 0
-9042 -9041 -9026 0
9042 -9041 9026 0
9042 9041 -9026 0
-9043 9042 9027 0
-9043 -9042 -9027 0
9043 -9042 9027 0
9043 9042 -9027 0
-9044 9043 9028 0
-9044 -9043 -9028 0
9044 -9043 9028 0
9044 9043 -9028 0
-9045 9044 9029 0
-9045 -9044 -9029 0
9045 -9044 9029 0
9045 9044 -9029 0
-9046 9045 9030 0
-9046 -9045 -9030 0
9046 -9045 9030 0
9046 9045 -9030 0
-9046 0
-9047 8832 0
-9047 40 0
9047 -8832 -40 0
-9048 8834 0
-9048 39 0
9048 -8834 -39 0
-9049 8836 0
-9049 42 0
9049 -8836 -42 0
-9050 8838 0
-9050 46 0
9050 -8838 -46 0
-9051 8840 0
-9051 42 0
9051 -8840 -42 0
-9052 8842 0
-9052 39 0
9052 -8842 -39 0
-9053 8844 0
-9053 88 0
9053 -8844 -88 0
-9054 8846 0
-9054 94 0
9054 -8846 -94 0
-9055 8848 0
-9055 94 0
9055 -8848 -94 0
-9056 8850 0
-9056 88 0
9056 -8850 -88 0
-9057 8852 0
-9057 136 0
9057 -8852 -136 0
-9058 8854 0
-9058 142 0
9058 -8854 -142 0
-9059 8856 0
-9059 142 0
9059 -8856 -142 0
-9060 8858 0
-9060 136 0
9060 -8858 -136 0
-9061 8860 0
-9061 184 0
9061 -8860 -184 0
-9062 8862 0
-9062 183 0
9062 -8862 -183 0
-9063 8864 0
-9063 186 0
9063 -8864 -186 0
-9064 9047 9048 0
-9064 -9047 -9048 0
9064 -9047 9048 0
9064 9047 -9048 0
-9065 9064 9049 0
-9065 -9064 -9049 0
9065 -9064 9049 0
9065 9064 -9049 0
-9066 9065 9050 0
-9066 -9065 -9050 0
9066 -9065 9050 0
9066 9065 -9050 0
-9067 9066 9051 0
-9067 -9066 -9051 0
9067 -9066 9051 0
9067 9066 -9051 0
-9068 9067 9052 0
-9068 -9067 -9052 0
9068 -9067 9052 0
9068 9067 -9052 0
-9069 9068 9053 0
-9069 -9068 -9053 0
9069 -9068 9053 0
9069 9068 -9053 0
-9070 9069 9054 0
-9070 -9069 -9054 0
9070 -9069 9054 0
9070 9069 -9054 0
-9071 9070 9055 0
-9071 -9070 -9055 0
9071 -9070 9055 0
9071 9070 -9055 0
-9072 9071 9056 0
-9072 -9071 -9056 0
9072 -9071 9056 0
9072 9071 -9056 0
-9073 9072 9057 0
-9073 -9072 -9057 0
9073 -9072 9057 0
9073 9072 -9057 0
-9074 9073 9058 0
-9074 -9073 -9058 0
9074 -9073 9058 0
9074 9073 -9058 0
-9075 9074 9059 0
-9075 -9074 -9059 0
9075 -9074 9059 0
9075 9074 -9059 0
-9076 9075 9060 0
-9076 -9075 -9060 0
9076 -9075 9060 0
9076 9075 -9060 0
-9077 9076 9061 0
-9077 -9076 -9061 0
9077 -9076 9061 0
9077 9076 -9061 0
-9078 9077 9062 0
-9078 -9077 -9062 0
9078 -9077 9062 0
9078 9077 -9062 0
-9079 9078 9063 0
-9079 -9078 -9063 0
9079 -9078 9063 0
9079 9078 -9063 0
-9079 0
-9080 8832 0
-9080 42 0
9080 -8832 -42 0
-9081 8834 0
-9081 46 0
9081 -8834 -46 0
-9082 8836 0
-9082 47 0
9082 -8836 -47 0
-9083 8838 0
-9083 39 0
9083 -8838 -39 0
-9084 8840 0
-9084 40 0
9084 -8840 -40 0
-9085 8842 0
-9085 44 0
9085 -8842 -44 0
-9086 8844 0
-9086 90 0
9086 -8844 -90 0
-9087 8846 0
-9087 92 0
9087 -8846 -92 0
-9088 8848 0
-9088 87 0
9088 -8848 -87 0
-9089 8850 0
-9089 95 0
9089 -8850 -95 0
-9090 8852 0
-9090 138 0
9090 -8852 -138 0
-9091 8854 0
-9091 140 0
9091 -8854 -140 0
-9092 8856 0
-9092 135 0
9092 -8856 -135 0
-9093 8858 0
-9093 143 0
9093 -8858 -143 0
-9094 8860 0
-9094 186 0
9094 -8860 -186 0
-9095 8862 0
-9095 190 0
9095 -8862 -190 0
-9096 8864 0
-9096 191 0
9096 -8864 -191 0
-9097 9080 9081 0
-9097 -9080 -9081 0
9097 -9080 9081 0
9097 9080 -9081 0
-9098 9097 9082 0
-9098 -9097 -9082 0
9098 -9097 9082 0
9098 9097 -9082 0
-9099 9098 9083 0
-9099 -9098 -9083 0
9099 -9098 9083 0
9099 9098 -9083 0
-9100 9099 9084 0
-9100 -9099 -9084 0
9100 -9099 9084 0
9100 9099 -9084 0
-9101 9100 9085 0
-9101 -9100 -9085 0
9101 -9100 9085 0
9101 9100 -9085 0
-9102 9101 9086 0
-9102 -9101 -9086 0
9102 -9101 9086 0
9102 9101 -9086 0
-9103 9102 9087 0
-9103 -9102 -9087 0
9103 -9102 9087 0
9103 9102 -9087 0
-9104 9103 9088 0
-9104 -9103 -9088 0
9104 -9103 9088 0
9104 9103 -9088 0
-9105 9104 9089 0
-9105 -9104 -9089 0
9105 -9104 9089 0
9105 9104 -9089 0
-9106 9105 9090 0
-9106 -9105 -9090 0
9106 -9105 9090 0
9106 9105 -9090 0
-9107 9106 9091 0
-9107 -9106 -9091 0
9107 -9106 9091 0
9107 9106 -9091 0
-9108 9107 9092 0
-9108 -9107 -9092 0
9108 -9107 9092 0
9108 9107 -9092 0
-9109 9108 9093 0
-9109 -9108 -9093 0
9109 -9108 9093 0
9109 9108 -9093 0
-9110 9109 9094 0
-9110 -9109 -9094 0
9110 -9109 9094 0
9110 9109 -9094 0
-9111 9110 9095 0
-9111 -9110 -9095 0
9111 -9110 9095 0
9111 9110 -9095 0
-9112 9111 9096 0
-9112 -9111 -9096 0
9112 -9111 9096 0
9112 9111 -9096 0
-9112 0
-9113 8832 0
-9113 44 0
9113 -8832 -44 0
-9114 8834 0
-9114 47 0
9114 -8834 -47 0
-9115 8836 0
-9115 46 0
9115 -8836 -46 0
-9116 8838 0
-9116 47 0
9116 -8838 -47 0
-9117 8840 0
-9117 44 0
9117 -8840 -44 0
-9118 8842 0
-9118 40 0
9118 -8842 -40 0
-9119 8844 0
-9119 92 0
9119 -8844 -92 0
-9120 8846 0
-9120 90 0
9120 -8846 -90 0
-9121 8848 0
-9121 95 0
9121 -8848 -95 0
-9122 8850 0
-9122 87 0
9122 -8850 -87 0
-9123 8852 0
-9123 140 0
9123 -8852 -140 0
-9124 8854 0
-9124 138 0
9124 -8854 -138 0
-9125 8856 0
-9125 143 0
9125 -8856 -143 0
-9126 8858 0
-9126 135 0
9126 -8858 -135 0
-9127 8860 0
-9127 188 0
9127 -8860 -188 0
-9128 8862 0
-9128 191 0
9128 -8862 -191 0
-9129 8864 0
-9129 190 0
9129 -8864 -190 0
-9130 9113 9114 0
-9130 -9113 -9114 0
9130 -9113 9114 0
9130 9113 -9114 0
-9131 9130 9115 0
-9131 -9130 -9115 0
9131 -9130 9115 0
9131 9130 -9115 0
-9132 9131 9116 0
-9132 -9131 -9116 0
9132 -9131 9116 0
9132 9131 -9116 0
-9133 9132 9117 0
-9133 -9132 -9117 0
9133 -9132 9117 0
9133 9132 -9117 0
-9134 9133 9118 0
-9134 -9133 -9118 0
9134 -9133 9118 0
9134 9133 -9118 0
-9135 9134 9119 0
-9135 -9134 -9119 0
9135 -9134 9119 0
9135 9134 -9119 0
-9136 9135 9120 0
-9136 -9135 -9120 0
9136 -9135 9120 0
9136 9135 -9120 0
-9137 9136 9121 0
-9137 -9136 -9121 0
9137 -9136 9121 0
9137 9136 -9121 0
-9138 9137 9122 0
-9138 -9137 -9122 0
9138 -9137 9122 0
9138 9137 -9122 0
-9139 9138 9123 0
-9139 -9138 -9123 0
9139 -9138 9123 0
9139 9138 -9123 0
-9140 9139 9124 0
-9140 -9139 -9124 0
9140 -9139 9124 0
9140 9139 -9124 0
-9141 9140 9125 0
-9141 -9140 -9125 0
9141 -9140 9125 0
9141 9140 -9125 0
-9142 9141 9126 0
-9142 -9141 -9126 0
9142 -9141 9126 0
9142 9141 -9126 0
-9143 9142 9127 0
-9143 -9142 -9127 0
9143 -9142 9127 0
9143 9142 -9127 0
-9144 9143 9128 0
-9144 -9143 -9128 0
9144 -9143 9128 0
9144 9143 -9128 0
-9145 9144 9129 0
-9145 -9144 -9129 0
9145 -9144 9129 0
9145 9144 -9129 0
-9145 0
-9146 8832 0
-9146 48 0
9146 -8832 -48 0
-9147 8834 0
-9147 43 0
9147 -8834 -43 0
-9148 8836 0
-9148 38 0
9148 -8836 -38 0
-9149 8838 0
-9149 48 0
9149 -8838 -48 0
-9150 8840 0
-9150 43 0
9150 -8840 -43 0
-9151 8842 0
-9151 38 0
9151 -8842 -38 0
-9152 8844 0
-9152 96 0
9152 -8844 -96 0
-9153 8846 0
-9153 86 0
9153 -8846 -86 0
-9154 8848 0
-9154 96 0
9154 -8848 -96 0
-9155 8850 0
-9155 86 0
9155 -8850 -86 0
-9156 8852 0
-9156 144 0
9156 -8852 -144 0
-9157 8854 0
-9157 134 0
9157 -8854 -134 0
-9158 8856 0
-9158 144 0
9158 -8856 -144 0
-9159 8858 0
-9159 134 0
9159 -8858 -134 0
-9160 8860 0
-9160 192 0
9160 -8860 -192 0
-9161 8862 0
-9161 187 0
9161 -8862 -187 0
-9162 8864 0
-9162 182 0
9162 -8864 -182 0
-9163 9146 9147 0
-9163 -9146 -9147 0
9163 -9146 9147 0
9163 9146 -9147 0
-9164 9163 9148 0
-9164 -9163 -9148 0
9164 -9163 9148 0
9164 9163 -9148 0
-9165 9164 9149 0
-9165 -9164 -9149 0
9165 -9164 9149 0
9165 9164 -9149 0
-9166 9165 9150 0
-9166 -9165 -9150 0
9166 -9165 9150 0
9166 9165 -9150 0
-9167 9166 9151 0
-9167 -9166 -9151 0
9167 -9166 9151 0
9167 9166 -9151 0
-9168 9167 9152 0
-9168 -9167 -9152 0
9168 -9167 9152 0
9168 9167 -9152 0
-9169 9168 9153 0
-9169 -9168 -9153 0
9169 -9168 9153 0
9169 9168 -9153 0
-9170 9169 9154 0
-9170 -9169 -9154 0
9170 -9169 9154 0
9170 9169 -9154 0
-9171 9170 9155 0
-9171 -9170 -9155 0
9171 -9170 9155 0
9171 9170 -9155 0
-9172 9171 9156 0
-9172 -9171 -9156 0
9172 -9171 9156 0
9172 9171 -9156 0
-9173 9172 9157 0
-9173 -9172 -9157 0
9173 -9172 9157 0
9173 9172 -9157 0
-9174 9173 9158 0
-9174 -9173 -9158 0
9174 -9173 9158 0
9174 9173 -9158 0
-9175 9174 9159 0
-9175 -9174 -9159 0
9175 -9174 9159 0
9175 9174 -9159 0
-9176 9175 9160 0
-9176 -9175 -9160 0
9176 -9175 9160 0
9176 9175 -9160 0
-9177 9176 9161 0
-9177 -9176 -9161 0
9177 -9176 9161 0
9177 9176 -9161 0
-9178 9177 9162 0
-9178 -9177 -9162 0
9178 -9177 9162 0
9178 9177 -9162 0
-9178 0
-9179 5 0
-9179 30 0
9179 -5 -30 0
-9180 9179 0
-9180 33 0
9180 -9179 -33 0
-9181 6 0
-9181 30 0
9181 -6 -30 0
-9182 9181 0
-9182 33 0
9182 -9181 -33 0
-9183 10 0
-9183 31 0
9183 -10 -31 0
-9184 9183 0
-9184 33 0
9184 -9183 -33 0
-9185 18 0
-9185 8 0
9185 -18 -8 0
-9186 9185 0
-9186 33 0
9186 -9185 -33 0
-9187 22 0
-9187 8 0
9187 -22 -8 0
-9188 9187 0
-9188 33 0
9188 -9187 -33 0
-9189 23 0
-9189 12 0
9189 -23 -12 0
-9190 9189 0
-9190 33 0
9190 -9189 -33 0
-9191 53 0
-9191 78 0
9191 -53 -78 0
-9192 9191 0
-9192 81 0
9192 -9191 -81 0
-9193 61 0
-9193 80 0
9193 -61 -80 0
-9194 9193 0
-9194 81 0
9194 -9193 -81 0
-9195 66 0
-9195 56 0
9195 -66 -56 0
-9196 9195 0
-9196 81 0
9196 -9195 -81 0
-9197 68 0
-9197 64 0
9197 -68 -64 0
-9198 9197 0
-9198 81 0
9198 -9197 -81 0
-9199 101 0
-9199 126 0
9199 -101 -126 0
-9200 9199 0
-9200 129 0
9200 -9199 -129 0
-9201 109 0
-9201 128 0
9201 -109 -128 0
-9202 9201 0
-9202 129 0
9202 -9201 -129 0
-9203 114 0
-9203 104 0
9203 -114 -104 0
-9204 9203 0
-9204 129 0
9204 -9203 -129 0
-9205 116 0
-9205 112 0
9205 -116 -112 0
-9206 9205 0
-9206 129 0
9206 -9205 -129 0
-9207 149 0
-9207 174 0
9207 -149 -174 0
-9208 9207 0
-9208 177 0
9208 -9207 -177 0
-9209 150 0
-9209 174 0
9209 -150 -174 0
-9210 9209 0
-9210 177 0
9210 -9209 -177 0
-9211 154 0
-9211 175 0
9211 -154 -175 0
-9212 9211 0
-9212 177 0
9212 -9211 -177 0
-9213 9180 9182 0
-9213 -9180 -9182 0
9213 -9180 9182 0
9213 9180 -9182 0
-9214 9213 9184 0
-9214 -9213 -9184 0
9214 -9213 9184 0
9214 9213 -9184 0
-9215 9214 9186 0
-9215 -9214 -9186 0
9215 -9214 9186 0
9215 9214 -9186 0
-9216 9215 9188 0
-9216 -9215 -9188 0
9216 -9215 9188 0
9216 9215 -9188 0
-9217 9216 9190 0
-9217 -9216 -9190 0
9217 -9216 9190 0
9217 9216 -9190 0
-9218 9217 9192 0
-9218 -9217 -9192 0
9218 -9217 9192 0
9218 9217 -9192 0
-9219 9218 9194 0
-9219 -9218 -9194 0
9219 -9218 9194 0
9219 9218 -9194 0
-9220 9219 9196 0
-9220 -9219 -9196 0
9220 -9219 9196 0
9220 9219 -9196 0
-9221 9220 9198 0
-9221 -9220 -9198 0
9221 -9220 9198 0
9221 9220 -9198 0
-9222 9221 9200 0
-9222 -9221 -9200 0
9222 -9221 9200 0
9222 9221 -9200 0
-9223 9222 9202 0
-9223 -9222 -9202 0
9223 -9222 9202 0
9223 9222 -9202 0
-9224 9223 9204 0
-9224 -9223 -9204 0
9224 -9223 9204 0
9224 9223 -9204 0
-9225 9224 9206 0
-9225 -9224 -9206 0
9225 -9224 9206 0
9225 9224 -9206 0
-9226 9225 9208 0
-9226 -9225 -9208 0
9226 -9225 9208 0
9226 9225 -9208 0
-9227 9226 9210 0
-9227 -9226 -9210 0
9227 -9226 9210 0
9227 9226 -9210 0
-9228 9227 9212 0
-9228 -9227 -9212 0
9228 -9227 9212 0
9228 9227 -9212 0
-9228 0
-9229 9179 0
-9229 34 0
9229 -9179 -34 0
-9230 9181 0
-9230 34 0
9230 -9181 -34 0
-9231 9183 0
-9231 35 0
9231 -9183 -35 0
-9232 9185 0
-9232 37 0
9232 -9185 -37 0
-9233 9187 0
-9233 37 0
9233 -9187 -37 0
-9234 9189 0
-9234 41 0
9234 -9189 -41 0
-9235 9191 0
-9235 82 0
9235 -9191 -82 0
-9236 9193 0
-9236 84 0
9236 -9193 -84 0
-9237 9195 0
-9237 85 0
9237 -9195 -85 0
-9238 9197 0
-9238 93 0
9238 -9197 -93 0
-9239 9199 0
-9239 130 0
9239 -9199 -130 0
-9240 9201 0
-9240 132 0
9240 -9201 -132 0
-9241 9203 0
-9241 133 0
9241 -9203 -133 0
-9242 9205 0
-9242 141 0
9242 -9205 -141 0
-9243 9207 0
-9243 178 0
9243 -9207 -178 0
-9244 9209 0
-9244 178 0
9244 -9209 -178 0
-9245 9211 0
-9245 179 0
9245 -9211 -179 0
-9246 9229 9230 0
-9246 -9229 -9230 0
9246 -9229 9230 0
9246 9229 -9230 0
-9247 9246 9231 0
-9247 -9246 -9231 0
9247 -9246 9231 0
9247 9246 -9231 0
-9248 9247 9232 0
-9248 -9247 -9232 0
9248 -9247 9232 0
9248 9247 -9232 0
-9249 9248 9233 0
-9249 -9248 -9233 0
9249 -9248 9233 0
9249 9248 -9233 0
-9250 9249 9234 0
-9250 -9249 -9234 0
9250 -9249 9234 0
9250 9249 -9234 0
-9251 9250 9235 0
-9251 -9250 -9235 0
9251 -9250 9235 0
9251 9250 -9235 0
-9252 9251 9236 0
-9252 -9251 -9236 0
9252 -9251 9236 0
9252 9251 -9236 0
-9253 9252 9237 0
-9253 -9252 -9237 0
9253 -9252 9237 0
9253 9252 -9237 0
-9254 9253 9238 0
-9254 -9253 -9238 0
9254 -9253 9238 0
9254 9253 -9238 0
-9255 9254 9239 0
-9255 -9254 -9239 0
9255 -9254 9239 0
9255 9254 -9239 0
-9256 9255 9240 0
-9256 -9255 -9240 0
9256 -9255 9240 0
9256 9255 -9240 0
-9257 9256 9241 0
-9257 -9256 -9241 0
9257 -9256 9241 0
9257 9256 -9241 0
-9258 9257 9242 0
-9258 -9257 -9242 0
9258 -9257 9242 0
9258 9257 -9242 0
-9259 9258 9243 0
-9259 -9258 -9243 0
9259 -9258 9243 0
9259 9258 -9243 0
-9260 9259 9244 0
-9260 -9259 -9244 0
9260 -9259 9244 0
9260 9259 -9244 0
-9261 9260 9245 0
-9261 -9260 -9245 0
9261 -9260 9245 0
9261 9260 -9245 0
-9261 0
-9262 9179 0
-9262 35 0
9262 -9179 -35 0
-9263 9181 0
-9263 36 0
9263 -9181 -36 0
-9264 9183 0
-9264 36 0
9264 -9183 -36 0
-9265 9185 0
-9265 41 0
9265 -9185 -41 0
-9266 9187 0
-9266 45 0
9266 -9187 -45 0
-9267 9189 0
-9267 45 0
9267 -9189 -45 0
-9268 9191 0
-9268 83 0
9268 -9191 -83 0
-9269 9193 0
-9269 83 0
9269 -9193 -83 0
-9270 9195 0
-9270 89 0
9270 -9195 -89 0
-9271 9197 0
-9271 89 0
9271 -9197 -89 0
-9272 9199 0
-9272 131 0
9272 -9199 -131 0
-9273 9201 0
-9273 131 0
9273 -9201 -131 0
-9274 9203 0
-9274 137 0
9274 -9203 -137 0
-9275 9205 0
-9275 137 0
9275 -9205 -137 0
-9276 9207 0
-9276 179 0
9276 -9207 -179 0
-9277 9209 0
-9277 180 0
9277 -9209 -180 0
-9278 9211 0
-9278 180 0
9278 -9211 -180 0
-9279 9262 9263 0
-9279 -9262 -9263 0
9279 -9262 9263 0
9279 9262 -9263 0
-9280 9279 9264 0
-9280 -9279 -9264 0
9280 -9279 9264 0
9280 9279 -9264 0
-9281 9280 9265 0
-9281 -9280 -9265 0
9281 -9280 9265 0
9281 9280 -9265 0
-9282 9281 9266 0
-9282 -9281 -9266 0
9282 -9281 9266 0
9282 9281 -9266 0
-9283 9282 9267 0
-9283 -9282 -9267 0
9283 -9282 9267 0
9283 9282 -9267 0
-9284 9283 9268 0
-9284 -9283 -9268 0
9284 -9283 9268 0
9284 9283 -9268 0
-9285 9284 9269 0
-9285 -9284 -9269 0
9285 -9284 9269 0
9285 9284 -9269 0
-9286 9285 9270 0
-9286 -9285 -9270 0
9286 -9285 9270 0
9286 9285 -9270 0
-9287 9286 9271 0
-9287 -9286 -9271 0
9287 -9286 9271 0
9287 9286 -9271 0
-9288 9287 9272 0
-9288 -9287 -9272 0
9288 -9287 9272 0
9288 9287 -9272 0
-9289 9288 9273 0
-9289 -9288 -9273 0
9289 -9288 9273 0
9289 9288 -9273 0
-9290 9289 9274 0
-9290 -9289 -9274 0
9290 -9289 9274 0
9290 9289 -9274 0
-9291 9290 9275 0
-9291 -9290 -9275 0
9291 -9290 9275 0
9291 9290 -9275 0
-9292 9291 9276 0
-9292 -9291 -9276 0
9292 -9291 9276 0
9292 9291 -9276 0
-9293 9292 9277 0
-9293 -9292 -9277 0
9293 -9292 9277 0
9293 9292 -9277 0
-9294 9293 9278 0
-9294 -9293 -9278 0
9294 -9293 9278 0
9294 9293 -9278 0
-9294 0
-9295 9179 0
-9295 36 0
9295 -9179 -36 0
-9296 9181 0
-9296 35 0
9296 -9181 -35 0
-9297 9183 0
-9297 34 0
9297 -9183 -34 0
-9298 9185 0
-9298 45 0
9298 -9185 -45 0
-9299 9187 0
-9299 41 0
9299 -9187 -41 0
-9300 9189 0
-9300 37 0
9300 -9189 -37 0
-9301 9191 0
-9301 84 0
9301 -9191 -84 0
-9302 9193 0
-9302 82 0
9302 -9193 -82 0
-9303 9195 0
-9303 93 0
9303 -9195 -93 0
-9304 9197 0
-9304 85 0
9304 -9197 -85 0
-9305 9199 0
-9305 132 0
9305 -9199 -132 0
-9306 9201 0
-9306 130 0
9306 -9201 -130 0
-9307 9203 0
-9307 141 0
9307 -9203 -141 0
-9308 9205 0
-9308 133 0
9308 -9205 -133 0
-9309 9207 0
-9309 180 0
9309 -9207 -180 0
-9310 9209 0
-9310 179 0
9310 -9209 -179 0
-9311 9211 0
-9311 178 0
9311 -9211 -178 0
-9312 9295 9296 0
-9312 -9295 -9296 0
9312 -9295 9296 0
9312 9295 -9296 0
-9313 9312 9297 0
-9313 -9312 -9297 0
9313 -9312 9297 0
9313 9312 -9297 0
-9314 9313 9298 0
-9314 -9313 -9298 0
9314 -9313 9298 0
9314 9313 -9298 0
-9315 9314 9299 0
-9315 -9314 -9299 0
9315 -9314 9299 0
9315 9314 -9299 0
-9316 9315 9300 0
-9316 -9315 -9300 0
9316 -9315 9300 0
9316 9315 -9300 0
-9317 9316 9301 0
-9317 -9316 -9301 0
9317 -9316 9301 0
9317 9316 -9301 0
-9318 9317 9302 0
-9318 -9317 -9302 0
9318 -9317 9302 0
9318 9317 -9302 0
-9319 9318 9303 0
-9319 -9318 -9303 0
9319 -9318 9303 0
9319 9318 -9303 0
-9320 9319 9304 0
-9320 -9319 -9304 0
9320 -9319 9304 0
9320 9319 -9304 0
-9321 9320 9305 0
-9321 -9320 -9305 0
9321 -9320 9305 0
9321 9320 -9305 0
-9322 9321 9306 0
-9322 -9321 -9306 0
9322 -9321 9306 0
9322 9321 -9306 0
-9323 9322 9307 0
-9323 -9322 -9307 0
9323 -9322 9307 0
9323 9322 -9307 0
-9324 9323 9308 0
-9324 -9323 -9308 0
9324 -9323 9308 0
9324 9323 -9308 0
-9325 9324 9309 0
-9325 -9324 -9309 0
9325 -9324 9309 0
9325 9324 -9309 0
-9326 9325 9310 0
-9326 -9325 -9310 0
9326 -9325 9310 0
9326 9325 -9310 0
-9327 9326 9311 0
-9327 -9326 -9311 0
9327 -9326 9311 0
9327 9326 -9311 0
-9327 0
-9328 9179 0
-9328 37 0
9328 -9179 -37 0
-9329 9181 0
-9329 37 0
9329 -9181 -37 0
-9330 9183 0
-9330 41 0
9330 -9183 -41 0
-9331 9185 0
-9331 34 0
9331 -9185 -34 0
-9332 9187 0
-9332 34 0
9332 -9187 -34 0
-9333 9189 0
-9333 35 0
9333 -9189 -35 0
-9334 9191 0
-9334 85 0
9334 -9191 -85 0
-9335 9193 0
-9335 93 0
9335 -9193 -93 0
-9336 9195 0
-9336 82 0
9336 -9195 -82 0
-9337 9197 0
-9337 84 0
9337 -9197 -84 0
-9338 9199 0
-9338 133 0
9338 -9199 -133 0
-9339 9201 0
-9339 141 0
9339 -9201 -141 0
-9340 9203 0
-9340 130 0
9340 -9203 -130 0
-9341 9205 0
-9341 132 0
9341 -9205 -132 0
-9342 9207 0
-9342 181 0
9342 -9207 -181 0
-9343 9209 0
-9343 181 0
9343 -9209 -181 0
-9344 9211 0
-9344 185 0
9344 -9211 -185 0
-9345 9328 9329 0
-9345 -9328 -9329 0
9345 -9328 9329 0
9345 9328 -9329 0
-9346 9345 9330 0
-9346 -9345 -9330 0
9346 -9345 9330 0
9346 9345 -9330 0
-9347 9346 9331 0
-9347 -9346 -9331 0
9347 -9346 9331 0
9347 9346 -9331 0
-9348 9347 9332 0
-9348 -9347 -9332 0
9348 -9347 9332 0
9348 9347 -9332 0
-9349 9348 9333 0
-9349 -9348 -9333 0
9349 -9348 9333 0
9349 9348 -9333 0
-9350 9349 9334 0
-9350 -9349 -9334 0
9350 -9349 9334 0
9350 9349 -9334 0
-9351 9350 9335 0
-9351 -9350 -9335 0
9351 -9350 9335 0
9351 9350 -9335 0
-9352 9351 9336 0
-9352 -9351 -9336 0
9352 -9351 9336 0
9352 9351 -9336 0
-9353 9352 9337 0
-9353 -9352 -9337 0
9353 -9352 9337 0
9353 9352 -9337 0
-9354 9353 9338 0
-9354 -9353 -9338 0
9354 -9353 9338 0
9354 9353 -9338 0
-9355 9354 9339 0
-9355 -9354 -9339 0
9355 -9354 9339 0
9355 9354 -9339 0
-9356 9355 9340 0
-9356 -9355 -9340 0
9356 -9355 9340 0
9356 9355 -9340 0
-9357 9356 9341 0
-9357 -9356 -9341 0
9357 -9356 9341 0
9357 9356 -9341 0
-9358 9357 9342 0
-9358 -9357 -9342 0
9358 -9357 9342 0
9358 9357 -9342 0
-9359 9358 9343 0
-9359 -9358 -9343 0
9359 -9358 9343 0
9359 9358 -9343 0
-9360 9359 9344 0
-9360 -9359 -9344 0
9360 -9359 9344 0
9360 9359 -9344 0
-9360 0
-9361 9179 0
-9361 38 0
9361 -9179 -38 0
-9362 9181 0
-9362 38 0
9362 -9181 -38 0
-9363 9183 0
-9363 43 0
9363 -9183 -43 0
-9364 9185 0
-9364 38 0
9364 -9185 -38 0
-9365 9187 0
-9365 38 0
9365 -9187 -38 0
-9366 9189 0
-9366 43 0
9366 -9189 -43 0
-9367 9191 0
-9367 86 0
9367 -9191 -86 0
-9368 9193 0
-9368 96 0
9368 -9193 -96 0
-9369 9195 0
-9369 86 0
9369 -9195 -86 0
-9370 9197 0
-9370 96 0
9370 -9197 -96 0
-9371 9199 0
-9371 134 0
9371 -9199 -134 0
-9372 9201 0
-9372 144 0
9372 -9201 -144 0
-9373 9203 0
-9373 134 0
9373 -9203 -134 0
-9374 9205 0
-9374 144 0
9374 -9205 -144 0
-9375 9207 0
-9375 182 0
9375 -9207 -182 0
-9376 9209 0
-9376 182 0
9376 -9209 -182 0
-9377 9211 0
-9377 187 0
9377 -9211 -187 0
-9378 9361 9362 0
-9378 -9361 -9362 0
9378 -9361 9362 0
9378 9361 -9362 0
-9379 9378 9363 0
-9379 -9378 -9363 0
9379 -9378 9363 0
9379 9378 -9363 0
-9380 9379 9364 0
-9380 -9379 -9364 0
9380 -9379 9364 0
9380 9379 -9364 0
-9381 9380 9365 0
-9381 -9380 -9365 0
9381 -9380 9365 0
9381 9380 -9365 0
-9382 9381 9366 0
-9382 -9381 -9366 0
9382 -9381 9366 0
9382 9381 -9366 0
-9383 9382 9367 0
-9383 -9382 -9367 0
9383 -9382 9367 0
9383 9382 -9367 0
-9384 9383 9368 0
-9384 -9383 -9368 0
9384 -9383 9368 0
9384 9383 -9368 0
-9385 9384 9369 0
-9385 -9384 -9369 0
9385 -9384 9369 0
9385 9384 -9369 0
-9386 9385 9370 0
-9386 -9385 -9370 0
9386 -9385 9370 0
9386 9385 -9370 0
-9387 9386 9371 0
-9387 -9386 -9371 0
9387 -9386 9371 0
9387 9386 -9371 0
-9388 9387 9372 0
-9388 -9387 -9372 0
9388 -9387 9372 0
9388 9387 -9372 0
-9389 9388 9373 0
-9389 -9388 -9373 0
9389 -9388 9373 0
9389 9388 -9373 0
-9390 9389 9374 0
-9390 -9389 -9374 0
9390 -9389 9374 0
9390 9389 -9374 0
-9391 9390 9375 0
-9391 -9390 -9375 0
9391 -9390 9375 0
9391 9390 -9375 0
-9392 9391 9376 0
-9392 -9391 -9376 0
9392 -9391 9376 0
9392 9391 -9376 0
-9393 9392 9377 0
-9393 -9392 -9377 0
9393 -9392 9377 0
9393 9392 -9377 0
-9393 0
-9394 9179 0
-9394 39 0
9394 -9179 -39 0
-9395 9181 0
-9395 40 0
9395 -9181 -40 0
-9396 9183 0
-9396 44 0
9396 -9183 -44 0
-9397 9185 0
-9397 42 0
9397 -9185 -42 0
-9398 9187 0
-9398 46 0
9398 -9187 -46 0
-9399 9189 0
-9399 47 0
9399 -9189 -47 0
-9400 9191 0
-9400 87 0
9400 -9191 -87 0
-9401 9193 0
-9401 95 0
9401 -9193 -95 0
-9402 9195 0
-9402 90 0
9402 -9195 -90 0
-9403 9197 0
-9403 92 0
9403 -9197 -92 0
-9404 9199 0
-9404 135 0
9404 -9199 -135 0
-9405 9201 0
-9405 143 0
9405 -9201 -143 0
-9406 9203 0
-9406 138 0
9406 -9203 -138 0
-9407 9205 0
-9407 140 0
9407 -9205 -140 0
-9408 9207 0
-9408 183 0
9408 -9207 -183 0
-9409 9209 0
-9409 184 0
9409 -9209 -184 0
-9410 9211 0
-9410 188 0
9410 -9211 -188 0
-9411 9394 9395 0
-9411 -9394 -9395 0
9411 -9394 9395 0
9411 9394 -9395 0
-9412 9411 9396 0
-9412 -9411 -9396 0
9412 -9411 9396 0
9412 9411 -9396 0
-9413 9412 9397 0
-9413 -9412 -9397 0
9413 -9412 9397 0
9413 9412 -9397 0
-9414 9413 9398 0
-9414 -9413 -9398 0
9414 -9413 9398 0
9414 9413 -9398 0
-9415 9414 9399 0
-9415 -9414 -9399 0
9415 -9414 9399 0
9415 9414 -9399 0
-9416 9415 9400 0
-9416 -9415 -9400 0
9416 -9415 9400 0
9416 9415 -9400 0
-9417 9416 9401 0
-9417 -9416 -9401 0
9417 -9416 9401 0
9417 9416 -9401 0
-9418 9417 9402 0
-9418 -9417 -9402 0
9418 -9417 9402 0
9418 9417 -9402 0
-9419 9418 9403 0
-9419 -9418 -9403 0
9419 -9418 9403 0
9419 9418 -9403 0
-9420 9419 9404 0
-9420 -9419 -9404 0
9420 -9419 9404 0
9420 9419 -9404 0
-9421 9420 9405 0
-9421 -9420 -9405 0
9421 -9420 9405 0
9421 9420 -9405 0
-9422 9421 9406 0
-9422 -9421 -9406 0
9422 -9421 9406 0
9422 9421 -9406 0
-9423 9422 9407 0
-9423 -9422 -9407 0
9423 -9422 9407 0
9423 9422 -9407 0
-9424 9423 9408 0
-9424 -9423 -9408 0
9424 -9423 9408 0
9424 9423 -9408 0
-9425 9424 9409 0
-9425 -9424 -9409 0
9425 -9424 9409 0
9425 9424 -9409 0
-9426 9425 9410 0
-9426 -9425 -9410 0
9426 -9425 9410 0
9426 9425 -9410 0
-9426 0
-9427 9179 0
-9427 40 0
9427 -9179 -40 0
-9428 9181 0
-9428 39 0
9428 -9181 -39 0
-9429 9183 0
-9429 42 0
9429 -9183 -42 0
-9430 9185 0
-9430 46 0
9430 -9185 -46 0
-9431 9187 0
-9431 42 0
9431 -9187 -42 0
-9432 9189 0
-9432 39 0
9432 -9189 -39 0
-9433 9191 0
-9433 88 0
9433 -9191 -88 0
-9434 9193 0
-9434 94 0
9434 -9193 -94 0
-9435 9195 0
-9435 94 0
9435 -9195 -94 0
-9436 9197 0
-9436 88 0
9436 -9197 -88 0
-9437 9199 0
-9437 136 0
9437 -9199 -136 0
-9438 9201 0
-9438 142 0
9438 -9201 -142 0
-9439 9203 0
-9439 142 0
9439 -9203 -142 0
-9440 9205 0
-9440 136 0
9440 -9205 -136 0
-9441 9207 0
-9441 184 0
9441 -9207 -184 0
-9442 9209 0
-9442 183 0
9442 -9209 -183 0
-9443 9211 0
-9443 186 0
9443 -9211 -186 0
-9444 9427 9428 0
-9444 -9427 -9428 0
9444 -9427 9428 0
9444 9427 -9428 0
-9445 9444 9429 0
-9445 -9444 -9429 0
9445 -9444 9429 0
9445 9444 -9429 0
-9446 9445 9430 0
-9446 -9445 -9430 0
9446 -9445 9430 0
9446 9445 -9430 0
-9447 9446 9431 0
-9447 -9446 -9431 0
9447 -9446 9431 0
9447 9446 -9431 0
-9448 9447 9432 0
-9448 -9447 -9432 0
9448 -9447 9432 0
9448 9447 -9432 0
-9449 9448 9433 0
-9449 -9448 -9433 0
9449 -9448 9433 0
9449 9448 -9433 0
-9450 9449 9434 0
-9450 -9449 -9434 0
9450 -9449 9434 0
9450 9449 -9434 0
-9451 9450 9435 0
-9451 -9450 -9435 0
9451 -9450 9435 0
9451 9450 -9435 0
-9452 9451 9436 0
-9452 -9451 -9436 0
9452 -9451 9436 0
9452 9451 -9436 0
-9453 9452 9437 0
-9453 -9452 -9437 0
9453 -9452 9437 0
9453 9452 -9437 0
-9454 9453 9438 0
-9454 -9453 -9438 0
9454 -9453 9438 0
9454 9453 -9438 0
-9455 9454 9439 0
-9455 -9454 -9439 0
9455 -9454 9439 0
9455 9454 -9439 0
-9456 9455 9440 0
-9456 -9455 -9440 0
9456 -9455 9440 0
9456 9455 -9440 0
-9457 9456 9441 0
-9457 -9456 -9441 0
9457 -9456 9441 0
9457 9456 -9441 0
-9458 9457 9442 0
-9458 -9457 -9442 0
9458 -9457 9442 0
9458 9457 -9442 0
-9459 9458 9443 0
-9459 -9458 -9443 0
9459 -9458 9443 0
9459 9458 -9443 0
-9459 0
-9460 9179 0
-9460 41 0
9460 -9179 -41 0
-9461 9181 0
-9461 45 0
9461 -9181 -45 0
-9462 9183 0
-9462 45 0
9462 -9183 -45 0
-9463 9185 0
-9463 35 0
9463 -9185 -35 0
-9464 9187 0
-9464 36 0
9464 -9187 -36 0
-9465 9189 0
-9465 36 0
9465 -9189 -36 0
-9466 9191 0
-9466 89 0
9466 -9191 -89 0
-9467 9193 0
-9467 89 0
9467 -9193 -89 0
-9468 9195 0
-9468 83 0
9468 -9195 -83 0
-9469 9197 0
-9469 83 0
9469 -9197 -83 0
-9470 9199 0
-9470 137 0
9470 -9199 -137 0
-9471 9201 0
-9471 137 0
9471 -9201 -137 0
-9472 9203 0
-9472 131 0
9472 -9203 -131 0
-9473 9205 0
-9473 131 0
9473 -9205 -131 0
-9474 9207 0
-9474 185 0
9474 -9207 -185 0
-9475 9209 0
-9475 189 0
9475 -9209 -189 0
-9476 9211 0
-9476 189 0
9476 -9211 -189 0
-9477 9460 9461 0
-9477 -9460 -9461 0
9477 -9460 9461 0
9477 9460 -9461 0
-9478 9477 9462 0
-9478 -9477 -9462 0
9478 -9477 9462 0
9478 9477 -9462 0
-9479 9478 9463 0
-9479 -9478 -9463 0
9479 -9478 9463 0
9479 9478 -9463 0
-9480 9479 9464 0
-9480 -9479 -9464 0
9480 -9479 9464 0
9480 9479 -9464 0
-9481 9480 9465 0
-9481 -9480 -9465 0
9481 -9480 9465 0
9481 9480 -9465 0
-9482 9481 9466 0
-9482 -9481 -9466 0
9482 -9481 9466 0
9482 9481 -9466 0
-9483 9482 9467 0
-9483 -9482 -9467 0
9483 -9482 9467 0
9483 9482 -9467 0
-9484 9483 9468 0
-9484 -9483 -9468 0
9484 -9483 9468 0
9484 9483 -9468 0
-9485 9484 9469 0
-9485 -9484 -9469 0
9485 -9484 9469 0
9485 9484 -9469 0
-9486 9485 9470 0
-9486 -9485 -9470 0
9486 -9485 9470 0
9486 9485 -9470 0
-9487 9486 9471 0
-9487 -9486 -9471 0
9487 -9486 9471 0
9487 9486 -9471 0
-9488 9487 9472 0
-9488 -9487 -9472 0
9488 -9487 9472 0
9488 9487 -9472 0
-9489 9488 9473 0
-9489 -9488 -9473 0
9489 -9488 9473 0
9489 9488 -9473 0
-9490 9489 9474 0
-9490 -9489 -9474 0
9490 -9489 9474 0
9490 9489 -9474 0
-9491 9490 9475 0
-9491 -9490 -9475 0
9491 -9490 9475 0
9491 9490 -9475 0
-9492 9491 9476 0
-9492 -9491 -9476 0
9492 -9491 9476 0
9492 9491 -9476 0
-9492 0
-9493 9179 0
-9493 42 0
9493 -9179 -42 0
-9494 9181 0
-9494 46 0
9494 -9181 -46 0
-9495 9183 0
-9495 47 0
9495 -9183 -47 0
-9496 9185 0
-9496 39 0
9496 -9185 -39 0
-9497 9187 0
-9497 40 0
9497 -9187 -40 0
-9498 9189 0
-9498 44 0
9498 -9189 -44 0
-9499 9191 0
-9499 90 0
9499 -9191 -90 0
-9500 9193 0
-9500 92 0
9500 -9193 -92 0
-9501 9195 0
-9501 87 0
9501 -9195 -87 0
-9502 9197 0
-9502 95 0
9502 -9197 -95 0
-9503 9199 0
-9503 138 0
9503 -9199 -138 0
-9504 9201 0
-9504 140 0
9504 -9201 -140 0
-9505 9203 0
-9505 135 0
9505 -9203 -135 0
-9506 9205 0
-9506 143 0
9506 -9205 -143 0
-9507 9207 0
-9507 186 0
9507 -9207 -186 0
-9508 9209 0
-9508 190 0
9508 -9209 -190 0
-9509 9211 0
-9509 191 0
9509 -9211 -191 0
-9510 9493 9494 0
-9510 -9493 -9494 0
9510 -9493 9494 0
9510 9493 -9494 0
-9511 9510 9495 0
-9511 -9510 -9495 0
9511 -9510 9495 0
9511 9510 -9495 0
-9512 9511 9496 0
-9512 -9511 -9496 0
9512 -9511 9496 0
9512 9511 -9496 0
-9513 9512 9497 0
-9513 -9512 -9497 0
9513 -9512 9497 0
9513 9512 -9497 0
-9514 9513 9498 0
-9514 -9513 -9498 0
9514 -9513 9498 0
9514 9513 -9498 0
-9515 9514 9499 0
-9515 -9514 -9499 0
9515 -9514 9499 0
9515 9514 -9499 0
-9516 9515 9500 0
-9516 -9515 -9500 0
9516 -9515 9500 0
9516 9515 -9500 0
-9517 9516 9501 0
-9517 -9516 -9501 0
9517 -9516 9501 0
9517 9516 -9501 0
-9518 9517 9502 0
-9518 -9517 -9502 0
9518 -9517 9502 0
9518 9517 -9502 0
-9519 9518 9503 0
-9519 -9518 -9503 0
9519 -9518 9503 0
9519 9518 -9503 0
-9520 9519 9504 0
-9520 -9519 -9504 0
9520 -9519 9504 0
9520 9519 -9504 0
-9521 9520 9505 0
-9521 -9520 -9505 0
9521 -9520 9505 0
9521 9520 -9505 0
-9522 9521 9506 0
-9522 -9521 -9506 0
9522 -9521 9506 0
9522 9521 -9506 0
-9523 9522 9507 0
-9523 -9522 -9507 0
9523 -9522 9507 0
9523 9522 -9507 0
-9524 9523 9508 0
-9524 -9523 -9508 0
9524 -9523 9508 0
9524 9523 -9508 0
-9525 9524 9509 0
-9525 -9524 -9509 0
9525 -9524 9509 0
9525 9524 -9509 0
-9525 0
-9526 9179 0
-9526 43 0
9526 -9179 -43 0
-9527 9181 0
-9527 48 0
9527 -9181 -48 0
-9528 9183 0
-9528 48 0
9528 -9183 -48 0
-9529 9185 0
-9529 43 0
9529 -9185 -43 0
-9530 9187 0
-9530 48 0
9530 -9187 -48 0
-9531 9189 0
-9531 48 0
9531 -9189 -48 0
-9532 9191 0
-9532 91 0
9532 -9191 -91 0
-9533 9193 0
-9533 91 0
9533 -9193 -91 0
-9534 9195 0
-9534 91 0
9534 -9195 -91 0
-9535 9197 0
-9535 91 0
9535 -9197 -91 0
-9536 9199 0
-9536 139 0
9536 -9199 -139 0
-9537 9201 0
-9537 139 0
9537 -9201 -139 0
-9538 9203 0
-9538 139 0
9538 -9203 -139 0
-9539 9205 0
-9539 139 0
9539 -9205 -139 0
-9540 9207 0
-9540 187 0
9540 -9207 -187 0
-9541 9209 0
-9541 192 0
9541 -9209 -192 0
-9542 9211 0
-9542 192 0
9542 -9211 -192 0
-9543 9526 9527 0
-9543 -9526 -9527 0
9543 -9526 9527 0
9543 9526 -9527 0
-9544 9543 9528 0
-9544 -9543 -9528 0
9544 -9543 9528 0
9544 9543 -9528 0
-9545 9544 9529 0
-9545 -9544 -9529 0
9545 -9544 9529 0
9545 9544 -9529 0
-9546 9545 9530 0
-9546 -9545 -9530 0
9546 -9545 9530 0
9546 9545 -9530 0
-9547 9546 9531 0
-9547 -9546 -9531 0
9547 -9546 9531 0
9547 9546 -9531 0
-9548 9547 9532 0
-9548 -9547 -9532 0
9548 -9547 9532 0
9548 9547 -9532 0
-9549 9548 9533 0
-9549 -9548 -9533 0
9549 -9548 9533 0
9549 9548 -9533 0
-9550 9549 9534 0
-9550 -9549 -9534 0
9550 -9549 9534 0
9550 9549 -9534 0
-9551 9550 9535 0
-9551 -9550 -9535 0
9551 -9550 9535 0
9551 9550 -9535 0
-9552 9551 9536 0
-9552 -9551 -9536 0
9552 -9551 9536 0
9552 9551 -9536 0
-9553 9552 9537 0
-9553 -9552 -9537 0
9553 -9552 9537 0
9553 9552 -9537 0
-9554 9553 9538 0
-9554 -9553 -9538 0
9554 -9553 9538 0
9554 9553 -9538 0
-9555 9554 9539 0
-9555 -9554 -9539 0
9555 -9554 9539 0
9555 9554 -9539 0
-9556 9555 9540 0
-9556 -9555 -9540 0
9556 -9555 9540 0
9556 9555 -9540 0
-9557 9556 9541 0
-9557 -9556 -9541 0
9557 -9556 9541 0
9557 9556 -9541 0
-9558 9557 9542 0
-9558 -9557 -9542 0
9558 -9557 9542 0
9558 9557 -9542 0
-9558 0
-9559 9179 0
-9559 44 0
9559 -9179 -44 0
-9560 9181 0
-9560 47 0
9560 -9181 -47 0
-9561 9183 0
-9561 46 0
9561 -9183 -46 0
-9562 9185 0
-9562 47 0
9562 -9185 -47 0
-9563 9187 0
-9563 44 0
9563 -9187 -44 0
-9564 9189 0
-9564 40 0
9564 -9189 -40 0
-9565 9191 0
-9565 92 0
9565 -9191 -92 0
-9566 9193 0
-9566 90 0
9566 -9193 -90 0
-9567 9195 0
-9567 95 0
9567 -9195 -95 0
-9568 9197 0
-9568 87 0
9568 -9197 -87 0
-9569 9199 0
-9569 140 0
9569 -9199 -140 0
-9570 9201 0
-9570 138 0
9570 -9201 -138 0
-9571 9203 0
-9571 143 0
9571 -9203 -143 0
-9572 9205 0
-9572 135 0
9572 -9205 -135 0
-9573 9207 0
-9573 188 0
9573 -9207 -188 0
-9574 9209 0
-9574 191 0
9574 -9209 -191 0
-9575 9211 0
-9575 190 0
9575 -9211 -190 0
-9576 9559 9560 0
-9576 -9559 -9560 0
9576 -9559 9560 0
9576 9559 -9560 0
-9577 9576 9561 0
-9577 -9576 -9561 0
9577 -9576 9561 0
9577 9576 -9561 0
-9578 9577 9562 0
-9578 -9577 -9562 0
9578 -9577 9562 0
9578 9577 -9562 0
-9579 9578 9563 0
-9579 -9578 -9563 0
9579 -9578 9563 0
9579 9578 -9563 0
-9580 9579 9564 0
-9580 -9579 -9564 0
9580 -9579 9564 0
9580 9579 -9564 0
-9581 9580 9565 0
-9581 -9580 -9565 0
9581 -9580 9565 0
9581 9580 -9565 0
-9582 9581 9566 0
-9582 -9581 -9566 0
9582 -9581 9566 0
9582 9581 -9566 0
-9583 9582 9567 0
-9583 -9582 -9567 0
9583 -9582 9567 0
9583 9582 -9567 0
-9584 9583 9568 0
-9584 -9583 -9568 0
9584 -9583 9568 0
9584 9583 -9568 0
-9585 9584 9569 0
-9585 -9584 -9569 0
9585 -9584 9569 0
9585 9584 -9569 0
-9586 9585 9570 0
-9586 -9585 -9570 0
9586 -9585 9570 0
9586 9585 -9570 0
-9587 9586 9571 0
-9587 -9586 -9571 0
9587 -9586 9571 0
9587 9586 -9571 0
-9588 9587 9572 0
-9588 -9587 -9572 0
9588 -9587 9572 0
9588 9587 -9572 0
-9589 9588 9573 0
-9589 -9588 -9573 0
9589 -9588 9573 0
9589 9588 -9573 0
-9590 9589 9574 0
-9590 -9589 -9574 0
9590 -9589 9574 0
9590 9589 -9574 0
-9591 9590 9575 0
-9591 -9590 -9575 0
9591 -9590 9575 0
9591 9590 -9575 0
-9591 0
-9592 9179 0
-9592 45 0
9592 -9179 -45 0
-9593 9181 0
-9593 41 0
9593 -9181 -41 0
-9594 9183 0
-9594 37 0
9594 -9183 -37 0
-9595 9185 0
-9595 36 0
9595 -9185 -36 0
-9596 9187 0
-9596 35 0
9596 -9187 -35 0
-9597 9189 0
-9597 34 0
9597 -9189 -34 0
-9598 9191 0
-9598 93 0
9598 -9191 -93 0
-9599 9193 0
-9599 85 0
9599 -9193 -85 0
-9600 9195 0
-9600 84 0
9600 -9195 -84 0
-9601 9197 0
-9601 82 0
9601 -9197 -82 0
-9602 9199 0
-9602 141 0
9602 -9199 -141 0
-9603 9201 0
-9603 133 0
9603 -9201 -133 0
-9604 9203 0
-9604 132 0
9604 -9203 -132 0
-9605 9205 0
-9605 130 0
9605 -9205 -130 0
-9606 9207 0
-9606 189 0
9606 -9207 -189 0
-9607 9209 0
-9607 185 0
9607 -9209 -185 0
-9608 9211 0
-9608 181 0
9608 -9211 -181 0
-9609 9592 9593 0
-9609 -9592 -9593 0
9609 -9592 9593 0
9609 9592 -9593 0
-9610 9609 9594 0
-9610 -9609 -9594 0
9610 -9609 9594 0
9610 9609 -9594 0
-9611 9610 9595 0
-9611 -9610 -9595 0
9611 -9610 9595 0
9611 9610 -9595 0
-9612 9611 9596 0
-9612 -9611 -9596 0
9612 -9611 9596 0
9612 9611 -9596 0
-9613 9612 9597 0
-9613 -9612 -9597 0
9613 -9612 9597 0
9613 9612 -9597 0
-9614 9613 9598 0
-9614 -9613 -9598 0
9614 -9613 9598 0
9614 9613 -9598 0
-9615 9614 9599 0
-9615 -9614 -9599 0
9615 -9614 9599 0
9615 9614 -9599 0
-9616 9615 9600 0
-9616 -9615 -9600 0
9616 -9615 9600 0
9616 9615 -9600 0
-9617 9616 9601 0
-9617 -9616 -9601 0
9617 -9616 9601 0
9617 9616 -9601 0
-9618 9617 9602 0
-9618 -9617 -9602 0
9618 -9617 9602 0
9618 9617 -9602 0
-9619 9618 9603 0
-9619 -9618 -9603 0
9619 -9618 9603 0
9619 9618 -9603 0
-9620 9619 9604 0
-9620 -9619 -9604 0
9620 -9619 9604 0
9620 9619 -9604 0
-9621 9620 9605 0
-9621 -9620 -9605 0
9621 -9620 9605 0
9621 9620 -9605 0
-9622 9621 9606 0
-9622 -9621 -9606 0
9622 -9621 9606 0
9622 9621 -9606 0
-9623 9622 9607 0
-9623 -9622 -9607 0
9623 -9622 9607 0
9623 9622 -9607 0
-9624 9623 9608 0
-9624 -9623 -9608 0
9624 -9623 9608 0
9624 9623 -9608 0
-9624 0
-9625 9179 0
-9625 46 0
9625 -9179 -46 0
-9626 9181 0
-9626 42 0
9626 -9181 -42 0
-9627 9183 0
-9627 39 0
9627 -9183 -39 0
-9628 9185 0
-9628 40 0
9628 -9185 -40 0
-9629 9187 0
-9629 39 0
9629 -9187 -39 0
-9630 9189 0
-9630 42 0
9630 -9189 -42 0
-9631 9191 0
-9631 94 0
9631 -9191 -94 0
-9632 9193 0
-9632 88 0
9632 -9193 -88 0
-9633 9195 0
-9633 88 0
9633 -9195 -88 0
-9634 9197 0
-9634 94 0
9634 -9197 -94 0
-9635 9199 0
-9635 142 0
9635 -9199 -142 0
-9636 9201 0
-9636 136 0
9636 -9201 -136 0
-9637 9203 0
-9637 136 0
9637 -9203 -136 0
-9638 9205 0
-9638 142 0
9638 -9205 -142 0
-9639 9207 0
-9639 190 0
9639 -9207 -190 0
-9640 9209 0
-9640 186 0
9640 -9209 -186 0
-9641 9211 0
-9641 183 0
9641 -9211 -183 0
-9642 9625 9626 0
-9642 -9625 -9626 0
9642 -9625 9626 0
9642 9625 -9626 0
-9643 9642 9627 0
-9643 -9642 -9627 0
9643 -9642 9627 0
9643 9642 -9627 0
-9644 9643 9628 0
-9644 -9643 -9628 0
9644 -9643 9628 0
9644 9643 -9628 0
-9645 9644 9629 0
-9645 -9644 -9629 0
9645 -9644 9629 0
9645 9644 -9629 0
-9646 9645 9630 0
-9646 -9645 -9630 0
9646 -9645 9630 0
9646 9645 -9630 0
-9647 9646 9631 0
-9647 -9646 -9631 0
9647 -9646 9631 0
9647 9646 -9631 0
-9648 9647 9632 0
-9648 -9647 -9632 0
9648 -9647 9632 0
9648 9647 -9632 0
-9649 9648 9633 0
-9649 -9648 -9633 0
9649 -9648 9633 0
9649 9648 -9633 0
-9650 9649 9634 0
-9650 -9649 -9634 0
9650 -9649 9634 0
9650 9649 -9634 0
-9651 9650 9635 0
-9651 -9650 -9635 0
9651 -9650 9635 0
9651 9650 -9635 0
-9652 9651 9636 0
-9652 -9651 -9636 0
9652 -9651 9636 0
9652 9651 -9636 0
-9653 9652 9637 0
-9653 -9652 -9637 0
9653 -9652 9637 0
9653 9652 -9637 0
-9654 9653 9638 0
-9654 -9653 -9638 0
9654 -9653 9638 0
9654 9653 -9638 0
-9655 9654 9639 0
-9655 -9654 -9639 0
9655 -9654 9639 0
9655 9654 -9639 0
-9656 9655 9640 0
-9656 -9655 -9640 0
9656 -9655 9640 0
9656 9655 -9640 0
-9657 9656 9641 0
-9657 -9656 -9641 0
9657 -9656 9641 0
9657 9656 -9641 0
-9657 0
-9658 9179 0
-9658 47 0
9658 -9179 -47 0
-9659 9181 0
-9659 44 0
9659 -9181 -44 0
-9660 9183 0
-9660 40 0
9660 -9183 -40 0
-9661 9185 0
-9661 44 0
9661 -9185 -44 0
-9662 9187 0
-9662 47 0
9662 -9187 -47 0
-9663 9189 0
-9663 46 0
9663 -9189 -46 0
-9664 9191 0
-9664 95 0
9664 -9191 -95 0
-9665 9193 0
-9665 87 0
9665 -9193 -87 0
-9666 9195 0
-9666 92 0
9666 -9195 -92 0
-9667 9197 0
-9667 90 0
9667 -9197 -90 0
-9668 9199 0
-9668 143 0
9668 -9199 -143 0
-9669 9201 0
-9669 135 0
9669 -9201 -135 0
-9670 9203 0
-9670 140 0
9670 -9203 -140 0
-9671 9205 0
-9671 138 0
9671 -9205 -138 0
-9672 9207 0
-9672 191 0
9672 -9207 -191 0
-9673 9209 0
-9673 188 0
9673 -9209 -188 0
-9674 9211 0
-9674 184 0
9674 -9211 -184 0
-9675 9658 9659 0
-9675 -9658 -9659 0
9675 -9658 9659 0
9675 9658 -9659 0
-9676 9675 9660 0
-9676 -9675 -9660 0
9676 -9675 9660 0
9676 9675 -9660 0
-9677 9676 9661 0
-9677 -9676 -9661 0
9677 -9676 9661 0
9677 9676 -9661 0
-9678 9677 9662 0
-9678 -9677 -9662 0
9678 -9677 9662 0
9678 9677 -9662 0
-9679 9678 9663 0
-9679 -9678 -9663 0
9679 -9678 9663 0
9679 9678 -9663 0
-9680 9679 9664 0
-9680 -9679 -9664 0
9680 -9679 9664 0
9680 9679 -9664 0
-9681 9680 9665 0
-9681 -9680 -9665 0
9681 -9680 9665 0
9681 9680 -9665 0
-9682 9681 9666 0
-9682 -9681 -9666 0
9682 -9681 9666 0
9682 9681 -9666 0
-9683 9682 9667 0
-9683 -9682 -9667 0
9683 -9682 9667 0
9683 9682 -9667 0
-9684 9683 9668 0
-9684 -9683 -9668 0
9684 -9683 9668 0
9684 9683 -9668 0
-9685 9684 9669 0
-9685 -9684 -9669 0
9685 -9684 9669 0
9685 9684 -9669 0
-9686 9685 9670 0
-9686 -9685 -9670 0
9686 -9685 9670 0
9686 9685 -9670 0
-9687 9686 9671 0
-9687 -9686 -9671 0
9687 -9686 9671 0
9687 9686 -9671 0
-9688 9687 9672 0
-9688 -9687 -9672 0
9688 -9687 9672 0
9688 9687 -9672 0
-9689 9688 9673 0
-9689 -9688 -9673 0
9689 -9688 9673 0
9689 9688 -9673 0
-9690 9689 9674 0
-9690 -9689 -9674 0
9690 -9689 9674 0
9690 9689 -9674 0
-9690 0
-9691 9179 0
-9691 48 0
9691 -9179 -48 0
-9692 9181 0
-9692 43 0
9692 -9181 -43 0
-9693 9183 0
-9693 38 0
9693 -9183 -38 0
-9694 9185 0
-9694 48 0
9694 -9185 -48 0
-9695 9187 0
-9695 43 0
9695 -9187 -43 0
-9696 9189 0
-9696 38 0
9696 -9189 -38 0
-9697 9191 0
-9697 96 0
9697 -9191 -96 0
-9698 9193 0
-9698 86 0
9698 -9193 -86 0
-9699 9195 0
-9699 96 0
9699 -9195 -96 0
-9700 9197 0
-9700 86 0
9700 -9197 -86 0
-9701 9199 0
-9701 144 0
9701 -9199 -144 0
-9702 9201 0
-9702 134 0
9702 -9201 -134 0
-9703 9203 0
-9703 144 0
9703 -9203 -144 0
-9704 9205 0
-9704 134 0
9704 -9205 -134 0
-9705 9207 0
-9705 192 0
9705 -9207 -192 0
-9706 9209 0
-9706 187 0
9706 -9209 -187 0
-9707 9211 0
-9707 182 0
9707 -9211 -182 0
-9708 9691 9692 0
-9708 -9691 -9692 0
9708 -9691 9692 0
9708 9691 -9692 0
-9709 9708 9693 0
-9709 -9708 -9693 0
9709 -9708 9693 0
9709 9708 -9693 0
-9710 9709 9694 0
-9710 -9709 -9694 0
9710 -9709 9694 0
9710 9709 -9694 0
-9711 9710 9695 0
-9711 -9710 -9695 0
9711 -9710 9695 0
9711 9710 -9695 0
-9712 9711 9696 0
-9712 -9711 -9696 0
9712 -9711 9696 0
9712 9711 -9696 0
-9713 9712 9697 0
-9713 -9712 -9697 0
9713 -9712 9697 0
9713 9712 -9697 0
-9714 9713 9698 0
-9714 -9713 -9698 0
9714 -9713 9698 0
9714 9713 -9698 0
-9715 9714 9699 0
-9715 -9714 -9699 0
9715 -9714 9699 0
9715 9714 -9699 0
-9716 9715 9700 0
-9716 -9715 -9700 0
9716 -9715 9700 0
9716 9715 -9700 0
-9717 9716 9701 0
-9717 -9716 -9701 0
9717 -9716 9701 0
9717 9716 -9701 0
-9718 9717 9702 0
-9718 -9717 -9702 0
9718 -9717 9702 0
9718 9717 -9702 0
-9719 9718 9703 0
-9719 -9718 -9703 0
9719 -9718 9703 0
9719 9718 -9703 0
-9720 9719 9704 0
-9720 -9719 -9704 0
9720 -9719 9704 0
9720 9719 -9704 0
-9721 9720 9705 0
-9721 -9720 -9705 0
9721 -9720 9705 0
9721 9720 -9705 0
-9722 9721 9706 0
-9722 -9721 -9706 0
9722 -9721 9706 0
9722 9721 -9706 0
-9723 9722 9707 0
-9723 -9722 -9707 0
9723 -9722 9707 0
9723 9722 -9707 0
-9723 0
-9724 5 0
-9724 31 0
9724 -5 -31 0
-9725 9724 0
-9725 33 0
9725 -9724 -33 0
-9726 6 0
-9726 32 0
9726 -6 -32 0
-9727 9726 0
-9727 33 0
9727 -9726 -33 0
-9728 10 0
-9728 32 0
9728 -10 -32 0
-9729 9728 0
-9729 33 0
9729 -9728 -33 0
-9730 18 0
-9730 12 0
9730 -18 -12 0
-9731 9730 0
-9731 33 0
9731 -9730 -33 0
-9732 22 0
-9732 16 0
9732 -22 -16 0
-9733 9732 0
-9733 33 0
9733 -9732 -33 0
-9734 23 0
-9734 16 0
9734 -23 -16 0
-9735 9734 0
-9735 33 0
9735 -9734 -33 0
-9736 53 0
-9736 79 0
9736 -53 -79 0
-9737 9736 0
-9737 81 0
9737 -9736 -81 0
-9738 61 0
-9738 79 0
9738 -61 -79 0
-9739 9738 0
-9739 81 0
9739 -9738 -81 0
-9740 66 0
-9740 60 0
9740 -66 -60 0
-9741 9740 0
-9741 81 0
9741 -9740 -81 0
-9742 68 0
-9742 60 0
9742 -68 -60 0
-9743 9742 0
-9743 81 0
9743 -9742 -81 0
-9744 101 0
-9744 127 0
9744 -101 -127 0
-9745 9744 0
-9745 129 0
9745 -9744 -129 0
-9746 109 0
-9746 127 0
9746 -109 -127 0
-9747 9746 0
-9747 129 0
9747 -9746 -129 0
-9748 114 0
-9748 108 0
9748 -114 -108 0
-9749 9748 0
-9749 129 0
9749 -9748 -129 0
-9750 116 0
-9750 108 0
9750 -116 -108 0
-9751 9750 0
-9751 129 0
9751 -9750 -129 0
-9752 149 0
-9752 175 0
9752 -149 -175 0
-9753 9752 0
-9753 177 0
9753 -9752 -177 0
-9754 150 0
-9754 176 0
9754 -150 -176 0
-9755 9754 0
-9755 177 0
9755 -9754 -177 0
-9756 154 0
-9756 176 0
9756 -154 -176 0
-9757 9756 0
-9757 177 0
9757 -9756 -177 0
-9758 9725 9727 0
-9758 -9725 -9727 0
9758 -9725 9727 0
9758 9725 -9727 0
-9759 9758 9729 0
-9759 -9758 -9729 0
9759 -9758 9729 0
9759 9758 -9729 0
-9760 9759 9731 0
-9760 -9759 -9731 0
9760 -9759 9731 0
9760 9759 -9731 0
-9761 9760 9733 0
-9761 -9760 -9733 0
9761 -9760 9733 0
9761 9760 -9733 0
-9762 9761 9735 0
-9762 -9761 -9735 0
9762 -9761 9735 0
9762 9761 -9735 0
-9763 9762 9737 0
-9763 -9762 -9737 0
9763 -9762 9737 0
9763 9762 -9737 0
-9764 9763 9739 0
-9764 -9763 -9739 0
9764 -9763 9739 0
9764 9763 -9739 0
-9765 9764 9741 0
-9765 -9764 -9741 0
9765 -9764 9741 0
9765 9764 -9741 0
-9766 9765 9743 0
-9766 -9765 -9743 0
9766 -9765 9743 0
9766 9765 -9743 0
-9767 9766 9745 0
-9767 -9766 -9745 0
9767 -9766 9745 0
9767 9766 -9745 0
-9768 9767 9747 0
-9768 -9767 -9747 0
9768 -9767 9747 0
9768 9767 -9747 0
-9769 9768 9749 0
-9769 -9768 -9749 0
9769 -9768 9749 0
9769 9768 -9749 0
-9770 9769 9751 0
-9770 -9769 -9751 0
9770 -9769 9751 0
9770 9769 -9751 0
-9771 9770 9753 0
-9771 -9770 -9753 0
9771 -9770 9753 0
9771 9770 -9753 0
-9772 9771 9755 0
-9772 -9771 -9755 0
9772 -9771 9755 0
9772 9771 -9755 0
-9773 9772 9757 0
-9773 -9772 -9757 0
9773 -9772 9757 0
9773 9772 -9757 0
-9773 0
-9774 9724 0
-9774 34 0
9774 -9724 -34 0
-9775 9726 0
-9775 34 0
9775 -9726 -34 0
-9776 9728 0
-9776 35 0
9776 -9728 -35 0
-9777 9730 0
-9777 37 0
9777 -9730 -37 0
-9778 9732 0
-9778 37 0
9778 -9732 -37 0
-9779 9734 0
-9779 41 0
9779 -9734 -41 0
-9780 9736 0
-9780 82 0
9780 -9736 -82 0
-9781 9738 0
-9781 84 0
9781 -9738 -84 0
-9782 9740 0
-9782 85 0
9782 -9740 -85 0
-9783 9742 0
-9783 93 0
9783 -9742 -93 0
-9784 9744 0
-9784 130 0
9784 -9744 -130 0
-9785 9746 0
-9785 132 0
9785 -9746 -132 0
-9786 9748 0
-9786 133 0
9786 -9748 -133 0
-9787 9750 0
-9787 141 0
9787 -9750 -141 0
-9788 9752 0
-9788 178 0
9788 -9752 -178 0
-9789 9754 0
-9789 178 0
9789 -9754 -178 0
-9790 9756 0
-9790 179 0
9790 -9756 -179 0
-9791 9774 9775 0
-9791 -9774 -9775 0
9791 -9774 9775 0
9791 9774 -9775 0
-9792 9791 9776 0
-9792 -9791 -9776 0
9792 -9791 9776 0
9792 9791 -9776 0
-9793 9792 9777 0
-9793 -9792 -9777 0
9793 -9792 9777 0
9793 9792 -9777 0
-9794 9793 9778 0
-9794 -9793 -9778 0
9794 -9793 9778 0
9794 9793 -9778 0
-9795 9794 9779 0
-9795 -9794 -9779 0
9795 -9794 9779 0
9795 9794 -9779 0
-9796 9795 9780 0
-9796 -9795 -9780 0
9796 -9795 9780 0
9796 9795 -9780 0
-9797 9796 9781 0
-9797 -9796 -9781 0
9797 -9796 9781 0
9797 9796 -9781 0
-9798 9797 9782 0
-9798 -9797 -9782 0
9798 -9797 9782 0
9798 9797 -9782 0
-9799 9798 9783 0
-9799 -9798 -9783 0
9799 -9798 9783 0
9799 9798 -9783 0
-9800 9799 9784 0
-9800 -9799 -9784 0
9800 -9799 9784 0
9800 9799 -9784 0
-9801 9800 9785 0
-9801 -9800 -9785 0
9801 -9800 9785 0
9801 9800 -9785 0
-9802 9801 9786 0
-9802 -9801 -9786 0
9802 -9801 9786 0
9802 9801 -9786 0
-9803 9802 9787 0
-9803 -9802 -9787 0
9803 -9802 9787 0
9803 9802 -9787 0
-9804 9803 9788 0
-9804 -9803 -9788 0
9804 -9803 9788 0
9804 9803 -9788 0
-9805 9804 9789 0
-9805 -9804 -9789 0
9805 -9804 9789 0
9805 9804 -9789 0
-9806 9805 9790 0
-9806 -9805 -9790 0
9806 -9805 9790 0
9806 9805 -9790 0
-9806 0
-9807 9724 0
-9807 35 0
9807 -9724 -35 0
-9808 9726 0
-9808 36 0
9808 -9726 -36 0
-9809 9728 0
-9809 36 0
9809 -9728 -36 0
-9810 9730 0
-9810 41 0
9810 -9730 -41 0
-9811 9732 0
-9811 45 0
9811 -9732 -45 0
-9812 9734 0
-9812 45 0
9812 -9734 -45 0
-9813 9736 0
-9813 83 0
9813 -9736 -83 0
-9814 9738 0
-9814 83 0
9814 -9738 -83 0
-9815 9740 0
-9815 89 0
9815 -9740 -89 0
-9816 9742 0
-9816 89 0
9816 -9742 -89 0
-9817 9744 0
-9817 131 0
9817 -9744 -131 0
-9818 9746 0
-9818 131 0
9818 -9746 -131 0
-9819 9748 0
-9819 137 0
9819 -9748 -137 0
-9820 9750 0
-9820 137 0
9820 -9750 -137 0
-9821 9752 0
-9821 179 0
9821 -9752 -179 0
-9822 9754 0
-9822 180 0
9822 -9754 -180 0
-9823 9756 0
-9823 180 0
9823 -9756 -180 0
-9824 9807 9808 0
-9824 -9807 -9808 0
9824 -9807 9808 0
9824 9807 -9808 0
-9825 9824 9809 0
-9825 -9824 -9809 0
9825 -9824 9809 0
9825 9824 -9809 0
-9826 9825 9810 0
-9826 -9825 -9810 0
9826 -9825 9810 0
9826 9825 -9810 0
-9827 9826 9811 0
-9827 -9826 -9811 0
9827 -9826 9811 0
9827 9826 -9811 0
-9828 9827 9812 0
-9828 -9827 -9812 0
9828 -9827 9812 0
9828 9827 -9812 0
-9829 9828 9813 0
-9829 -9828 -9813 0
9829 -9828 9813 0
9829 9828 -9813 0
-9830 9829 9814 0
-9830 -9829 -9814 0
9830 -9829 9814 0
9830 9829 -9814 0
-9831 9830 9815 0
-9831 -9830 -9815 0
9831 -9830 9815 0
9831 9830 -9815 0
-9832 9831 9816 0
-9832 -9831 -9816 0
9832 -9831 9816 0
9832 9831 -9816 0
-9833 9832 9817 0
-9833 -9832 -9817 0
9833 -9832 9817 0
9833 9832 -9817 0
-9834 9833 9818 0
-9834 -9833 -9818 0
9834 -9833 9818 0
9834 9833 -9818 0
-9835 9834 9819 0
-9835 -9834 -9819 0
9835 -9834 9819 0
9835 9834 -9819 0
-9836 9835 9820 0
-9836 -9835 -9820 0
9836 -9835 9820 0
9836 9835 -9820 0
-9837 9836 9821 0
-9837 -9836 -9821 0
9837 -9836 9821 0
9837 9836 -9821 0
-9838 9837 9822 0
-9838 -9837 -9822 0
9838 -9837 9822 0
9838 9837 -9822 0
-9839 9838 9823 0
-9839 -9838 -9823 0
9839 -9838 9823 0
9839 9838 -9823 0
-9839 0
-9840 9724 0
-9840 36 0
9840 -9724 -36 0
-9841 9726 0
-9841 35 0
9841 -9726 -35 0
-9842 9728 0
-9842 34 0
9842 -9728 -34 0
-9843 9730 0
-9843 45 0
9843 -9730 -45 0
-9844 9732 0
-9844 41 0
9844 -9732 -41 0
-9845 9734 0
-9845 37 0
9845 -9734 -37 0
-9846 9736 0
-9846 84 0
9846 -9736 -84 0
-9847 9738 0
-9847 82 0
9847 -9738 -82 0
-9848 9740 0
-9848 93 0
9848 -9740 -93 0
-9849 9742 0
-9849 85 0
9849 -9742 -85 0
-9850 9744 0
-9850 132 0
9850 -9744 -132 0
-9851 9746 0
-9851 130 0
9851 -9746 -130 0
-9852 9748 0
-9852 141 0
9852 -9748 -141 0
-9853 9750 0
-9853 133 0
9853 -9750 -133 0
-9854 9752 0
-9854 180 0
9854 -9752 -180 0
-9855 9754 0
-9855 179 0
9855 -9754 -179 0
-9856 9756 0
-9856 178 0
9856 -9756 -178 0
-9857 9840 9841 0
-9857 -9840 -9841 0
9857 -9840 9841 0
9857 9840 -9841 0
-9858 9857 9842 0
-9858 -9857 -9842 0
9858 -9857 9842 0
9858 9857 -9842 0
-9859 9858 9843 0
-9859 -9858 -9843 0
9859 -9858 9843 0
9859 9858 -9843 0
-9860 9859 9844 0
-9860 -9859 -9844 0
9860 -9859 9844 0
9860 9859 -9844 0
-9861 9860 9845 0
-9861 -9860 -9845 0
9861 -9860 9845 0
9861 9860 -9845 0
-9862 9861 9846 0
-9862 -9861 -9846 0
9862 -9861 9846 0
9862 9861 -9846 0
-9863 9862 9847 0
-9863 -9862 -9847 0
9863 -9862 9847 0
9863 9862 -9847 0
-9864 9863 9848 0
-9864 -9863 -9848 0
9864 -9863 9848 0
9864 9863 -9848 0
-9865 9864 9849 0
-9865 -9864 -9849 0
9865 -9864 9849 0
9865 9864 -9849 0
-9866 9865 9850 0
-9866 -9865 -9850 0
9866 -9865 9850 0
9866 9865 -9850 0
-9867 9866 9851 0
-9867 -9866 -9851 0
9867 -9866 9851 0
9867 9866 -9851 0
-9868 9867 9852 0
-9868 -9867 -9852 0
9868 -9867 9852 0
9868 9867 -9852 0
-9869 9868 9853 0
-9869 -9868 -9853 0
9869 -9868 9853 0
9869 9868 -9853 0
-9870 9869 9854 0
-9870 -9869 -9854 0
9870 -9869 9854 0
9870 9869 -9854 0
-9871 9870 9855 0
-9871 -9870 -9855 0
9871 -9870 9855 0
9871 9870 -9855 0
-9872 9871 9856 0
-9872 -9871 -9856 0
9872 -9871 9856 0
9872 9871 -9856 0
-9872 0
-9873 9724 0
-9873 37 0
9873 -9724 -37 0
-9874 9726 0
-9874 37 0
9874 -9726 -37 0
-9875 9728 0
-9875 41 0
9875 -9728 -41 0
-9876 9730 0
-9876 34 0
9876 -9730 -34 0
-9877 9732 0
-9877 34 0
9877 -9732 -34 0
-9878 9734 0
-9878 35 0
9878 -9734 -35 0
-9879 9736 0
-9879 85 0
9879 -9736 -85 0
-9880 9738 0
-9880 93 0
9880 -9738 -93 0
-9881 9740 0
-9881 82 0
9881 -9740 -82 0
-9882 9742 0
-9882 84 0
9882 -9742 -84 0
-9883 9744 0
-9883 133 0
9883 -9744 -133 0
-9884 9746 0
-9884 141 0
9884 -9746 -141 0
-9885 9748 0
-9885 130 0
9885 -9748 -130 0
-9886 9750 0
-9886 132 0
9886 -9750 -132 0
-9887 9752 0
-9887 181 0
9887 -9752 -181 0
-9888 9754 0
-9888 181 0
9888 -9754 -181 0
-9889 9756 0
-9889 185 0
9889 -9756 -185 0
-9890 9873 9874 0
-9890 -9873 -9874 0
9890 -9873 9874 0
9890 9873 -9874 0
-9891 9890 9875 0
-9891 -9890 -9875 0
9891 -9890 9875 0
9891 9890 -9875 0
-9892 9891 9876 0
-9892 -9891 -9876 0
9892 -9891 9876 0
9892 9891 -9876 0
-9893 9892 9877 0
-9893 -9892 -9877 0
9893 -9892 9877 0
9893 9892 -9877 0
-9894 9893 9878 0
-9894 -9893 -9878 0
9894 -9893 9878 0
9894 9893 -9878 0
-9895 9894 9879 0
-9895 -9894 -9879 0
9895 -9894 9879 0
9895 9894 -9879 0
-9896 9895 9880 0
-9896 -9895 -9880 0
9896 -9895 9880 0
9896 9895 -9880 0
-9897 9896 9881 0
-9897 -9896 -9881 0
9897 -9896 9881 0
9897 9896 -9881 0
-9898 9897 9882 0
-9898 -9897 -9882 0
9898 -9897 9882 0
9898 9897 -9882 0
-9899 9898 9883 0
-9899 -9898 -9883 0
9899 -9898 9883 0
9899 9898 -9883 0
-9900 9899 9884 0
-9900 -9899 -9884 0
9900 -9899 9884 0
9900 9899 -9884 0
-9901 9900 9885 0
-9901 -9900 -9885 0
9901 -9900 9885 0
9901 9900 -9885 0
-9902 9901 9886 0
-9902 -9901 -9886 0
9902 -9901 9886 0
9902 9901 -9886 0
-9903 9902 9887 0
-9903 -9902 -9887 0
9903 -9902 9887 0
9903 9902 -9887 0
-9904 9903 9888 0
-9904 -9903 -9888 0
9904 -9903 9888 0
9904 9903 -9888 0
-9905 9904 9889 0
-9905 -9904 -9889 0
9905 -9904 9889 0
9905 9904 -9889 0
-9905 0
-9906 9724 0
-9906 38 0
9906 -9724 -38 0
-9907 9726 0
-9907 38 0
9907 -9726 -38 0
-9908 9728 0
-9908 43 0
9908 -9728 -43 0
-9909 9730 0
-9909 38 0
9909 -9730 -38 0
-9910 9732 0
-9910 38 0
9910 -9732 -38 0
-9911 9734 0
-9911 43 0
9911 -9734 -43 0
-9912 9736 0
-9912 86 0
9912 -9736 -86 0
-9913 9738 0
-9913 96 0
9913 -9738 -96 0
-9914 9740 0
-9914 86 0
9914 -9740 -86 0
-9915 9742 0
-9915 96 0
9915 -9742 -96 0
-9916 9744 0
-9916 134 0
9916 -9744 -134 0
-9917 9746 0
-9917 144 0
9917 -9746 -144 0
-9918 9748 0
-9918 134 0
9918 -9748 -134 0
-9919 9750 0
-9919 144 0
9919 -9750 -144 0
-9920 9752 0
-9920 182 0
9920 -9752 -182 0
-9921 9754 0
-9921 182 0
9921 -9754 -182 0
-9922 9756 0
-9922 187 0
9922 -9756 -187 0
-9923 9906 9907 0
-9923 -9906 -9907 0
9923 -9906 9907 0
9923 9906 -9907 0
-9924 9923 9908 0
-9924 -9923 -9908 0
9924 -9923 9908 0
9924 9923 -9908 0
-9925 9924 9909 0
-9925 -9924 -9909 0
9925 -9924 9909 0
9925 9924 -9909 0
-9926 9925 9910 0
-9926 -9925 -9910 0
9926 -9925 9910 0
9926 9925 -9910 0
-9927 9926 9911 0
-9927 -9926 -9911 0
9927 -9926 9911 0
9927 9926 -9911 0
-9928 9927 9912 0
-9928 -9927 -9912 0
9928 -9927 9912 0
9928 9927 -9912 0
-9929 9928 9913 0
-9929 -9928 -9913 0
9929 -9928 9913 0
9929 9928 -9913 0
-9930 9929 9914 0
-9930 -9929 -9914 0
9930 -9929 9914 0
9930 9929 -9914 0
-9931 9930 9915 0
-9931 -9930 -9915 0
9931 -9930 9915 0
9931 9930 -9915 0
-9932 9931 9916 0
-9932 -9931 -9916 0
9932 -9931 9916 0
9932 9931 -9916 0
-9933 9932 9917 0
-9933 -9932 -9917 0
9933 -9932 9917 0
9933 9932 -9917 0
-9934 9933 9918 0
-9934 -9933 -9918 0
9934 -9933 9918 0
9934 9933 -9918 0
-9935 9934 9919 0
-9935 -9934 -9919 0
9935 -9934 9919 0
9935 9934 -9919 0
-9936 9935 9920 0
-9936 -9935 -9920 0
9936 -9935 9920 0
9936 9935 -9920 0
-9937 9936 9921 0
-9937 -9936 -9921 0
9937 -9936 9921 0
9937 9936 -9921 0
-9938 9937 9922 0
-9938 -9937 -9922 0
9938 -9937 9922 0
9938 9937 -9922 0
-9938 0
-9939 9724 0
-9939 39 0
9939 -9724 -39 0
-9940 9726 0
-9940 40 0
9940 -9726 -40 0
-9941 9728 0
-9941 44 0
9941 -9728 -44 0
-9942 9730 0
-9942 42 0
9942 -9730 -42 0
-9943 9732 0
-9943 46 0
9943 -9732 -46 0
-9944 9734 0
-9944 47 0
9944 -9734 -47 0
-9945 9736 0
-9945 87 0
9945 -9736 -87 0
-9946 9738 0
-9946 95 0
9946 -9738 -95 0
-9947 9740 0
-9947 90 0
9947 -9740 -90 0
-9948 9742 0
-9948 92 0
9948 -9742 -92 0
-9949 9744 0
-9949 135 0
9949 -9744 -135 0
-9950 9746 0
-9950 143 0
9950 -9746 -143 0
-9951 9748 0
-9951 138 0
9951 -9748 -138 0
-9952 9750 0
-9952 140 0
9952 -9750 -140 0
-9953 9752 0
-9953 183 0
9953 -9752 -183 0
-9954 9754 0
-9954 184 0
9954 -9754 -184 0
-9955 9756 0
-9955 188 0
9955 -9756 -188 0
-9956 9939 9940 0
-9956 -9939 -9940 0
9956 -9939 9940 0
9956 9939 -9940 0
-9957 9956 9941 0
-9957 -9956 -9941 0
9957 -9956 9941 0
9957 9956 -9941 0
-9958 9957 9942 0
-9958 -9957 -9942 0
9958 -9957 9942 0
9958 9957 -9942 0
-9959 9958 9943 0
-9959 -9958 -9943 0
9959 -9958 9943 0
9959 9958 -9943 0
-9960 9959 9944 0
-9960 -9959 -9944 0
9960 -9959 9944 0
9960 9959 -9944 0
-9961 9960 9945 0
-9961 -9960 -9945 0
9961 -9960 9945 0
9961 9960 -9945 0
-9962 9961 9946 0
-9962 -9961 -9946 0
9962 -9961 9946 0
9962 9961 -9946 0
-9963 9962 9947 0
-9963 -9962 -9947 0
9963 -9962 9947 0
9963 9962 -9947 0
-9964 9963 9948 0
-9964 -9963 -9948 0
9964 -9963 9948 0
9964 9963 -9948 0
-9965 9964 9949 0
-9965 -9964 -9949 0
9965 -9964 9949 0
9965 9964 -9949 0
-9966 9965 9950 0
-9966 -9965 -9950 0
9966 -9965 9950 0
9966 9965 -9950 0
-9967 9966 9951 0
-9967 -9966 -9951 0
9967 -9966 9951 0
9967 9966 -9951 0
-9968 9967 9952 0
-9968 -9967 -9952 0
9968 -9967 9952 0
9968 9967 -9952 0
-9969 9968 9953 0
-9969 -9968 -9953 0
9969 -9968 9953 0
9969 9968 -9953 0
-9970 9969 9954 0
-9970 -9969 -9954 0
9970 -9969 9954 0
9970 9969 -9954 0
-9971 9970 9955 0
-9971 -9970 -9955 0
9971 -9970 9955 0
9971 9970 -9955 0
-9971 0
-9972 9724 0
-9972 40 0
9972 -9724 -40 0
-9973 9726 0
-9973 39 0
9973 -9726 -39 0
-9974 9728 0
-9974 42 0
9974 -9728 -42 0
-9975 9730 0
-9975 46 0
9975 -9730 -46 0
-9976 9732 0
-9976 42 0
9976 -9732 -42 0
-9977 9734 0
-9977 39 0
9977 -9734 -39 0
-9978 9736 0
-9978 88 0
9978 -9736 -88 0
-9979 9738 0
-9979 94 0
9979 -9738 -94 0
-9980 9740 0
-9980 94 0
9980 -9740 -94 0
-9981 9742 0
-9981 88 0
9981 -9742 -88 0
-9982 9744 0
-9982 136 0
9982 -9744 -136 0
-9983 9746 0
-9983 142 0
9983 -9746 -142 0
-9984 9748 0
-9984 142 0
9984 -9748 -142 0
-9985 9750 0
-9985 136 0
9985 -9750 -136 0
-9986 9752 0
-9986 184 0
9986 -9752 -184 0
-9987 9754 0
-9987 183 0
9987 -9754 -183 0
-9988 9756 0
-9988 186 0
9988 -9756 -186 0
-9989 9972 9973 0
-9989 -9972 -9973 0
9989 -9972 9973 0
9989 9972 -9973 0
-9990 9989 9974 0
-9990 -9989 -9974 0
9990 -9989 9974 0
9990 9989 -9974 0
-9991 9990 9975 0
-9991 -9990 -9975 0
9991 -9990 9975 0
9991 9990 -9975 0
-9992 9991 9976 0
-9992 -9991 -9976 0
9992 -9991 9976 0
9992 9991 -9976 0
-9993 9992 9977 0
-9993 -9992 -9977 0
9993 -9992 9977 0
9993 9992 -9977 0
-9994 9993 9978 0
-9994 -9993 -9978 0
9994 -9993 9978 0
9994 9993 -9978 0
-9995 9994 9979 0
-9995 -9994 -9979 0
9995 -9994 9979 0
9995 9994 -9979 0
-9996 9995 9980 0
-9996 -9995 -9980 0
9996 -9995 9980 0
9996 9995 -9980 0
-9997 9996 9981 0
-9997 -9996 -9981 0
9997 -9996 9981 0
9997 9996 -9981 0
-9998 9997 9982 0
-9998 -9997 -9982 0
9998 -9997 9982 0
9998 9997 -9982 0
-9999 9998 9983 0
-9999 -9998 -9983 0
9999 -9998 9983 0
9999 9998 -9983 0
-10000 9999 9984 0
-10000 -9999 -9984 0
10000 -9999 9984 0
10000 9999 -9984 0
-10001 10000 9985 0
-10001 -10000 -9985 0
10001 -10000 9985 0
10001 10000 -9985 0
-10002 10001 9986 0
-10002 -10001 -9986 0
10002 -10001 9986 0
10002 10001 -9986 0
-10003 10002 9987 0
-10003 -10002 -9987 0
10003 -10002 9987 0
10003 10002 -9987 0
-10004 10003 9988 0
-10004 -10003 -9988 0
10004 -10003 9988 0
10004 10003 -9988 0
-10004 0
-10005 9724 0
-10005 41 0
10005 -9724 -41 0
-10006 9726 0
-10006 45 0
10006 -9726 -45 0
-10007 9728 0
-10007 45 0
10007 -9728 -45 0
-10008 9730 0
-10008 35 0
10008 -9730 -35 0
-10009 9732 0
-10009 36 0
10009 -9732 -36 0
-10010 9734 0
-10010 36 0
10010 -9734 -36 0
-10011 9736 0
-10011 89 0
10011 -9736 -89 0
-10012 9738 0
-10012 89 0
10012 -9738 -89 0
-10013 9740 0
-10013 83 0
10013 -9740 -83 0
-10014 9742 0
-10014 83 0
10014 -9742 -83 0
-10015 9744 0
-10015 137 0
10015 -9744 -137 0
-10016 9746 0
-10016 137 0
10016 -9746 -137 0
-10017 9748 0
-10017 131 0
10017 -9748 -131 0
-10018 9750 0
-10018 131 0
10018 -9750 -131 0
-10019 9752 0
-10019 185 0
10019 -9752 -185 0
-10020 9754 0
-10020 189 0
10020 -9754 -189 0
-10021 9756 0
-10021 189 0
10021 -9756 -189 0
-10022 10005 10006 0
-10022 -10005 -10006 0
10022 -10005 10006 0
10022 10005 -10006 0
-10023 10022 10007 0
-10023 -10022 -10007 0
10023 -10022 10007 0
10023 10022 -10007 0
-10024 10023 10008 0
-10024 -10023 -10008 0
10024 -10023 10008 0
10024 10023 -10008 0
-10025 10024 10009 0
-10025 -10024 -10009 0
10025 -10024 10009 0
10025 10024 -10009 0
-10026 10025 10010 0
-10026 -10025 -10010 0
10026 -10025 10010 0
10026 10025 -10010 0
-10027 10026 10011 0
-10027 -10026 -10011 0
10027 -10026 10011 0
10027 10026 -10011 0
-10028 10027 10012 0
-10028 -10027 -10012 0
10028 -10027 10012 0
10028 10027 -10012 0
-10029 10028 10013 0
-10029 -10028 -10013 0
10029 -10028 10013 0
10029 10028 -10013 0
-10030 10029 10014 0
-10030 -10029 -10014 0
10030 -10029 10014 0
10030 10029 -10014 0
-10031 10030 10015 0
-10031 -10030 -10015 0
10031 -10030 10015 0
10031 10030 -10015 0
-10032 10031 10016 0
-10032 -10031 -10016 0
10032 -10031 10016 0
10032 10031 -10016 0
-10033 10032 10017 0
-10033 -10032 -10017 0
10033 -10032 10017 0
10033 10032 -10017 0
-10034 10033 10018 0
-10034 -10033 -10018 0
10034 -10033 10018 0
10034 10033 -10018 0
-10035 10034 10019 0
-10035 -10034 -10019 0
10035 -10034 10019 0
10035 10034 -10019 0
-10036 10035 10020 0
-10036 -10035 -10020 0
10036 -10035 10020 0
10036 10035 -10020 0
-10037 10036 10021 0
-10037 -10036 -10021 0
10037 -10036 10021 0
10037 10036 -10021 0
-10037 0
-10038 9724 0
-10038 42 0
10038 -9724 -42 0
-10039 9726 0
-10039 46 0
10039 -9726 -46 0
-10040 9728 0
-10040 47 0
10040 -9728 -47 0
-10041 9730 0
-10041 39 0
10041 -9730 -39 0
-10042 9732 0
-10042 40 0
10042 -9732 -40 0
-10043 9734 0
-10043 44 0
10043 -9734 -44 0
-10044 9736 0
-10044 90 0
10044 -9736 -90 0
-10045 9738 0
-10045 92 0
10045 -9738 -92 0
-10046 9740 0
-10046 87 0
10046 -9740 -87 0
-10047 9742 0
-10047 95 0
10047 -9742 -95 0
-10048 9744 0
-10048 138 0
10048 -9744 -138 0
-10049 9746 0
-10049 140 0
10049 -9746 -140 0
-10050 9748 0
-10050 135 0
10050 -9748 -135 0
-10051 9750 0
-10051 143 0
10051 -9750 -143 0
-10052 9752 0
-10052 186 0
10052 -9752 -186 0
-10053 9754 0
-10053 190 0
10053 -9754 -190 0
-10054 9756 0
-10054 191 0
10054 -9756 -191 0
-10055 10038 10039 0
-10055 -10038 -10039 0
10055 -10038 10039 0
10055 10038 -10039 0
-10056 10055 10040 0
-10056 -10055 -10040 0
10056 -10055 10040 0
10056 10055 -10040 0
-10057 10056 10041 0
-10057 -10056 -10041 0
10057 -10056 10041 0
10057 10056 -10041 0
-10058 10057 10042 0
-10058 -10057 -10042 0
10058 -10057 10042 0
10058 10057 -10042 0
-10059 10058 10043 0
-10059 -10058 -10043 0
10059 -10058 10043 0
10059 10058 -10043 0
-10060 10059 10044 0
-10060 -10059 -10044 0
10060 -10059 10044 0
10060 10059 -10044 0
-10061 10060 10045 0
-10061 -10060 -10045 0
10061 -10060 10045 0
10061 10060 -10045 0
-10062 10061 10046 0
-10062 -10061 -10046 0
10062 -10061 10046 0
10062 10061 -10046 0
-10063 10062 10047 0
-10063 -10062 -10047 0
10063 -10062 10047 0
10063 10062 -10047 0
-10064 10063 10048 0
-10064 -10063 -10048 0
10064 -10063 10048 0
10064 10063 -10048 0
-10065 10064 10049 0
-10065 -10064 -10049 0
10065 -10064 10049 0
10065 10064 -10049 0
-10066 10065 10050 0
-10066 -10065 -10050 0
10066 -10065 10050 0
10066 10065 -10050 0
-10067 10066 10051 0
-10067 -10066 -10051 0
10067 -10066 10051 0
10067 10066 -10051 0
-10068 10067 10052 0
-10068 -10067 -10052 0
10068 -10067 10052 0
10068 10067 -10052 0
-10069 10068 10053 0
-10069 -10068 -10053 0
10069 -10068 10053 0
10069 10068 -10053 0
-10070 10069 10054 0
-10070 -10069 -10054 0
10070 -10069 10054 0
10070 10069 -10054 0
-10070 0
-10071 9724 0
-10071 43 0
10071 -9724 -43 0
-10072 9726 0
-10072 48 0
10072 -9726 -48 0
-10073 9728 0
-10073 48 0
10073 -9728 -48 0
-10074 9730 0
-10074 43 0
10074 -9730 -43 0
-10075 9732 0
-10075 48 0
10075 -9732 -48 0
-10076 9734 0
-10076 48 0
10076 -9734 -48 0
-10077 9736 0
-10077 91 0
10077 -9736 -91 0
-10078 9738 0
-10078 91 0
10078 -9738 -91 0
-10079 9740 0
-10079 91 0
10079 -9740 -91 0
-10080 9742 0
-10080 91 0
10080 -9742 -91 0
-10081 9744 0
-10081 139 0
10081 -9744 -139 0
-10082 9746 0
-10082 139 0
10082 -9746 -139 0
-10083 9748 0
-10083 139 0
10083 -9748 -139 0
-10084 9750 0
-10084 139 0
10084 -9750 -139 0
-10085 9752 0
-10085 187 0
10085 -9752 -187 0
-10086 9754 0
-10086 192 0
10086 -9754 -192 0
-10087 9756 0
-10087 192 0
10087 -9756 -192 0
-10088 10071 10072 0
-10088 -10071 -10072 0
10088 -10071 10072 0
10088 10071 -10072 0
-10089 10088 10073 0
-10089 -10088 -10073 0
10089 -10088 10073 0
10089 10088 -10073 0
-10090 10089 10074 0
-10090 -10089 -10074 0
10090 -10089 10074 0
10090 10089 -10074 0
-10091 10090 10075 0
-10091 -10090 -10075 0
10091 -10090 10075 0
10091 10090 -10075 0
-10092 10091 10076 0
-10092 -10091 -10076 0
10092 -10091 10076 0
10092 10091 -10076 0
-10093 10092 10077 0
-10093 -10092 -10077 0
10093 -10092 10077 0
10093 10092 -10077 0
-10094 10093 10078 0
-10094 -10093 -10078 0
10094 -10093 10078 0
10094 10093 -10078 0
-10095 10094 10079 0
-10095 -10094 -10079 0
10095 -10094 10079 0
10095 10094 -10079 0
-10096 10095 10080 0
-10096 -10095 -10080 0
10096 -10095 10080 0
10096 10095 -10080 0
-10097 10096 10081 0
-10097 -10096 -10081 0
10097 -10096 10081 0
10097 10096 -10081 0
-10098 10097 10082 0
-10098 -10097 -10082 0
10098 -10097 10082 0
10098 10097 -10082 0
-10099 10098 10083 0
-10099 -10098 -10083 0
10099 -10098 10083 0
10099 10098 -10083 0
-10100 10099 10084 0
-10100 -10099 -10084 0
10100 -10099 10084 0
10100 10099 -10084 0
-10101 10100 10085 0
-10101 -10100 -10085 0
10101 -10100 10085 0
10101 10100 -10085 0
-10102 10101 10086 0
-10102 -10101 -10086 0
10102 -10101 10086 0
10102 10101 -10086 0
-10103 10102 10087 0
-10103 -10102 -10087 0
10103 -10102 10087 0
10103 10102 -10087 0
-10103 0
-10104 9724 0
-10104 44 0
10104 -9724 -44 0
-10105 9726 0
-10105 47 0
10105 -9726 -47 0
-10106 9728 0
-10106 46 0
10106 -9728 -46 0
-10107 9730 0
-10107 47 0
10107 -9730 -47 0
-10108 9732 0
-10108 44 0
10108 -9732 -44 0
-10109 9734 0
-10109 40 0
10109 -9734 -40 0
-10110 9736 0
-10110 92 0
10110 -9736 -92 0
-10111 9738 0
-10111 90 0
10111 -9738 -90 0
-10112 9740 0
-10112 95 0
10112 -9740 -95 0
-10113 9742 0
-10113 87 0
10113 -9742 -87 0
-10114 9744 0
-10114 140 0
10114 -9744 -140 0
-10115 9746 0
-10115 138 0
10115 -9746 -138 0
-10116 9748 0
-10116 143 0
10116 -9748 -143 0
-10117 9750 0
-10117 135 0
10117 -9750 -135 0
-10118 9752 0
-10118 188 0
10118 -9752 -188 0
-10119 9754 0
-10119 191 0
10119 -9754 -191 0
-10120 9756 0
-10120 190 0
10120 -9756 -190 0
-10121 10104 10105 0
-10121 -10104 -10105 0
10121 -10104 10105 0
10121 10104 -10105 0
-10122 10121 10106 0
-10122 -10121 -10106 0
10122 -10121 10106 0
10122 10121 -10106 0
-10123 10122 10107 0
-10123 -10122 -10107 0
10123 -10122 10107 0
10123 10122 -10107 0
-10124 10123 10108 0
-10124 -10123 -10108 0
10124 -10123 10108 0
10124 10123 -10108 0
-10125 10124 10109 0
-10125 -10124 -10109 0
10125 -10124 10109 0
10125 10124 -10109 0
-10126 10125 10110 0
-10126 -10125 -10110 0
10126 -10125 10110 0
10126 10125 -10110 0
-10127 10126 10111 0
-10127 -10126 -10111 0
10127 -10126 10111 0
10127 10126 -10111 0
-10128 10127 10112 0
-10128 -10127 -10112 0
10128 -10127 10112 0
10128 10127 -10112 0
-10129 10128 10113 0
-10129 -10128 -10113 0
10129 -10128 10113 0
10129 10128 -10113 0
-10130 10129 10114 0
-10130 -10129 -10114 0
10130 -10129 10114 0
10130 10129 -10114 0
-10131 10130 10115 0
-10131 -10130 -10115 0
10131 -10130 10115 0
10131 10130 -10115 0
-10132 10131 10116 0
-10132 -10131 -10116 0
10132 -10131 10116 0
10132 10131 -10116 0
-10133 10132 10117 0
-10133 -10132 -10117 0
10133 -10132 10117 0
10133 10132 -10117 0
-10134 10133 10118 0
-10134 -10133 -10118 0
10134 -10133 10118 0
10134 10133 -10118 0
-10135 10134 10119 0
-10135 -10134 -10119 0
10135 -10134 10119 0
10135 10134 -10119 0
-10136 10135 10120 0
-10136 -10135 -10120 0
10136 -10135 10120 0
10136 10135 -10120 0
-10136 0
-10137 9724 0
-10137 45 0
10137 -9724 -45 0
-10138 9726 0
-10138 41 0
10138 -9726 -41 0
-10139 9728 0
-10139 37 0
10139 -9728 -37 0
-10140 9730 0
-10140 36 0
10140 -9730 -36 0
-10141 9732 0
-10141 35 0
10141 -9732 -35 0
-10142 9734 0
-10142 34 0
10142 -9734 -34 0
-10143 9736 0
-10143 93 0
10143 -9736 -93 0
-10144 9738 0
-10144 85 0
10144 -9738 -85 0
-10145 9740 0
-10145 84 0
10145 -9740 -84 0
-10146 9742 0
-10146 82 0
10146 -9742 -82 0
-10147 9744 0
-10147 141 0
10147 -9744 -141 0
-10148 9746 0
-10148 133 0
10148 -9746 -133 0
-10149 9748 0
-10149 132 0
10149 -9748 -132 0
-10150 9750 0
-10150 130 0
10150 -9750 -130 0
-10151 9752 0
-10151 189 0
10151 -9752 -189 0
-10152 9754 0
-10152 185 0
10152 -9754 -185 0
-10153 9756 0
-10153 181 0
10153 -9756 -181 0
-10154 10137 10138 0
-10154 -10137 -10138 0
10154 -10137 10138 0
10154 10137 -10138 0
-10155 10154 10139 0
-10155 -10154 -10139 0
10155 -10154 10139 0
10155 10154 -10139 0
-10156 10155 10140 0
-10156 -10155 -10140 0
10156 -10155 10140 0
10156 10155 -10140 0
-10157 10156 10141 0
-10157 -10156 -10141 0
10157 -10156 10141 0
10157 10156 -10141 0
-10158 10157 10142 0
-10158 -10157 -10142 0
10158 -10157 10142 0
10158 10157 -10142 0
-10159 10158 10143 0
-10159 -10158 -10143 0
10159 -10158 10143 0
10159 10158 -10143 0
-10160 10159 10144 0
-10160 -10159 -10144 0
10160 -10159 10144 0
10160 10159 -10144 0
-10161 10160 10145 0
-10161 -10160 -10145 0
10161 -10160 10145 0
10161 10160 -10145 0
-10162 10161 10146 0
-10162 -10161 -10146 0
10162 -10161 10146 0
10162 10161 -10146 0
-10163 10162 10147 0
-10163 -10162 -10147 0
10163 -10162 10147 0
10163 10162 -10147 0
-10164 10163 10148 0
-10164 -10163 -10148 0
10164 -10163 10148 0
10164 10163 -10148 0
-10165 10164 10149 0
-10165 -10164 -10149 0
10165 -10164 10149 0
10165 10164 -10149 0
-10166 10165 10150 0
-10166 -10165 -10150 0
10166 -10165 10150 0
10166 10165 -10150 0
-10167 10166 10151 0
-10167 -10166 -10151 0
10167 -10166 10151 0
10167 10166 -10151 0
-10168 10167 10152 0
-10168 -10167 -10152 0
10168 -10167 10152 0
10168 10167 -10152 0
-10169 10168 10153 0
-10169 -10168 -10153 0
10169 -10168 10153 0
10169 10168 -10153 0
-10169 0
-10170 9724 0
-10170 46 0
10170 -9724 -46 0
-10171 9726 0
-10171 42 0
10171 -9726 -42 0
-10172 9728 0
-10172 39 0
10172 -9728 -39 0
-10173 9730 0
-10173 40 0
10173 -9730 -40 0
-10174 9732 0
-10174 39 0
10174 -9732 -39 0
-10175 9734 0
-10175 42 0
10175 -9734 -42 0
-10176 9736 0
-10176 94 0
10176 -9736 -94 0
-10177 9738 0
-10177 88 0
10177 -9738 -88 0
-10178 9740 0
-10178 88 0
10178 -9740 -88 0
-10179 9742 0
-10179 94 0
10179 -9742 -94 0
-10180 9744 0
-10180 142 0
10180 -9744 -142 0
-10181 9746 0
-10181 136 0
10181 -9746 -136 0
-10182 9748 0
-10182 136 0
10182 -9748 -136 0
-10183 9750 0
-10183 142 0
10183 -9750 -142 0
-10184 9752 0
-10184 190 0
10184 -9752 -190 0
-10185 9754 0
-10185 186 0
10185 -9754 -186 0
-10186 9756 0
-10186 183 0
10186 -9756 -183 0
-10187 10170 10171 0
-10187 -10170 -10171 0
10187 -10170 10171 0
10187 10170 -10171 0
-10188 10187 10172 0
-10188 -10187 -10172 0
10188 -10187 10172 0
10188 10187 -10172 0
-10189 10188 10173 0
-10189 -10188 -10173 0
10189 -10188 10173 0
10189 10188 -10173 0
-10190 10189 10174 0
-10190 -10189 -10174 0
10190 -10189 10174 0
10190 10189 -10174 0
-10191 10190 10175 0
-10191 -10190 -10175 0
10191 -10190 10175 0
10191 10190 -10175 0
-10192 10191 10176 0
-10192 -10191 -10176 0
10192 -10191 10176 0
10192 10191 -10176 0
-10193 10192 10177 0
-10193 -10192 -10177 0
10193 -10192 10177 0
10193 10192 -10177 0
-10194 10193 10178 0
-10194 -10193 -10178 0
10194 -10193 10178 0
10194 10193 -10178 0
-10195 10194 10179 0
-10195 -10194 -10179 0
10195 -10194 10179 0
10195 10194 -10179 0
-10196 10195 10180 0
-10196 -10195 -10180 0
10196 -10195 10180 0
10196 10195 -10180 0
-10197 10196 10181 0
-10197 -10196 -10181 0
10197 -10196 10181 0
10197 10196 -10181 0
-10198 10197 10182 0
-10198 -10197 -10182 0
10198 -10197 10182 0
10198 10197 -10182 0
-10199 10198 10183 0
-10199 -10198 -10183 0
10199 -10198 10183 0
10199 10198 -10183 0
-10200 10199 10184 0
-10200 -10199 -10184 0
10200 -10199 10184 0
10200 10199 -10184 0
-10201 10200 10185 0
-10201 -10200 -10185 0
10201 -10200 10185 0
10201 10200 -10185 0
-10202 10201 10186 0
-10202 -10201 -10186 0
10202 -10201 10186 0
10202 10201 -10186 0
-10202 0
-10203 9724 0
-10203 47 0
10203 -9724 -47 0
-10204 9726 0
-10204 44 0
10204 -9726 -44 0
-10205 9728 0
-10205 40 0
10205 -9728 -40 0
-10206 9730 0
-10206 44 0
10206 -9730 -44 0
-10207 9732 0
-10207 47 0
10207 -9732 -47 0
-10208 9734 0
-10208 46 0
10208 -9734 -46 0
-10209 9736 0
-10209 95 0
10209 -9736 -95 0
-10210 9738 0
-10210 87 0
10210 -9738 -87 0
-10211 9740 0
-10211 92 0
10211 -9740 -92 0
-10212 9742 0
-10212 90 0
10212 -9742 -90 0
-10213 9744 0
-10213 143 0
10213 -9744 -143 0
-10214 9746 0
-10214 135 0
10214 -9746 -135 0
-10215 9748 0
-10215 140 0
10215 -9748 -140 0
-10216 9750 0
-10216 138 0
10216 -9750 -138 0
-10217 9752 0
-10217 191 0
10217 -9752 -191 0
-10218 9754 0
-10218 188 0
10218 -9754 -188 0
-10219 9756 0
-10219 184 0
10219 -9756 -184 0
-10220 10203 10204 0
-10220 -10203 -10204 0
10220 -10203 10204 0
10220 10203 -10204 0
-10221 10220 10205 0
-10221 -10220 -10205 0
10221 -10220 10205 0
10221 10220 -10205 0
-10222 10221 10206 0
-10222 -10221 -10206 0
10222 -10221 10206 0
10222 10221 -10206 0
-10223 10222 10207 0
-10223 -10222 -10207 0
10223 -10222 10207 0
10223 10222 -10207 0
-10224 10223 10208 0
-10224 -10223 -10208 0
10224 -10223 10208 0
10224 10223 -10208 0
-10225 10224 10209 0
-10225 -10224 -10209 0
10225 -10224 10209 0
10225 10224 -10209 0
-10226 10225 10210 0
-10226 -10225 -10210 0
10226 -10225 10210 0
10226 10225 -10210 0
-10227 10226 10211 0
-10227 -10226 -10211 0
10227 -10226 10211 0
10227 10226 -10211 0
-10228 10227 10212 0
-10228 -10227 -10212 0
10228 -10227 10212 0
10228 10227 -10212 0
-10229 10228 10213 0
-10229 -10228 -10213 0
10229 -10228 10213 0
10229 10228 -10213 0
-10230 10229 10214 0
-10230 -10229 -10214 0
10230 -10229 10214 0
10230 10229 -10214 0
-10231 10230 10215 0
-10231 -10230 -10215 0
10231 -10230 10215 0
10231 10230 -10215 0
-10232 10231 10216 0
-10232 -10231 -10216 0
10232 -10231 10216 0
10232 10231 -10216 0
-10233 10232 10217 0
-10233 -10232 -10217 0
10233 -10232 10217 0
10233 10232 -10217 0
-10234 10233 10218 0
-10234 -10233 -10218 0
10234 -10233 10218 0
10234 10233 -10218 0
-10235 10234 10219 0
-10235 -10234 -10219 0
10235 -10234 10219 0
10235 10234 -10219 0
-10235 0
-10236 9724 0
-10236 48 0
10236 -9724 -48 0
-10237 9726 0
-10237 43 0
10237 -9726 -43 0
-10238 9728 0
-10238 38 0
10238 -9728 -38 0
-10239 9730 0
-10239 48 0
10239 -9730 -48 0
-10240 9732 0
-10240 43 0
10240 -9732 -43 0
-10241 9734 0
-10241 38 0
10241 -9734 -38 0
-10242 9736 0
-10242 96 0
10242 -9736 -96 0
-10243 9738 0
-10243 86 0
10243 -9738 -86 0
-10244 9740 0
-10244 96 0
10244 -9740 -96 0
-10245 9742 0
-10245 86 0
10245 -9742 -86 0
-10246 9744 0
-10246 144 0
10246 -9744 -144 0
-10247 9746 0
-10247 134 0
10247 -9746 -134 0
-10248 9748 0
-10248 144 0
10248 -9748 -144 0
-10249 9750 0
-10249 134 0
10249 -9750 -134 0
-10250 9752 0
-10250 192 0
10250 -9752 -192 0
-10251 9754 0
-10251 187 0
10251 -9754 -187 0
-10252 9756 0
-10252 182 0
10252 -9756 -182 0
-10253 10236 10237 0
-10253 -10236 -10237 0
10253 -10236 10237 0
10253 10236 -10237 0
-10254 10253 10238 0
-10254 -10253 -10238 0
10254 -10253 10238 0
10254 10253 -10238 0
-10255 10254 10239 0
-10255 -10254 -10239 0
10255 -10254 10239 0
10255 10254 -10239 0
-10256 10255 10240 0
-10256 -10255 -10240 0
10256 -10255 10240 0
10256 10255 -10240 0
-10257 10256 10241 0
-10257 -10256 -10241 0
10257 -10256 10241 0
10257 10256 -10241 0
-10258 10257 10242 0
-10258 -10257 -10242 0
10258 -10257 10242 0
10258 10257 -10242 0
-10259 10258 10243 0
-10259 -10258 -10243 0
10259 -10258 10243 0
10259 10258 -10243 0
-10260 10259 10244 0
-10260 -10259 -10244 0
10260 -10259 10244 0
10260 10259 -10244 0
-10261 10260 10245 0
-10261 -10260 -10245 0
10261 -10260 10245 0
10261 10260 -10245 0
-10262 10261 10246 0
-10262 -10261 -10246 0
10262 -10261 10246 0
10262 10261 -10246 0
-10263 10262 10247 0
-10263 -10262 -10247 0
10263 -10262 10247 0
10263 10262 -10247 0
-10264 10263 10248 0
-10264 -10263 -10248 0
10264 -10263 10248 0
10264 10263 -10248 0
-10265 10264 10249 0
-10265 -10264 -10249 0
10265 -10264 10249 0
10265 10264 -10249 0
-10266 10265 10250 0
-10266 -10265 -10250 0
10266 -10265 10250 0
10266 10265 -10250 0
-10267 10266 10251 0
-10267 -10266 -10251 0
10267 -10266 10251 0
10267 10266 -10251 0
-10268 10267 10252 0
-10268 -10267 -10252 0
10268 -10267 10252 0
10268 10267 -10252 0
-10268 0
-10269 5 0
-10269 32 0
10269 -5 -32 0
-10270 10269 0
-10270 33 0
10270 -10269 -33 0
-10271 6 0
-10271 31 0
10271 -6 -31 0
-10272 10271 0
-10272 33 0
10272 -10271 -33 0
-10273 10 0
-10273 30 0
10273 -10 -30 0
-10274 10273 0
-10274 33 0
10274 -10273 -33 0
-10275 18 0
-10275 16 0
10275 -18 -16 0
-10276 10275 0
-10276 33 0
10276 -10275 -33 0
-10277 22 0
-10277 12 0
10277 -22 -12 0
-10278 10277 0
-10278 33 0
10278 -10277 -33 0
-10279 23 0
-10279 8 0
10279 -23 -8 0
-10280 10279 0
-10280 33 0
10280 -10279 -33 0
-10281 53 0
-10281 80 0
10281 -53 -80 0
-10282 10281 0
-10282 81 0
10282 -10281 -81 0
-10283 61 0
-10283 78 0
10283 -61 -78 0
-10284 10283 0
-10284 81 0
10284 -10283 -81 0
-10285 66 0
-10285 64 0
10285 -66 -64 0
-10286 10285 0
-10286 81 0
10286 -10285 -81 0
-10287 68 0
-10287 56 0
10287 -68 -56 0
-10288 10287 0
-10288 81 0
10288 -10287 -81 0
-10289 101 0
-10289 128 0
10289 -101 -128 0
-10290 10289 0
-10290 129 0
10290 -10289 -129 0
-10291 109 0
-10291 126 0
10291 -109 -126 0
-10292 10291 0
-10292 129 0
10292 -10291 -129 0
-10293 114 0
-10293 112 0
10293 -114 -112 0
-10294 10293 0
-10294 129 0
10294 -10293 -129 0
-10295 116 0
-10295 104 0
10295 -116 -104 0
-10296 10295 0
-10296 129 0
10296 -10295 -129 0
-10297 149 0
-10297 176 0
10297 -149 -176 0
-10298 10297 0
-10298 177 0
10298 -10297 -177 0
-10299 150 0
-10299 175 0
10299 -150 -175 0
-10300 10299 0
-10300 177 0
10300 -10299 -177 0
-10301 154 0
-10301 174 0
10301 -154 -174 0
-10302 10301 0
-10302 177 0
10302 -10301 -177 0
-10303 10270 10272 0
-10303 -10270 -10272 0
10303 -10270 10272 0
10303 10270 -10272 0
-10304 10303 10274 0
-10304 -10303 -10274 0
10304 -10303 10274 0
10304 10303 -10274 0
-10305 10304 10276 0
-10305 -10304 -10276 0
10305 -10304 10276 0
10305 10304 -10276 0
-10306 10305 10278 0
-10306 -10305 -10278 0
10306 -10305 10278 0
10306 10305 -10278 0
-10307 10306 10280 0
-10307 -10306 -10280 0
10307 -10306 10280 0
10307 10306 -10280 0
-10308 10307 10282 0
-10308 -10307 -10282 0
10308 -10307 10282 0
10308 10307 -10282 0
-10309 10308 10284 0
-10309 -10308 -10284 0
10309 -10308 10284 0
10309 10308 -10284 0
-10310 10309 10286 0
-10310 -10309 -10286 0
10310 -10309 10286 0
10310 10309 -10286 0
-10311 10310 10288 0
-10311 -10310 -10288 0
10311 -10310 10288 0
10311 10310 -10288 0
-10312 10311 10290 0
-10312 -10311 -10290 0
10312 -10311 10290 0
10312 10311 -10290 0
-10313 10312 10292 0
-10313 -10312 -10292 0
10313 -10312 10292 0
10313 10312 -10292 0
-10314 10313 10294 0
-10314 -10313 -10294 0
10314 -10313 10294 0
10314 10313 -10294 0
-10315 10314 10296 0
-10315 -10314 -10296 0
10315 -10314 10296 0
10315 10314 -10296 0
-10316 10315 10298 0
-10316 -10315 -10298 0
10316 -10315 10298 0
10316 10315 -10298 0
-10317 10316 10300 0
-10317 -10316 -10300 0
10317 -10316 10300 0
10317 10316 -10300 0
-10318 10317 10302 0
-10318 -10317 -10302 0
10318 -10317 10302 0
10318 10317 -10302 0
-10318 0
-10319 10269 0
-10319 34 0
10319 -10269 -34 0
-10320 10271 0
-10320 34 0
10320 -10271 -34 0
-10321 10273 0
-10321 35 0
10321 -10273 -35 0
-10322 10275 0
-10322 37 0
10322 -10275 -37 0
-10323 10277 0
-10323 37 0
10323 -10277 -37 0
-10324 10279 0
-10324 41 0
10324 -10279 -41 0
-10325 10281 0
-10325 82 0
10325 -10281 -82 0
-10326 10283 0
-10326 84 0
10326 -10283 -84 0
-10327 10285 0
-10327 85 0
10327 -10285 -85 0
-10328 10287 0
-10328 93 0
10328 -10287 -93 0
-10329 10289 0
-10329 130 0
10329 -10289 -130 0
-10330 10291 0
-10330 132 0
10330 -10291 -132 0
-10331 10293 0
-10331 133 0
10331 -10293 -133 0
-10332 10295 0
-10332 141 0
10332 -10295 -141 0
-10333 10297 0
-10333 178 0
10333 -10297 -178 0
-10334 10299 0
-10334 178 0
10334 -10299 -178 0
-10335 10301 0
-10335 179 0
10335 -10301 -179 0
-10336 10319 10320 0
-10336 -10319 -10320 0
10336 -10319 10320 0
10336 10319 -10320 0
-10337 10336 10321 0
-10337 -10336 -10321 0
10337 -10336 10321 0
10337 10336 -10321 0
-10338 10337 10322 0
-10338 -10337 -10322 0
10338 -10337 10322 0
10338 10337 -10322 0
-10339 10338 10323 0
-10339 -10338 -10323 0
10339 -10338 10323 0
10339 10338 -10323 0
-10340 10339 10324 0
-10340 -10339 -10324 0
10340 -10339 10324 0
10340 10339 -10324 0
-10341 10340 10325 0
-10341 -10340 -10325 0
10341 -10340 10325 0
10341 10340 -10325 0
-10342 10341 10326 0
-10342 -10341 -10326 0
10342 -10341 10326 0
10342 10341 -10326 0
-10343 10342 10327 0
-10343 -10342 -10327 0
10343 -10342 10327 0
10343 10342 -10327 0
-10344 10343 10328 0
-10344 -10343 -10328 0
10344 -10343 10328 0
10344 10343 -10328 0
-10345 10344 10329 0
-10345 -10344 -10329 0
10345 -10344 10329 0
10345 10344 -10329 0
-10346 10345 10330 0
-10346 -10345 -10330 0
10346 -10345 10330 0
10346 10345 -10330 0
-10347 10346 10331 0
-10347 -10346 -10331 0
10347 -10346 10331 0
10347 10346 -10331 0
-10348 10347 10332 0
-10348 -10347 -10332 0
10348 -10347 10332 0
10348 10347 -10332 0
-10349 10348 10333 0
-10349 -10348 -10333 0
10349 -10348 10333 0
10349 10348 -10333 0
-10350 10349 10334 0
-10350 -10349 -10334 0
10350 -10349 10334 0
10350 10349 -10334 0
-10351 10350 10335 0
-10351 -10350 -10335 0
10351 -10350 10335 0
10351 10350 -10335 0
10351 0
-10352 10269 0
-10352 35 0
10352 -10269 -35 0
-10353 10271 0
-10353 36 0
10353 -10271 -36 0
-10354 10273 0
-10354 36 0
10354 -10273 -36 0
-10355 10275 0
-10355 41 0
10355 -10275 -41 0
-10356 10277 0
-10356 45 0
10356 -10277 -45 0
-10357 10279 0
-10357 45 0
10357 -10279 -45 0
-10358 10281 0
-10358 83 0
10358 -10281 -83 0
-10359 10283 0
-10359 83 0
10359 -10283 -83 0
-10360 10285 0
-10360 89 0
10360 -10285 -89 0
-10361 10287 0
-10361 89 0
10361 -10287 -89 0
-10362 10289 0
-10362 131 0
10362 -10289 -131 0
-10363 10291 0
-10363 131 0
10363 -10291 -131 0
-10364 10293 0
-10364 137 0
10364 -10293 -137 0
-10365 10295 0
-10365 137 0
10365 -10295 -137 0
-10366 10297 0
-10366 179 0
10366 -10297 -179 0
-10367 10299 0
-10367 180 0
10367 -10299 -180 0
-10368 10301 0
-10368 180 0
10368 -10301 -180 0
-10369 10352 10353 0
-10369 -10352 -10353 0
10369 -10352 10353 0
10369 10352 -10353 0
-10370 10369 10354 0
-10370 -10369 -10354 0
10370 -10369 10354 0
10370 10369 -10354 0
-10371 10370 10355 0
-10371 -10370 -10355 0
10371 -10370 10355 0
10371 10370 -10355 0
-10372 10371 10356 0
-10372 -10371 -10356 0
10372 -10371 10356 0
10372 10371 -10356 0
-10373 10372 10357 0
-10373 -10372 -10357 0
10373 -10372 10357 0
10373 10372 -10357 0
-10374 10373 10358 0
-10374 -10373 -10358 0
10374 -10373 10358 0
10374 10373 -10358 0
-10375 10374 10359 0
-10375 -10374 -10359 0
10375 -10374 10359 0
10375 10374 -10359 0
-10376 10375 10360 0
-10376 -10375 -10360 0
10376 -10375 10360 0
10376 10375 -10360 0
-10377 10376 10361 0
-10377 -10376 -10361 0
10377 -10376 10361 0
10377 10376 -10361 0
-10378 10377 10362 0
-10378 -10377 -10362 0
10378 -10377 10362 0
10378 10377 -10362 0
-10379 10378 10363 0
-10379 -10378 -10363 0
10379 -10378 10363 0
10379 10378 -10363 0
-10380 10379 10364 0
-10380 -10379 -10364 0
10380 -10379 10364 0
10380 10379 -10364 0
-10381 10380 10365 0
-10381 -10380 -10365 0
10381 -10380 10365 0
10381 10380 -10365 0
-10382 10381 10366 0
-10382 -10381 -10366 0
10382 -10381 10366 0
10382 10381 -10366 0
-10383 10382 10367 0
-10383 -10382 -10367 0
10383 -10382 10367 0
10383 10382 -10367 0
-10384 10383 10368 0
-10384 -10383 -10368 0
10384 -10383 10368 0
10384 10383 -10368 0
-10384 0
-10385 10269 0
-10385 36 0
10385 -10269 -36 0
-10386 10271 0
-10386 35 0
10386 -10271 -35 0
-10387 10273 0
-10387 34 0
10387 -10273 -34 0
-10388 10275 0
-10388 45 0
10388 -10275 -45 0
-10389 10277 0
-10389 41 0
10389 -10277 -41 0
-10390 10279 0
-10390 37 0
10390 -10279 -37 0
-10391 10281 0
-10391 84 0
10391 -10281 -84 0
-10392 10283 0
-10392 82 0
10392 -10283 -82 0
-10393 10285 0
-10393 93 0
10393 -10285 -93 0
-10394 10287 0
-10394 85 0
10394 -10287 -85 0
-10395 10289 0
-10395 132 0
10395 -10289 -132 0
-10396 10291 0
-10396 130 0
10396 -10291 -130 0
-10397 10293 0
-10397 141 0
10397 -10293 -141 0
-10398 10295 0
-10398 133 0
10398 -10295 -133 0
-10399 10297 0
-10399 180 0
10399 -10297 -180 0
-10400 10299 0
-10400 179 0
10400 -10299 -179 0
-10401 10301 0
-10401 178 0
10401 -10301 -178 0
-10402 10385 10386 0
-10402 -10385 -10386 0
10402 -10385 10386 0
10402 10385 -10386 0
-10403 10402 10387 0
-10403 -10402 -10387 0
10403 -10402 10387 0
10403 10402 -10387 0
-10404 10403 10388 0
-10404 -10403 -10388 0
10404 -10403 10388 0
10404 10403 -10388 0
-10405 10404 10389 0
-10405 -10404 -10389 0
10405 -10404 10389 0
10405 10404 -10389 0
-10406 10405 10390 0
-10406 -10405 -10390 0
10406 -10405 10390 0
10406 10405 -10390 0
-10407 10406 10391 0
-10407 -10406 -10391 0
10407 -10406 10391 0
10407 10406 -10391 0
-10408 10407 10392 0
-10408 -10407 -10392 0
10408 -10407 10392 0
10408 10407 -10392 0
-10409 10408 10393 0
-10409 -10408 -10393 0
10409 -10408 10393 0
10409 10408 -10393 0
-10410 10409 10394 0
-10410 -10409 -10394 0
10410 -10409 10394 0
10410 10409 -10394 0
-10411 10410 10395 0
-10411 -10410 -10395 0
10411 -10410 10395 0
10411 10410 -10395 0
-10412 10411 10396 0
-10412 -10411 -10396 0
10412 -10411 10396 0
10412 10411 -10396 0
-10413 10412 10397 0
-10413 -10412 -10397 0
10413 -10412 10397 0
10413 10412 -10397 0
-10414 10413 10398 0
-10414 -10413 -10398 0
10414 -10413 10398 0
10414 10413 -10398 0
-10415 10414 10399 0
-10415 -10414 -10399 0
10415 -10414 10399 0
10415 10414 -10399 0
-10416 10415 10400 0
-10416 -10415 -10400 0
10416 -10415 10400 0
10416 10415 -10400 0
-10417 10416 10401 0
-10417 -10416 -10401 0
10417 -10416 10401 0
10417 10416 -10401 0
-10417 0
-10418 10269 0
-10418 37 0
10418 -10269 -37 0
-10419 10271 0
-10419 37 0
10419 -10271 -37 0
-10420 10273 0
-10420 41 0
10420 -10273 -41 0
-10421 10275 0
-10421 34 0
10421 -10275 -34 0
-10422 10277 0
-10422 34 0
10422 -10277 -34 0
-10423 10279 0
-10423 35 0
10423 -10279 -35 0
-10424 10281 0
-10424 85 0
10424 -10281 -85 0
-10425 10283 0
-10425 93 0
10425 -10283 -93 0
-10426 10285 0
-10426 82 0
10426 -10285 -82 0
-10427 10287 0
-10427 84 0
10427 -10287 -84 0
-10428 10289 0
-10428 133 0
10428 -10289 -133 0
-10429 10291 0
-10429 141 0
10429 -10291 -141 0
-10430 10293 0
-10430 130 0
10430 -10293 -130 0
-10431 10295 0
-10431 132 0
10431 -10295 -132 0
-10432 10297 0
-10432 181 0
10432 -10297 -181 0
-10433 10299 0
-10433 181 0
10433 -10299 -181 0
-10434 10301 0
-10434 185 0
10434 -10301 -185 0
-10435 10418 10419 0
-10435 -10418 -10419 0
10435 -10418 10419 0
10435 10418 -10419 0
-10436 10435 10420 0
-10436 -10435 -10420 0
10436 -10435 10420 0
10436 10435 -10420 0
-10437 10436 10421 0
-10437 -10436 -10421 0
10437 -10436 10421 0
10437 10436 -10421 0
-10438 10437 10422 0
-10438 -10437 -10422 0
10438 -10437 10422 0
10438 10437 -10422 0
-10439 10438 10423 0
-10439 -10438 -10423 0
10439 -10438 10423 0
10439 10438 -10423 0
-10440 10439 10424 0
-10440 -10439 -10424 0
10440 -10439 10424 0
10440 10439 -10424 0
-10441 10440 10425 0
-10441 -10440 -10425 0
10441 -10440 10425 0
10441 10440 -10425 0
-10442 10441 10426 0
-10442 -10441 -10426 0
10442 -10441 10426 0
10442 10441 -10426 0
-10443 10442 10427 0
-10443 -10442 -10427 0
10443 -10442 10427 0
10443 10442 -10427 0
-10444 10443 10428 0
-10444 -10443 -10428 0
10444 -10443 10428 0
10444 10443 -10428 0
-10445 10444 10429 0
-10445 -10444 -10429 0
10445 -10444 10429 0
10445 10444 -10429 0
-10446 10445 10430 0
-10446 -10445 -10430 0
10446 -10445 10430 0
10446 10445 -10430 0
-10447 10446 10431 0
-10447 -10446 -10431 0
10447 -10446 10431 0
10447 10446 -10431 0
-10448 10447 10432 0
-10448 -10447 -10432 0
10448 -10447 10432 0
10448 10447 -10432 0
-10449 10448 10433 0
-10449 -10448 -10433 0
10449 -10448 10433 0
10449 10448 -10433 0
-10450 10449 10434 0
-10450 -10449 -10434 0
10450 -10449 10434 0
10450 10449 -10434 0
-10450 0
-10451 10269 0
-10451 38 0
10451 -10269 -38 0
-10452 10271 0
-10452 38 0
10452 -10271 -38 0
-10453 10273 0
-10453 43 0
10453 -10273 -43 0
-10454 10275 0
-10454 38 0
10454 -10275 -38 0
-10455 10277 0
-10455 38 0
10455 -10277 -38 0
-10456 10279 0
-10456 43 0
10456 -10279 -43 0
-10457 10281 0
-10457 86 0
10457 -10281 -86 0
-10458 10283 0
-10458 96 0
10458 -10283 -96 0
-10459 10285 0
-10459 86 0
10459 -10285 -86 0
-10460 10287 0
-10460 96 0
10460 -10287 -96 0
-10461 10289 0
-10461 134 0
10461 -10289 -134 0
-10462 10291 0
-10462 144 0
10462 -10291 -144 0
-10463 10293 0
-10463 134 0
10463 -10293 -134 0
-10464 10295 0
-10464 144 0
10464 -10295 -144 0
-10465 10297 0
-10465 182 0
10465 -10297 -182 0
-10466 10299 0
-10466 182 0
10466 -10299 -182 0
-10467 10301 0
-10467 187 0
10467 -10301 -187 0
-10468 10451 10452 0
-10468 -10451 -10452 0
10468 -10451 10452 0
10468 10451 -10452 0
-10469 10468 10453 0
-10469 -10468 -10453 0
10469 -10468 10453 0
10469 10468 -10453 0
-10470 10469 10454 0
-10470 -10469 -10454 0
10470 -10469 10454 0
10470 10469 -10454 0
-10471 10470 10455 0
-10471 -10470 -10455 0
10471 -10470 10455 0
10471 10470 -10455 0
-10472 10471 10456 0
-10472 -10471 -10456 0
10472 -10471 10456 0
10472 10471 -10456 0
-10473 10472 10457 0
-10473 -10472 -10457 0
10473 -10472 10457 0
10473 10472 -10457 0
-10474 10473 10458 0
-10474 -10473 -10458 0
10474 -10473 10458 0
10474 10473 -10458 0
-10475 10474 10459 0
-10475 -10474 -10459 0
10475 -10474 10459 0
10475 10474 -10459 0
-10476 10475 10460 0
-10476 -10475 -10460 0
10476 -10475 10460 0
10476 10475 -10460 0
-10477 10476 10461 0
-10477 -10476 -10461 0
10477 -10476 10461 0
10477 10476 -10461 0
-10478 10477 10462 0
-10478 -10477 -10462 0
10478 -10477 10462 0
10478 10477 -10462 0
-10479 10478 10463 0
-10479 -10478 -10463 0
10479 -10478 10463 0
10479 10478 -10463 0
-10480 10479 10464 0
-10480 -10479 -10464 0
10480 -10479 10464 0
10480 10479 -10464 0
-10481 10480 10465 0
-10481 -10480 -10465 0
10481 -10480 10465 0
10481 10480 -10465 0
-10482 10481 10466 0
-10482 -10481 -10466 0
10482 -10481 10466 0
10482 10481 -10466 0
-10483 10482 10467 0
-10483 -10482 -10467 0
10483 -10482 10467 0
10483 10482 -10467 0
-10483 0
-10484 10269 0
-10484 39 0
10484 -10269 -39 0
-10485 10271 0
-10485 40 0
10485 -10271 -40 0
-10486 10273 0
-10486 44 0
10486 -10273 -44 0
-10487 10275 0
-10487 42 0
10487 -10275 -42 0
-10488 10277 0
-10488 46 0
10488 -10277 -46 0
-10489 10279 0
-10489 47 0
10489 -10279 -47 0
-10490 10281 0
-10490 87 0
10490 -10281 -87 0
-10491 10283 0
-10491 95 0
10491 -10283 -95 0
-10492 10285 0
-10492 90 0
10492 -10285 -90 0
-10493 10287 0
-10493 92 0
10493 -10287 -92 0
-10494 10289 0
-10494 135 0
10494 -10289 -135 0
-10495 10291 0
-10495 143 0
10495 -10291 -143 0
-10496 10293 0
-10496 138 0
10496 -10293 -138 0
-10497 10295 0
-10497 140 0
10497 -10295 -140 0
-10498 10297 0
-10498 183 0
10498 -10297 -183 0
-10499 10299 0
-10499 184 0
10499 -10299 -184 0
-10500 10301 0
-10500 188 0
10500 -10301 -188 0
-10501 10484 10485 0
-10501 -10484 -10485 0
10501 -10484 10485 0
10501 10484 -10485 0
-10502 10501 10486 0
-10502 -10501 -10486 0
10502 -10501 10486 0
10502 10501 -10486 0
-10503 10502 10487 0
-10503 -10502 -10487 0
10503 -10502 10487 0
10503 10502 -10487 0
-10504 10503 10488 0
-10504 -10503 -10488 0
10504 -10503 10488 0
10504 10503 -10488 0
-10505 10504 10489 0
-10505 -10504 -10489 0
10505 -10504 10489 0
10505 10504 -10489 0
-10506 10505 10490 0
-10506 -10505 -10490 0
10506 -10505 10490 0
10506 10505 -10490 0
-10507 10506 10491 0
-10507 -10506 -10491 0
10507 -10506 10491 0
10507 10506 -10491 0
-10508 10507 10492 0
-10508 -10507 -10492 0
10508 -10507 10492 0
10508 10507 -10492 0
-10509 10508 10493 0
-10509 -10508 -10493 0
10509 -10508 10493 0
10509 10508 -10493 0
-10510 10509 10494 0
-10510 -10509 -10494 0
10510 -10509 10494 0
10510 10509 -10494 0
-10511 10510 10495 0
-10511 -10510 -10495 0
10511 -10510 10495 0
10511 10510 -10495 0
-10512 10511 10496 0
-10512 -10511 -10496 0
10512 -10511 10496 0
10512 10511 -10496 0
-10513 10512 10497 0
-10513 -10512 -10497 0
10513 -10512 10497 0
10513 10512 -10497 0
-10514 10513 10498 0
-10514 -10513 -10498 0
10514 -10513 10498 0
10514 10513 -10498 0
-10515 10514 10499 0
-10515 -10514 -10499 0
10515 -10514 10499 0
10515 10514 -10499 0
-10516 10515 10500 0
-10516 -10515 -10500 0
10516 -10515 10500 0
10516 10515 -10500 0
-10516 0
-10517 10269 0
-10517 40 0
10517 -10269 -40 0
-10518 10271 0
-10518 39 0
10518 -10271 -39 0
-10519 10273 0
-10519 42 0
10519 -10273 -42 0
-10520 10275 0
-10520 46 0
10520 -10275 -46 0
-10521 10277 0
-10521 42 0
10521 -10277 -42 0
-10522 10279 0
-10522 39 0
10522 -10279 -39 0
-10523 10281 0
-10523 88 0
10523 -10281 -88 0
-10524 10283 0
-10524 94 0
10524 -10283 -94 0
-10525 10285 0
-10525 94 0
10525 -10285 -94 0
-10526 10287 0
-10526 88 0
10526 -10287 -88 0
-10527 10289 0
-10527 136 0
10527 -10289 -136 0
-10528 10291 0
-10528 142 0
10528 -10291 -142 0
-10529 10293 0
-10529 142 0
10529 -10293 -142 0
-10530 10295 0
-10530 136 0
10530 -10295 -136 0
-10531 10297 0
-10531 184 0
10531 -10297 -184 0
-10532 10299 0
-10532 183 0
10532 -10299 -183 0
-10533 10301 0
-10533 186 0
10533 -10301 -186 0
-10534 10517 10518 0
-10534 -10517 -10518 0
10534 -10517 10518 0
10534 10517 -10518 0
-10535 10534 10519 0
-10535 -10534 -10519 0
10535 -10534 10519 0
10535 10534 -10519 0
-10536 10535 10520 0
-10536 -10535 -10520 0
10536 -10535 10520 0
10536 10535 -10520 0
-10537 10536 10521 0
-10537 -10536 -10521 0
10537 -10536 10521 0
10537 10536 -10521 0
-10538 10537 10522 0
-10538 -10537 -10522 0
10538 -10537 10522 0
10538 10537 -10522 0
-10539 10538 10523 0
-10539 -10538 -10523 0
10539 -10538 10523 0
10539 10538 -10523 0
-10540 10539 10524 0
-10540 -10539 -10524 0
10540 -10539 10524 0
10540 10539 -10524 0
-10541 10540 10525 0
-10541 -10540 -10525 0
10541 -10540 10525 0
10541 10540 -10525 0
-10542 10541 10526 0
-10542 -10541 -10526 0
10542 -10541 10526 0
10542 10541 -10526 0
-10543 10542 10527 0
-10543 -10542 -10527 0
10543 -10542 10527 0
10543 10542 -10527 0
-10544 10543 10528 0
-10544 -10543 -10528 0
10544 -10543 10528 0
10544 10543 -10528 0
-10545 10544 10529 0
-10545 -10544 -10529 0
10545 -10544 10529 0
10545 10544 -10529 0
-10546 10545 10530 0
-10546 -10545 -10530 0
10546 -10545 10530 0
10546 10545 -10530 0
-10547 10546 10531 0
-10547 -10546 -10531 0
10547 -10546 10531 0
10547 10546 -10531 0
-10548 10547 10532 0
-10548 -10547 -10532 0
10548 -10547 10532 0
10548 10547 -10532 0
-10549 10548 10533 0
-10549 -10548 -10533 0
10549 -10548 10533 0
10549 10548 -10533 0
-10549 0
-10550 10269 0
-10550 41 0
10550 -10269 -41 0
-10551 10271 0
-10551 45 0
10551 -10271 -45 0
-10552 10273 0
-10552 45 0
10552 -10273 -45 0
-10553 10275 0
-10553 35 0
10553 -10275 -35 0
-10554 10277 0
-10554 36 0
10554 -10277 -36 0
-10555 10279 0
-10555 36 0
10555 -10279 -36 0
-10556 10281 0
-10556 89 0
10556 -10281 -89 0
-10557 10283 0
-10557 89 0
10557 -10283 -89 0
-10558 10285 0
-10558 83 0
10558 -10285 -83 0
-10559 10287 0
-10559 83 0
10559 -10287 -83 0
-10560 10289 0
-10560 137 0
10560 -10289 -137 0
-10561 10291 0
-10561 137 0
10561 -10291 -137 0
-10562 10293 0
-10562 131 0
10562 -10293 -131 0
-10563 10295 0
-10563 131 0
10563 -10295 -131 0
-10564 10297 0
-10564 185 0
10564 -10297 -185 0
-10565 10299 0
-10565 189 0
10565 -10299 -189 0
-10566 10301 0
-10566 189 0
10566 -10301 -189 0
-10567 10550 10551 0
-10567 -10550 -10551 0
10567 -10550 10551 0
10567 10550 -10551 0
-10568 10567 10552 0
-10568 -10567 -10552 0
10568 -10567 10552 0
10568 10567 -10552 0
-10569 10568 10553 0
-10569 -10568 -10553 0
10569 -10568 10553 0
10569 10568 -10553 0
-10570 10569 10554 0
-10570 -10569 -10554 0
10570 -10569 10554 0
10570 10569 -10554 0
-10571 10570 10555 0
-10571 -10570 -10555 0
10571 -10570 10555 0
10571 10570 -10555 0
-10572 10571 10556 0
-10572 -10571 -10556 0
10572 -10571 10556 0
10572 10571 -10556 0
-10573 10572 10557 0
-10573 -10572 -10557 0
10573 -10572 10557 0
10573 10572 -10557 0
-10574 10573 10558 0
-10574 -10573 -10558 0
10574 -10573 10558 0
10574 10573 -10558 0
-10575 10574 10559 0
-10575 -10574 -10559 0
10575 -10574 10559 0
10575 10574 -10559 0
-10576 10575 10560 0
-10576 -10575 -10560 0
10576 -10575 10560 0
10576 10575 -10560 0
-10577 10576 10561 0
-10577 -10576 -10561 0
10577 -10576 10561 0
10577 10576 -10561 0
-10578 10577 10562 0
-10578 -10577 -10562 0
10578 -10577 10562 0
10578 10577 -10562 0
-10579 10578 10563 0
-10579 -10578 -10563 0
10579 -10578 10563 0
10579 10578 -10563 0
-10580 10579 10564 0
-10580 -10579 -10564 0
10580 -10579 10564 0
10580 10579 -10564 0
-10581 10580 10565 0
-10581 -10580 -10565 0
10581 -10580 10565 0
10581 10580 -10565 0
-10582 10581 10566 0
-10582 -10581 -10566 0
10582 -10581 10566 0
10582 10581 -10566 0
-10582 0
-10583 10269 0
-10583 42 0
10583 -10269 -42 0
-10584 10271 0
-10584 46 0
10584 -10271 -46 0
-10585 10273 0
-10585 47 0
10585 -10273 -47 0
-10586 10275 0
-10586 39 0
10586 -10275 -39 0
-10587 10277 0
-10587 40 0
10587 -10277 -40 0
-10588 10279 0
-10588 44 0
10588 -10279 -44 0
-10589 10281 0
-10589 90 0
10589 -10281 -90 0
-10590 10283 0
-10590 92 0
10590 -10283 -92 0
-10591 10285 0
-10591 87 0
10591 -10285 -87 0
-10592 10287 0
-10592 95 0
10592 -10287 -95 0
-10593 10289 0
-10593 138 0
10593 -10289 -138 0
-10594 10291 0
-10594 140 0
10594 -10291 -140 0
-10595 10293 0
-10595 135 0
10595 -10293 -135 0
-10596 10295 0
-10596 143 0
10596 -10295 -143 0
-10597 10297 0
-10597 186 0
10597 -10297 -186 0
-10598 10299 0
-10598 190 0
10598 -10299 -190 0
-10599 10301 0
-10599 191 0
10599 -10301 -191 0
-10600 10583 10584 0
-10600 -10583 -10584 0
10600 -10583 10584 0
10600 10583 -10584 0
-10601 10600 10585 0
-10601 -10600 -10585 0
10601 -10600 10585 0
10601 10600 -10585 0
-10602 10601 10586 0
-10602 -10601 -10586 0
10602 -10601 10586 0
10602 10601 -10586 0
-10603 10602 10587 0
-10603 -10602 -10587 0
10603 -10602 10587 0
10603 10602 -10587 0
-10604 10603 10588 0
-10604 -10603 -10588 0
10604 -10603 10588 0
10604 10603 -10588 0
-10605 10604 10589 0
-10605 -10604 -10589 0
10605 -10604 10589 0
10605 10604 -10589 0
-10606 10605 10590 0
-10606 -10605 -10590 0
10606 -10605 10590 0
10606 10605 -10590 0
-10607 10606 10591 0
-10607 -10606 -10591 0
10607 -10606 10591 0
10607 10606 -10591 0
-10608 10607 10592 0
-10608 -10607 -10592 0
10608 -10607 10592 0
10608 10607 -10592 0
-10609 10608 10593 0
-10609 -10608 -10593 0
10609 -10608 10593 0
10609 10608 -10593 0
-10610 10609 10594 0
-10610 -10609 -10594 0
10610 -10609 10594 0
10610 10609 -10594 0
-10611 10610 10595 0
-10611 -10610 -10595 0
10611 -10610 10595 0
10611 10610 -10595 0
-10612 10611 10596 0
-10612 -10611 -10596 0
10612 -10611 10596 0
10612 10611 -10596 0
-10613 10612 10597 0
-10613 -10612 -10597 0
10613 -10612 10597 0
10613 10612 -10597 0
-10614 10613 10598 0
-10614 -10613 -10598 0
10614 -10613 10598 0
10614 10613 -10598 0
-10615 10614 10599 0
-10615 -10614 -10599 0
10615 -10614 10599 0
10615 10614 -10599 0
10615 0
-10616 10269 0
-10616 43 0
10616 -10269 -43 0
-10617 10271 0
-10617 48 0
10617 -10271 -48 0
-10618 10273 0
-10618 48 0
10618 -10273 -48 0
-10619 10275 0
-10619 43 0
10619 -10275 -43 0
-10620 10277 0
-10620 48 0
10620 -10277 -48 0
-10621 10279 0
-10621 48 0
10621 -10279 -48 0
-10622 10281 0
-10622 91 0
10622 -10281 -91 0
-10623 10283 0
-10623 91 0
10623 -10283 -91 0
-10624 10285 0
-10624 91 0
10624 -10285 -91 0
-10625 10287 0
-10625 91 0
10625 -10287 -91 0
-10626 10289 0
-10626 139 0
10626 -10289 -139 0
-10627 10291 0
-10627 139 0
10627 -10291 -139 0
-10628 10293 0
-10628 139 0
10628 -10293 -139 0
-10629 10295 0
-10629 139 0
10629 -10295 -139 0
-10630 10297 0
-10630 187 0
10630 -10297 -187 0
-10631 10299 0
-10631 192 0
10631 -10299 -192 0
-10632 10301 0
-10632 192 0
10632 -10301 -192 0
-10633 10616 10617 0
-10633 -10616 -10617 0
10633 -10616 10617 0
10633 10616 -10617 0
-10634 10633 10618 0
-10634 -10633 -10618 0
10634 -10633 10618 0
10634 10633 -10618 0
-10635 10634 10619 0
-10635 -10634 -10619 0
10635 -10634 10619 0
10635 10634 -10619 0
-10636 10635 10620 0
-10636 -10635 -10620 0
10636 -10635 10620 0
10636 10635 -10620 0
-10637 10636 10621 0
-10637 -10636 -10621 0
10637 -10636 10621 0
10637 10636 -10621 0
-10638 10637 10622 0
-10638 -10637 -10622 0
10638 -10637 10622 0
10638 10637 -10622 0
-10639 10638 10623 0
-10639 -10638 -10623 0
10639 -10638 10623 0
10639 10638 -10623 0
-10640 10639 10624 0
-10640 -10639 -10624 0
10640 -10639 10624 0
10640 10639 -10624 0
-10641 10640 10625 0
-10641 -10640 -10625 0
10641 -10640 10625 0
10641 10640 -10625 0
-10642 10641 10626 0
-10642 -10641 -10626 0
10642 -10641 10626 0
10642 10641 -10626 0
-10643 10642 10627 0
-10643 -10642 -10627 0
10643 -10642 10627 0
10643 10642 -10627 0
-10644 10643 10628 0
-10644 -10643 -10628 0
10644 -10643 10628 0
10644 10643 -10628 0
-10645 10644 10629 0
-10645 -10644 -10629 0
10645 -10644 10629 0
10645 10644 -10629 0
-10646 10645 10630 0
-10646 -10645 -10630 0
10646 -10645 10630 0
10646 10645 -10630 0
-10647 10646 10631 0
-10647 -10646 -10631 0
10647 -10646 10631 0
10647 10646 -10631 0
-10648 10647 10632 0
-10648 -10647 -10632 0
10648 -10647 10632 0
10648 10647 -10632 0
10648 0
-10649 10269 0
-10649 44 0
10649 -10269 -44 0
-10650 10271 0
-10650 47 0
10650 -10271 -47 0
-10651 10273 0
-10651 46 0
10651 -10273 -46 0
-10652 10275 0
-10652 47 0
10652 -10275 -47 0
-10653 10277 0
-10653 44 0
10653 -10277 -44 0
-10654 10279 0
-10654 40 0
10654 -10279 -40 0
-10655 10281 0
-10655 92 0
10655 -10281 -92 0
-10656 10283 0
-10656 90 0
10656 -10283 -90 0
-10657 10285 0
-10657 95 0
10657 -10285 -95 0
-10658 10287 0
-10658 87 0
10658 -10287 -87 0
-10659 10289 0
-10659 140 0
10659 -10289 -140 0
-10660 10291 0
-10660 138 0
10660 -10291 -138 0
-10661 10293 0
-10661 143 0
10661 -10293 -143 0
-10662 10295 0
-10662 135 0
10662 -10295 -135 0
-10663 10297 0
-10663 188 0
10663 -10297 -188 0
-10664 10299 0
-10664 191 0
10664 -10299 -191 0
-10665 10301 0
-10665 190 0
10665 -10301 -190 0
-10666 10649 10650 0
-10666 -10649 -10650 0
10666 -10649 10650 0
10666 10649 -10650 0
-10667 10666 10651 0
-10667 -10666 -10651 0
10667 -10666 10651 0
10667 10666 -10651 0
-10668 10667 10652 0
-10668 -10667 -10652 0
10668 -10667 10652 0
10668 10667 -10652 0
-10669 10668 10653 0
-10669 -10668 -10653 0
10669 -10668 10653 0
10669 10668 -10653 0
-10670 10669 10654 0
-10670 -10669 -10654 0
10670 -10669 10654 0
10670 10669 -10654 0
-10671 10670 10655 0
-10671 -10670 -10655 0
10671 -10670 10655 0
10671 10670 -10655 0
-10672 10671 10656 0
-10672 -10671 -10656 0
10672 -10671 10656 0
10672 10671 -10656 0
-10673 10672 10657 0
-10673 -10672 -10657 0
10673 -10672 10657 0
10673 10672 -10657 0
-10674 10673 10658 0
-10674 -10673 -10658 0
10674 -10673 10658 0
10674 10673 -10658 0
-10675 10674 10659 0
-10675 -10674 -10659 0
10675 -10674 10659 0
10675 10674 -10659 0
-10676 10675 10660 0
-10676 -10675 -10660 0
10676 -10675 10660 0
10676 10675 -10660 0
-10677 10676 10661 0
-10677 -10676 -10661 0
10677 -10676 10661 0
10677 10676 -10661 0
-10678 10677 10662 0
-10678 -10677 -10662 0
10678 -10677 10662 0
10678 10677 -10662 0
-10679 10678 10663 0
-10679 -10678 -10663 0
10679 -10678 10663 0
10679 10678 -10663 0
-10680 10679 10664 0
-10680 -10679 -10664 0
10680 -10679 10664 0
10680 10679 -10664 0
-10681 10680 10665 0
-10681 -10680 -10665 0
10681 -10680 10665 0
10681 10680 -10665 0
-10681 0
-10682 10269 0
-10682 45 0
10682 -10269 -45 0
-10683 10271 0
-10683 41 0
10683 -10271 -41 0
-10684 10273 0
-10684 37 0
10684 -10273 -37 0
-10685 10275 0
-10685 36 0
10685 -10275 -36 0
-10686 10277 0
-10686 35 0
10686 -10277 -35 0
-10687 10279 0
-10687 34 0
10687 -10279 -34 0
-10688 10281 0
-10688 93 0
10688 -10281 -93 0
-10689 10283 0
-10689 85 0
10689 -10283 -85 0
-10690 10285 0
-10690 84 0
10690 -10285 -84 0
-10691 10287 0
-10691 82 0
10691 -10287 -82 0
-10692 10289 0
-10692 141 0
10692 -10289 -141 0
-10693 10291 0
-10693 133 0
10693 -10291 -133 0
-10694 10293 0
-10694 132 0
10694 -10293 -132 0
-10695 10295 0
-10695 130 0
10695 -10295 -130 0
-10696 10297 0
-10696 189 0
10696 -10297 -189 0
-10697 10299 0
-10697 185 0
10697 -10299 -185 0
-10698 10301 0
-10698 181 0
10698 -10301 -181 0
-10699 10682 10683 0
-10699 -10682 -10683 0
10699 -10682 10683 0
10699 10682 -10683 0
-10700 10699 10684 0
-10700 -10699 -10684 0
10700 -10699 10684 0
10700 10699 -10684 0
-10701 10700 10685 0
-10701 -10700 -10685 0
10701 -10700 10685 0
10701 10700 -10685 0
-10702 10701 10686 0
-10702 -10701 -10686 0
10702 -10701 10686 0
10702 10701 -10686 0
-10703 10702 10687 0
-10703 -10702 -10687 0
10703 -10702 10687 0
10703 10702 -10687 0
-10704 10703 10688 0
-10704 -10703 -10688 0
10704 -10703 10688 0
10704 10703 -10688 0
-10705 10704 10689 0
-10705 -10704 -10689 0
10705 -10704 10689 0
10705 10704 -10689 0
-10706 10705 10690 0
-10706 -10705 -10690 0
10706 -10705 10690 0
10706 10705 -10690 0
-10707 10706 10691 0
-10707 -10706 -10691 0
10707 -10706 10691 0
10707 10706 -10691 0
-10708 10707 10692 0
-10708 -10707 -10692 0
10708 -10707 10692 0
10708 10707 -10692 0
-10709 10708 10693 0
-10709 -10708 -10693 0
10709 -10708 10693 0
10709 10708 -10693 0
-10710 10709 10694 0
-10710 -10709 -10694 0
10710 -10709 10694 0
10710 10709 -10694 0
-10711 10710 10695 0
-10711 -10710 -10695 0
10711 -10710 10695 0
10711 10710 -10695 0
-10712 10711 10696 0
-10712 -10711 -10696 0
10712 -10711 10696 0
10712 10711 -10696 0
-10713 10712 10697 0
-10713 -10712 -10697 0
10713 -10712 10697 0
10713 10712 -10697 0
-10714 10713 10698 0
-10714 -10713 -10698 0
10714 -10713 10698 0
10714 10713 -10698 0
-10714 0
-10715 10269 0
-10715 46 0
10715 -10269 -46 0
-10716 10271 0
-10716 42 0
10716 -10271 -42 0
-10717 10273 0
-10717 39 0
10717 -10273 -39 0
-10718 10275 0
-10718 40 0
10718 -10275 -40 0
-10719 10277 0
-10719 39 0
10719 -10277 -39 0
-10720 10279 0
-10720 42 0
10720 -10279 -42 0
-10721 10281 0
-10721 94 0
10721 -10281 -94 0
-10722 10283 0
-10722 88 0
10722 -10283 -88 0
-10723 10285 0
-10723 88 0
10723 -10285 -88 0
-10724 10287 0
-10724 94 0
10724 -10287 -94 0
-10725 10289 0
-10725 142 0
10725 -10289 -142 0
-10726 10291 0
-10726 136 0
10726 -10291 -136 0
-10727 10293 0
-10727 136 0
10727 -10293 -136 0
-10728 10295 0
-10728 142 0
10728 -10295 -142 0
-10729 10297 0
-10729 190 0
10729 -10297 -190 0
-10730 10299 0
-10730 186 0
10730 -10299 -186 0
-10731 10301 0
-10731 183 0
10731 -10301 -183 0
-10732 10715 10716 0
-10732 -10715 -10716 0
10732 -10715 10716 0
10732 10715 -10716 0
-10733 10732 10717 0
-10733 -10732 -10717 0
10733 -10732 10717 0
10733 10732 -10717 0
-10734 10733 10718 0
-10734 -10733 -10718 0
10734 -10733 10718 0
10734 10733 -10718 0
-10735 10734 10719 0
-10735 -10734 -10719 0
10735 -10734 10719 0
10735 10734 -10719 0
-10736 10735 10720 0
-10736 -10735 -10720 0
10736 -10735 10720 0
10736 10735 -10720 0
-10737 10736 10721 0
-10737 -10736 -10721 0
10737 -10736 10721 0
10737 10736 -10721 0
-10738 10737 10722 0
-10738 -10737 -10722 0
10738 -10737 10722 0
10738 10737 -10722 0
-10739 10738 10723 0
-10739 -10738 -10723 0
10739 -10738 10723 0
10739 10738 -10723 0
-10740 10739 10724 0
-10740 -10739 -10724 0
10740 -10739 10724 0
10740 10739 -10724 0
-10741 10740 10725 0
-10741 -10740 -10725 0
10741 -10740 10725 0
10741 10740 -10725 0
-10742 10741 10726 0
-10742 -10741 -10726 0
10742 -10741 10726 0
10742 10741 -10726 0
-10743 10742 10727 0
-10743 -10742 -10727 0
10743 -10742 10727 0
10743 10742 -10727 0
-10744 10743 10728 0
-10744 -10743 -10728 0
10744 -10743 10728 0
10744 10743 -10728 0
-10745 10744 10729 0
-10745 -10744 -10729 0
10745 -10744 10729 0
10745 10744 -10729 0
-10746 10745 10730 0
-10746 -10745 -10730 0
10746 -10745 10730 0
10746 10745 -10730 0
-10747 10746 10731 0
-10747 -10746 -10731 0
10747 -10746 10731 0
10747 10746 -10731 0
-10747 0
-10748 10269 0
-10748 47 0
10748 -10269 -47 0
-10749 10271 0
-10749 44 0
10749 -10271 -44 0
-10750 10273 0
-10750 40 0
10750 -10273 -40 0
-10751 10275 0
-10751 44 0
10751 -10275 -44 0
-10752 10277 0
-10752 47 0
10752 -10277 -47 0
-10753 10279 0
-10753 46 0
10753 -10279 -46 0
-10754 10281 0
-10754 95 0
10754 -10281 -95 0
-10755 10283 0
-10755 87 0
10755 -10283 -87 0
-10756 10285 0
-10756 92 0
10756 -10285 -92 0
-10757 10287 0
-10757 90 0
10757 -10287 -90 0
-10758 10289 0
-10758 143 0
10758 -10289 -143 0
-10759 10291 0
-10759 135 0
10759 -10291 -135 0
-10760 10293 0
-10760 140 0
10760 -10293 -140 0
-10761 10295 0
-10761 138 0
10761 -10295 -138 0
-10762 10297 0
-10762 191 0
10762 -10297 -191 0
-10763 10299 0
-10763 188 0
10763 -10299 -188 0
-10764 10301 0
-10764 184 0
10764 -10301 -184 0
-10765 10748 10749 0
-10765 -10748 -10749 0
10765 -10748 10749 0
10765 10748 -10749 0
-10766 10765 10750 0
-10766 -10765 -10750 0
10766 -10765 10750 0
10766 10765 -10750 0
-10767 10766 10751 0
-10767 -10766 -10751 0
10767 -10766 10751 0
10767 10766 -10751 0
-10768 10767 10752 0
-10768 -10767 -10752 0
10768 -10767 10752 0
10768 10767 -10752 0
-10769 10768 10753 0
-10769 -10768 -10753 0
10769 -10768 10753 0
10769 10768 -10753 0
-10770 10769 10754 0
-10770 -10769 -10754 0
10770 -10769 10754 0
10770 10769 -10754 0
-10771 10770 10755 0
-10771 -10770 -10755 0
10771 -10770 10755 0
10771 10770 -10755 0
-10772 10771 10756 0
-10772 -10771 -10756 0
10772 -10771 10756 0
10772 10771 -10756 0
-10773 10772 10757 0
-10773 -10772 -10757 0
10773 -10772 10757 0
10773 10772 -10757 0
-10774 10773 10758 0
-10774 -10773 -10758 0
10774 -10773 10758 0
10774 10773 -10758 0
-10775 10774 10759 0
-10775 -10774 -10759 0
10775 -10774 10759 0
10775 10774 -10759 0
-10776 10775 10760 0
-10776 -10775 -10760 0
10776 -10775 10760 0
10776 10775 -10760 0
-10777 10776 10761 0
-10777 -10776 -10761 0
10777 -10776 10761 0
10777 10776 -10761 0
-10778 10777 10762 0
-10778 -10777 -10762 0
10778 -10777 10762 0
10778 10777 -10762 0
-10779 10778 10763 0
-10779 -10778 -10763 0
10779 -10778 10763 0
10779 10778 -10763 0
-10780 10779 10764 0
-10780 -10779 -10764 0
10780 -10779 10764 0
10780 10779 -10764 0
-10780 0
-10781 10269 0
-10781 48 0
10781 -10269 -48 0
-10782 10271 0
-10782 43 0
10782 -10271 -43 0
-10783 10273 0
-10783 38 0
10783 -10273 -38 0
-10784 10275 0
-10784 48 0
10784 -10275 -48 0
-10785 10277 0
-10785 43 0
10785 -10277 -43 0
-10786 10279 0
-10786 38 0
10786 -10279 -38 0
-10787 10281 0
-10787 96 0
10787 -10281 -96 0
-10788 10283 0
-10788 86 0
10788 -10283 -86 0
-10789 10285 0
-10789 96 0
10789 -10285 -96 0
-10790 10287 0
-10790 86 0
10790 -10287 -86 0
-10791 10289 0
-10791 144 0
10791 -10289 -144 0
-10792 10291 0
-10792 134 0
10792 -10291 -134 0
-10793 10293 0
-10793 144 0
10793 -10293 -144 0
-10794 10295 0
-10794 134 0
10794 -10295 -134 0
-10795 10297 0
-10795 192 0
10795 -10297 -192 0
-10796 10299 0
-10796 187 0
10796 -10299 -187 0
-10797 10301 0
-10797 182 0
10797 -10301 -182 0
-10798 10781 10782 0
-10798 -10781 -10782 0
10798 -10781 10782 0
10798 10781 -10782 0
-10799 10798 10783 0
-10799 -10798 -10783 0
10799 -10798 10783 0
10799 10798 -10783 0
-10800 10799 10784 0
-10800 -10799 -10784 0
10800 -10799 10784 0
10800 10799 -10784 0
-10801 10800 10785 0
-10801 -10800 -10785 0
10801 -10800 10785 0
10801 10800 -10785 0
-10802 10801 10786 0
-10802 -10801 -10786 0
10802 -10801 10786 0
10802 10801 -10786 0
-10803 10802 10787 0
-10803 -10802 -10787 0
10803 -10802 10787 0
10803 10802 -10787 0
-10804 10803 10788 0
-10804 -10803 -10788 0
10804 -10803 10788 0
10804 10803 -10788 0
-10805 10804 10789 0
-10805 -10804 -10789 0
10805 -10804 10789 0
10805 10804 -10789 0
-10806 10805 10790 0
-10806 -10805 -10790 0
10806 -10805 10790 0
10806 10805 -10790 0
-10807 10806 10791 0
-10807 -10806 -10791 0
10807 -10806 10791 0
10807 10806 -10791 0
-10808 10807 10792 0
-10808 -10807 -10792 0
10808 -10807 10792 0
10808 10807 -10792 0
-10809 10808 10793 0
-10809 -10808 -10793 0
10809 -10808 10793 0
10809 10808 -10793 0
-10810 10809 10794 0
-10810 -10809 -10794 0
10810 -10809 10794 0
10810 10809 -10794 0
-10811 10810 10795 0
-10811 -10810 -10795 0
10811 -10810 10795 0
10811 10810 -10795 0
-10812 10811 10796 0
-10812 -10811 -10796 0
10812 -10811 10796 0
10812 10811 -10796 0
-10813 10812 10797 0
-10813 -10812 -10797 0
10813 -10812 10797 0
10813 10812 -10797 0
-10813 0
-10814 7 0
-10814 19 0
10814 -7 -19 0
-10815 10814 0
-10815 33 0
10815 -10814 -33 0
-10816 7 0
-10816 24 0
10816 -7 -24 0
-10817 10816 0
-10817 33 0
10817 -10816 -33 0
-10818 9 0
-10818 24 0
10818 -9 -24 0
-10819 10818 0
-10819 33 0
10819 -10818 -33 0
-10820 26 0
-10820 9 0
10820 -26 -9 0
-10821 10820 0
-10821 33 0
10821 -10820 -33 0
-10822 26 0
-10822 14 0
10822 -26 -14 0
-10823 10822 0
-10823 33 0
10823 -10822 -33 0
-10824 19 0
-10824 14 0
10824 -19 -14 0
-10825 10824 0
-10825 33 0
10825 -10824 -33 0
-10826 55 0
-10826 67 0
10826 -55 -67 0
-10827 10826 0
-10827 81 0
10827 -10826 -81 0
-10828 62 0
-10828 67 0
10828 -62 -67 0
-10829 10828 0
-10829 81 0
10829 -10828 -81 0
-10830 74 0
-10830 57 0
10830 -74 -57 0
-10831 10830 0
-10831 81 0
10831 -10830 -81 0
-10832 72 0
-10832 57 0
10832 -72 -57 0
-10833 10832 0
-10833 81 0
10833 -10832 -81 0
-10834 103 0
-10834 115 0
10834 -103 -115 0
-10835 10834 0
-10835 129 0
10835 -10834 -129 0
-10836 110 0
-10836 115 0
10836 -110 -115 0
-10837 10836 0
-10837 129 0
10837 -10836 -129 0
-10838 122 0
-10838 105 0
10838 -122 -105 0
-10839 10838 0
-10839 129 0
10839 -10838 -129 0
-10840 120 0
-10840 105 0
10840 -120 -105 0
-10841 10840 0
-10841 129 0
10841 -10840 -129 0
-10842 151 0
-10842 163 0
10842 -151 -163 0
-10843 10842 0
-10843 177 0
10843 -10842 -177 0
-10844 151 0
-10844 168 0
10844 -151 -168 0
-10845 10844 0
-10845 177 0
10845 -10844 -177 0
-10846 153 0
-10846 168 0
10846 -153 -168 0
-10847 10846 0
-10847 177 0
10847 -10846 -177 0
-10848 10815 10817 0
-10848 -10815 -10817 0
10848 -10815 10817 0
10848 10815 -10817 0
-10849 10848 10819 0
-10849 -10848 -10819 0
10849 -10848 10819 0
10849 10848 -10819 0
-10850 10849 10821 0
-10850 -10849 -10821 0
10850 -10849 10821 0
10850 10849 -10821 0
-10851 10850 10823 0
-10851 -10850 -10823 0
10851 -10850 10823 0
10851 10850 -10823 0
-10852 10851 10825 0
-10852 -10851 -10825 0
10852 -10851 10825 0
10852 10851 -10825 0
-10853 10852 10827 0
-10853 -10852 -10827 0
10853 -10852 10827 0
10853 10852 -10827 0
-10854 10853 10829 0
-10854 -10853 -10829 0
10854 -10853 10829 0
10854 10853 -10829 0
-10855 10854 10831 0
-10855 -10854 -10831 0
10855 -10854 10831 0
10855 10854 -10831 0
-10856 10855 10833 0
-10856 -10855 -10833 0
10856 -10855 10833 0
10856 10855 -10833 0
-10857 10856 10835 0
-10857 -10856 -10835 0
10857 -10856 10835 0
10857 10856 -10835 0
-10858 10857 10837 0
-10858 -10857 -10837 0
10858 -10857 10837 0
10858 10857 -10837 0
-10859 10858 10839 0
-10859 -10858 -10839 0
10859 -10858 10839 0
10859 10858 -10839 0
-10860 10859 10841 0
-10860 -10859 -10841 0
10860 -10859 10841 0
10860 10859 -10841 0
-10861 10860 10843 0
-10861 -10860 -10843 0
10861 -10860 10843 0
10861 10860 -10843 0
-10862 10861 10845 0
-10862 -10861 -10845 0
10862 -10861 10845 0
10862 10861 -10845 0
-10863 10862 10847 0
-10863 -10862 -10847 0
10863 -10862 10847 0
10863 10862 -10847 0
-10863 0
-10864 10814 0
-10864 34 0
10864 -10814 -34 0
-10865 10816 0
-10865 34 0
10865 -10816 -34 0
-10866 10818 0
-10866 35 0
10866 -10818 -35 0
-10867 10820 0
-10867 37 0
10867 -10820 -37 0
-10868 10822 0
-10868 37 0
10868 -10822 -37 0
-10869 10824 0
-10869 41 0
10869 -10824 -41 0
-10870 10826 0
-10870 82 0
10870 -10826 -82 0
-10871 10828 0
-10871 84 0
10871 -10828 -84 0
-10872 10830 0
-10872 85 0
10872 -10830 -85 0
-10873 10832 0
-10873 93 0
10873 -10832 -93 0
-10874 10834 0
-10874 130 0
10874 -10834 -130 0
-10875 10836 0
-10875 132 0
10875 -10836 -132 0
-10876 10838 0
-10876 133 0
10876 -10838 -133 0
-10877 10840 0
-10877 141 0
10877 -10840 -141 0
-10878 10842 0
-10878 178 0
10878 -10842 -178 0
-10879 10844 0
-10879 178 0
10879 -10844 -178 0
-10880 10846 0
-10880 179 0
10880 -10846 -179 0
-10881 10864 10865 0
-10881 -10864 -10865 0
10881 -10864 10865 0
10881 10864 -10865 0
-10882 10881 10866 0
-10882 -10881 -10866 0
10882 -10881 10866 0
10882 10881 -10866 0
-10883 10882 10867 0
-10883 -10882 -10867 0
10883 -10882 10867 0
10883 10882 -10867 0
-10884 10883 10868 0
-10884 -10883 -10868 0
10884 -10883 10868 0
10884 10883 -10868 0
-10885 10884 10869 0
-10885 -10884 -10869 0
10885 -10884 10869 0
10885 10884 -10869 0
-10886 10885 10870 0
-10886 -10885 -10870 0
10886 -10885 10870 0
10886 10885 -10870 0
-10887 10886 10871 0
-10887 -10886 -10871 0
10887 -10886 10871 0
10887 10886 -10871 0
-10888 10887 10872 0
-10888 -10887 -10872 0
10888 -10887 10872 0
10888 10887 -10872 0
-10889 10888 10873 0
-10889 -10888 -10873 0
10889 -10888 10873 0
10889 10888 -10873 0
-10890 10889 10874 0
-10890 -10889 -10874 0
10890 -10889 10874 0
10890 10889 -10874 0
-10891 10890 10875 0
-10891 -10890 -10875 0
10891 -10890 10875 0
10891 10890 -10875 0
-10892 10891 10876 0
-10892 -10891 -10876 0
10892 -10891 10876 0
10892 10891 -10876 0
-10893 10892 10877 0
-10893 -10892 -10877 0
10893 -10892 10877 0
10893 10892 -10877 0
-10894 10893 10878 0
-10894 -10893 -10878 0
10894 -10893 10878 0
10894 10893 -10878 0
-10895 10894 10879 0
-10895 -10894 -10879 0
10895 -10894 10879 0
10895 10894 -10879 0
-10896 10895 10880 0
-10896 -10895 -10880 0
10896 -10895 10880 0
10896 10895 -10880 0
10896 0
-10897 10814 0
-10897 35 0
10897 -10814 -35 0
-10898 10816 0
-10898 36 0
10898 -10816 -36 0
-10899 10818 0
-10899 36 0
10899 -10818 -36 0
-10900 10820 0
-10900 41 0
10900 -10820 -41 0
-10901 10822 0
-10901 45 0
10901 -10822 -45 0
-10902 10824 0
-10902 45 0
10902 -10824 -45 0
-10903 10826 0
-10903 83 0
10903 -10826 -83 0
-10904 10828 0
-10904 83 0
10904 -10828 -83 0
-10905 10830 0
-10905 89 0
10905 -10830 -89 0
-10906 10832 0
-10906 89 0
10906 -10832 -89 0
-10907 10834 0
-10907 131 0
10907 -10834 -131 0
-10908 10836 0
-10908 131 0
10908 -10836 -131 0
-10909 10838 0
-10909 137 0
10909 -10838 -137 0
-10910 10840 0
-10910 137 0
10910 -10840 -137 0
-10911 10842 0
-10911 179 0
10911 -10842 -179 0
-10912 10844 0
-10912 180 0
10912 -10844 -180 0
-10913 10846 0
-10913 180 0
10913 -10846 -180 0
-10914 10897 10898 0
-10914 -10897 -10898 0
10914 -10897 10898 0
10914 10897 -10898 0
-10915 10914 10899 0
-10915 -10914 -10899 0
10915 -10914 10899 0
10915 10914 -10899 0
-10916 10915 10900 0
-10916 -10915 -10900 0
10916 -10915 10900 0
10916 10915 -10900 0
-10917 10916 10901 0
-10917 -10916 -10901 0
10917 -10916 10901 0
10917 10916 -10901 0
-10918 10917 10902 0
-10918 -10917 -10902 0
10918 -10917 10902 0
10918 10917 -10902 0
-10919 10918 10903 0
-10919 -10918 -10903 0
10919 -10918 10903 0
10919 10918 -10903 0
-10920 10919 10904 0
-10920 -10919 -10904 0
10920 -10919 10904 0
10920 10919 -10904 0
-10921 10920 10905 0
-10921 -10920 -10905 0
10921 -10920 10905 0
10921 10920 -10905 0
-10922 10921 10906 0
-10922 -10921 -10906 0
10922 -10921 10906 0
10922 10921 -10906 0
-10923 10922 10907 0
-10923 -10922 -10907 0
10923 -10922 10907 0
10923 10922 -10907 0
-10924 10923 10908 0
-10924 -10923 -10908 0
10924 -10923 10908 0
10924 10923 -10908 0
-10925 10924 10909 0
-10925 -10924 -10909 0
10925 -10924 10909 0
10925 10924 -10909 0
-10926 10925 10910 0
-10926 -10925 -10910 0
10926 -10925 10910 0
10926 10925 -10910 0
-10927 10926 10911 0
-10927 -10926 -10911 0
10927 -10926 10911 0
10927 10926 -10911 0
-10928 10927 10912 0
-10928 -10927 -10912 0
10928 -10927 10912 0
10928 10927 -10912 0
-10929 10928 10913 0
-10929 -10928 -10913 0
10929 -10928 10913 0
10929 10928 -10913 0
-10929 0
-10930 10814 0
-10930 36 0
10930 -10814 -36 0
-10931 10816 0
-10931 35 0
10931 -10816 -35 0
-10932 10818 0
-10932 34 0
10932 -10818 -34 0
-10933 10820 0
-10933 45 0
10933 -10820 -45 0
-10934 10822 0
-10934 41 0
10934 -10822 -41 0
-10935 10824 0
-10935 37 0
10935 -10824 -37 0
-10936 10826 0
-10936 84 0
10936 -10826 -84 0
-10937 10828 0
-10937 82 0
10937 -10828 -82 0
-10938 10830 0
-10938 93 0
10938 -10830 -93 0
-10939 10832 0
-10939 85 0
10939 -10832 -85 0
-10940 10834 0
-10940 132 0
10940 -10834 -132 0
-10941 10836 0
-10941 130 0
10941 -10836 -130 0
-10942 10838 0
-10942 141 0
10942 -10838 -141 0
-10943 10840 0
-10943 133 0
10943 -10840 -133 0
-10944 10842 0
-10944 180 0
10944 -10842 -180 0
-10945 10844 0
-10945 179 0
10945 -10844 -179 0
-10946 10846 0
-10946 178 0
10946 -10846 -178 0
-10947 10930 10931 0
-10947 -10930 -10931 0
10947 -10930 10931 0
10947 10930 -10931 0
-10948 10947 10932 0
-10948 -10947 -10932 0
10948 -10947 10932 0
10948 10947 -10932 0
-10949 10948 10933 0
-10949 -10948 -10933 0
10949 -10948 10933 0
10949 10948 -10933 0
-10950 10949 10934 0
-10950 -10949 -10934 0
10950 -10949 10934 0
10950 10949 -10934 0
-10951 10950 10935 0
-10951 -10950 -10935 0
10951 -10950 10935 0
10951 10950 -10935 0
-10952 10951 10936 0
-10952 -10951 -10936 0
10952 -10951 10936 0
10952 10951 -10936 0
-10953 10952 10937 0
-10953 -10952 -10937 0
10953 -10952 10937 0
10953 10952 -10937 0
-10954 10953 10938 0
-10954 -10953 -10938 0
10954 -10953 10938 0
10954 10953 -10938 0
-10955 10954 10939 0
-10955 -10954 -10939 0
10955 -10954 10939 0
10955 10954 -10939 0
-10956 10955 10940 0
-10956 -10955 -10940 0
10956 -10955 10940 0
10956 10955 -10940 0
-10957 10956 10941 0
-10957 -10956 -10941 0
10957 -10956 10941 0
10957 10956 -10941 0
-10958 10957 10942 0
-10958 -10957 -10942 0
10958 -10957 10942 0
10958 10957 -10942 0
-10959 10958 10943 0
-10959 -10958 -10943 0
10959 -10958 10943 0
10959 10958 -10943 0
-10960 10959 10944 0
-10960 -10959 -10944 0
10960 -10959 10944 0
10960 10959 -10944 0
-10961 10960 10945 0
-10961 -10960 -10945 0
10961 -10960 10945 0
10961 10960 -10945 0
-10962 10961 10946 0
-10962 -10961 -10946 0
10962 -10961 10946 0
10962 10961 -10946 0
-10962 0
-10963 10814 0
-10963 38 0
10963 -10814 -38 0
-10964 10816 0
-10964 38 0
10964 -10816 -38 0
-10965 10818 0
-10965 43 0
10965 -10818 -43 0
-10966 10820 0
-10966 38 0
10966 -10820 -38 0
-10967 10822 0
-10967 38 0
10967 -10822 -38 0
-10968 10824 0
-10968 43 0
10968 -10824 -43 0
-10969 10826 0
-10969 86 0
10969 -10826 -86 0
-10970 10828 0
-10970 96 0
10970 -10828 -96 0
-10971 10830 0
-10971 86 0
10971 -10830 -86 0
-10972 10832 0
-10972 96 0
10972 -10832 -96 0
-10973 10834 0
-10973 134 0
10973 -10834 -134 0
-10974 10836 0
-10974 144 0
10974 -10836 -144 0
-10975 10838 0
-10975 134 0
10975 -10838 -134 0
-10976 10840 0
-10976 144 0
10976 -10840 -144 0
-10977 10842 0
-10977 182 0
10977 -10842 -182 0
-10978 10844 0
-10978 182 0
10978 -10844 -182 0
-10979 10846 0
-10979 187 0
10979 -10846 -187 0
-10980 10963 10964 0
-10980 -10963 -10964 0
10980 -10963 10964 0
10980 10963 -10964 0
-10981 10980 10965 0
-10981 -10980 -10965 0
10981 -10980 10965 0
10981 10980 -10965 0
-10982 10981 10966 0
-10982 -10981 -10966 0
10982 -10981 10966 0
10982 10981 -10966 0
-10983 10982 10967 0
-10983 -10982 -10967 0
10983 -10982 10967 0
10983 10982 -10967 0
-10984 10983 10968 0
-10984 -10983 -10968 0
10984 -10983 10968 0
10984 10983 -10968 0
-10985 10984 10969 0
-10985 -10984 -10969 0
10985 -10984 10969 0
10985 10984 -10969 0
-10986 10985 10970 0
-10986 -10985 -10970 0
10986 -10985 10970 0
10986 10985 -10970 0
-10987 10986 10971 0
-10987 -10986 -10971 0
10987 -10986 10971 0
10987 10986 -10971 0
-10988 10987 10972 0
-10988 -10987 -10972 0
10988 -10987 10972 0
10988 10987 -10972 0
-10989 10988 10973 0
-10989 -10988 -10973 0
10989 -10988 10973 0
10989 10988 -10973 0
-10990 10989 10974 0
-10990 -10989 -10974 0
10990 -10989 10974 0
10990 10989 -10974 0
-10991 10990 10975 0
-10991 -10990 -10975 0
10991 -10990 10975 0
10991 10990 -10975 0
-10992 10991 10976 0
-10992 -10991 -10976 0
10992 -10991 10976 0
10992 10991 -10976 0
-10993 10992 10977 0
-10993 -10992 -10977 0
10993 -10992 10977 0
10993 10992 -10977 0
-10994 10993 10978 0
-10994 -10993 -10978 0
10994 -10993 10978 0
10994 10993 -10978 0
-10995 10994 10979 0
-10995 -10994 -10979 0
10995 -10994 10979 0
10995 10994 -10979 0
-10995 0
-10996 10814 0
-10996 39 0
10996 -10814 -39 0
-10997 10816 0
-10997 40 0
10997 -10816 -40 0
-10998 10818 0
-10998 44 0
10998 -10818 -44 0
-10999 10820 0
-10999 42 0
10999 -10820 -42 0
-11000 10822 0
-11000 46 0
11000 -10822 -46 0
-11001 10824 0
-11001 47 0
11001 -10824 -47 0
-11002 10826 0
-11002 87 0
11002 -10826 -87 0
-11003 10828 0
-11003 95 0
11003 -10828 -95 0
-11004 10830 0
-11004 90 0
11004 -10830 -90 0
-11005 10832 0
-11005 92 0
11005 -10832 -92 0
-11006 10834 0
-11006 135 0
11006 -10834 -135 0
-11007 10836 0
-11007 143 0
11007 -10836 -143 0
-11008 10838 0
-11008 138 0
11008 -10838 -138 0
-11009 10840 0
-11009 140 0
11009 -10840 -140 0
-11010 10842 0
-11010 183 0
11010 -10842 -183 0
-11011 10844 0
-11011 184 0
11011 -10844 -184 0
-11012 10846 0
-11012 188 0
11012 -10846 -188 0
-11013 10996 10997 0
-11013 -10996 -10997 0
11013 -10996 10997 0
11013 10996 -10997 0
-11014 11013 10998 0
-11014 -11013 -10998 0
11014 -11013 10998 0
11014 11013 -10998 0
-11015 11014 10999 0
-11015 -11014 -10999 0
11015 -11014 10999 0
11015 11014 -10999 0
-11016 11015 11000 0
-11016 -11015 -11000 0
11016 -11015 11000 0
11016 11015 -11000 0
-11017 11016 11001 0
-11017 -11016 -11001 0
11017 -11016 11001 0
11017 11016 -11001 0
-11018 11017 11002 0
-11018 -11017 -11002 0
11018 -11017 11002 0
11018 11017 -11002 0
-11019 11018 11003 0
-11019 -11018 -11003 0
11019 -11018 11003 0
11019 11018 -11003 0
-11020 11019 11004 0
-11020 -11019 -11004 0
11020 -11019 11004 0
11020 11019 -11004 0
-11021 11020 11005 0
-11021 -11020 -11005 0
11021 -11020 11005 0
11021 11020 -11005 0
-11022 11021 11006 0
-11022 -11021 -11006 0
11022 -11021 11006 0
11022 11021 -11006 0
-11023 11022 11007 0
-11023 -11022 -11007 0
11023 -11022 11007 0
11023 11022 -11007 0
-11024 11023 11008 0
-11024 -11023 -11008 0
11024 -11023 11008 0
11024 11023 -11008 0
-11025 11024 11009 0
-11025 -11024 -11009 0
11025 -11024 11009 0
11025 11024 -11009 0
-11026 11025 11010 0
-11026 -11025 -11010 0
11026 -11025 11010 0
11026 11025 -11010 0
-11027 11026 11011 0
-11027 -11026 -11011 0
11027 -11026 11011 0
11027 11026 -11011 0
-11028 11027 11012 0
-11028 -11027 -11012 0
11028 -11027 11012 0
11028 11027 -11012 0
-11028 0
-11029 10814 0
-11029 40 0
11029 -10814 -40 0
-11030 10816 0
-11030 39 0
11030 -10816 -39 0
-11031 10818 0
-11031 42 0
11031 -10818 -42 0
-11032 10820 0
-11032 46 0
11032 -10820 -46 0
-11033 10822 0
-11033 42 0
11033 -10822 -42 0
-11034 10824 0
-11034 39 0
11034 -10824 -39 0
-11035 10826 0
-11035 88 0
11035 -10826 -88 0
-11036 10828 0
-11036 94 0
11036 -10828 -94 0
-11037 10830 0
-11037 94 0
11037 -10830 -94 0
-11038 10832 0
-11038 88 0
11038 -10832 -88 0
-11039 10834 0
-11039 136 0
11039 -10834 -136 0
-11040 10836 0
-11040 142 0
11040 -10836 -142 0
-11041 10838 0
-11041 142 0
11041 -10838 -142 0
-11042 10840 0
-11042 136 0
11042 -10840 -136 0
-11043 10842 0
-11043 184 0
11043 -10842 -184 0
-11044 10844 0
-11044 183 0
11044 -10844 -183 0
-11045 10846 0
-11045 186 0
11045 -10846 -186 0
-11046 11029 11030 0
-11046 -11029 -11030 0
11046 -11029 11030 0
11046 11029 -11030 0
-11047 11046 11031 0
-11047 -11046 -11031 0
11047 -11046 11031 0
11047 11046 -11031 0
-11048 11047 11032 0
-11048 -11047 -11032 0
11048 -11047 11032 0
11048 11047 -11032 0
-11049 11048 11033 0
-11049 -11048 -11033 0
11049 -11048 11033 0
11049 11048 -11033 0
-11050 11049 11034 0
-11050 -11049 -11034 0
11050 -11049 11034 0
11050 11049 -11034 0
-11051 11050 11035 0
-11051 -11050 -11035 0
11051 -11050 11035 0
11051 11050 -11035 0
-11052 11051 11036 0
-11052 -11051 -11036 0
11052 -11051 11036 0
11052 11051 -11036 0
-11053 11052 11037 0
-11053 -11052 -11037 0
11053 -11052 11037 0
11053 11052 -11037 0
-11054 11053 11038 0
-11054 -11053 -11038 0
11054 -11053 11038 0
11054 11053 -11038 0
-11055 11054 11039 0
-11055 -11054 -11039 0
11055 -11054 11039 0
11055 11054 -11039 0
-11056 11055 11040 0
-11056 -11055 -11040 0
11056 -11055 11040 0
11056 11055 -11040 0
-11057 11056 11041 0
-11057 -11056 -11041 0
11057 -11056 11041 0
11057 11056 -11041 0
-11058 11057 11042 0
-11058 -11057 -11042 0
11058 -11057 11042 0
11058 11057 -11042 0
-11059 11058 11043 0
-11059 -11058 -11043 0
11059 -11058 11043 0
11059 11058 -11043 0
-11060 11059 11044 0
-11060 -11059 -11044 0
11060 -11059 11044 0
11060 11059 -11044 0
-11061 11060 11045 0
-11061 -11060 -11045 0
11061 -11060 11045 0
11061 11060 -11045 0
-11061 0
-11062 10814 0
-11062 42 0
11062 -10814 -42 0
-11063 10816 0
-11063 46 0
11063 -10816 -46 0
-11064 10818 0
-11064 47 0
11064 -10818 -47 0
-11065 10820 0
-11065 39 0
11065 -10820 -39 0
-11066 10822 0
-11066 40 0
11066 -10822 -40 0
-11067 10824 0
-11067 44 0
11067 -10824 -44 0
-11068 10826 0
-11068 90 0
11068 -10826 -90 0
-11069 10828 0
-11069 92 0
11069 -10828 -92 0
-11070 10830 0
-11070 87 0
11070 -10830 -87 0
-11071 10832 0
-11071 95 0
11071 -10832 -95 0
-11072 10834 0
-11072 138 0
11072 -10834 -138 0
-11073 10836 0
-11073 140 0
11073 -10836 -140 0
-11074 10838 0
-11074 135 0
11074 -10838 -135 0
-11075 10840 0
-11075 143 0
11075 -10840 -143 0
-11076 10842 0
-11076 186 0
11076 -10842 -186 0
-11077 10844 0
-11077 190 0
11077 -10844 -190 0
-11078 10846 0
-11078 191 0
11078 -10846 -191 0
-11079 11062 11063 0
-11079 -11062 -11063 0
11079 -11062 11063 0
11079 11062 -11063 0
-11080 11079 11064 0
-11080 -11079 -11064 0
11080 -11079 11064 0
11080 11079 -11064 0
-11081 11080 11065 0
-11081 -11080 -11065 0
11081 -11080 11065 0
11081 11080 -11065 0
-11082 11081 11066 0
-11082 -11081 -11066 0
11082 -11081 11066 0
11082 11081 -11066 0
-11083 11082 11067 0
-11083 -11082 -11067 0
11083 -11082 11067 0
11083 11082 -11067 0
-11084 11083 11068 0
-11084 -11083 -11068 0
11084 -11083 11068 0
11084 11083 -11068 0
-11085 11084 11069 0
-11085 -11084 -11069 0
11085 -11084 11069 0
11085 11084 -11069 0
-11086 11085 11070 0
-11086 -11085 -11070 0
11086 -11085 11070 0
11086 11085 -11070 0
-11087 11086 11071 0
-11087 -11086 -11071 0
11087 -11086 11071 0
11087 11086 -11071 0
-11088 11087 11072 0
-11088 -11087 -11072 0
11088 -11087 11072 0
11088 11087 -11072 0
-11089 11088 11073 0
-11089 -11088 -11073 0
11089 -11088 11073 0
11089 11088 -11073 0
-11090 11089 11074 0
-11090 -11089 -11074 0
11090 -11089 11074 0
11090 11089 -11074 0
-11091 11090 11075 0
-11091 -11090 -11075 0
11091 -11090 11075 0
11091 11090 -11075 0
-11092 11091 11076 0
-11092 -11091 -11076 0
11092 -11091 11076 0
11092 11091 -11076 0
-11093 11092 11077 0
-11093 -11092 -11077 0
11093 -11092 11077 0
11093 11092 -11077 0
-11094 11093 11078 0
-11094 -11093 -11078 0
11094 -11093 11078 0
11094 11093 -11078 0
-11094 0
-11095 10814 0
-11095 44 0
11095 -10814 -44 0
-11096 10816 0
-11096 47 0
11096 -10816 -47 0
-11097 10818 0
-11097 46 0
11097 -10818 -46 0
-11098 10820 0
-11098 47 0
11098 -10820 -47 0
-11099 10822 0
-11099 44 0
11099 -10822 -44 0
-11100 10824 0
-11100 40 0
11100 -10824 -40 0
-11101 10826 0
-11101 92 0
11101 -10826 -92 0
-11102 10828 0
-11102 90 0
11102 -10828 -90 0
-11103 10830 0
-11103 95 0
11103 -10830 -95 0
-11104 10832 0
-11104 87 0
11104 -10832 -87 0
-11105 10834 0
-11105 140 0
11105 -10834 -140 0
-11106 10836 0
-11106 138 0
11106 -10836 -138 0
-11107 10838 0
-11107 143 0
11107 -10838 -143 0
-11108 10840 0
-11108 135 0
11108 -10840 -135 0
-11109 10842 0
-11109 188 0
11109 -10842 -188 0
-11110 10844 0
-11110 191 0
11110 -10844 -191 0
-11111 10846 0
-11111 190 0
11111 -10846 -190 0
-11112 11095 11096 0
-11112 -11095 -11096 0
11112 -11095 11096 0
11112 11095 -11096 0
-11113 11112 11097 0
-11113 -11112 -11097 0
11113 -11112 11097 0
11113 11112 -11097 0
-11114 11113 11098 0
-11114 -11113 -11098 0
11114 -11113 11098 0
11114 11113 -11098 0
-11115 11114 11099 0
-11115 -11114 -11099 0
11115 -11114 11099 0
11115 11114 -11099 0
-11116 11115 11100 0
-11116 -11115 -11100 0
11116 -11115 11100 0
11116 11115 -11100 0
-11117 11116 11101 0
-11117 -11116 -11101 0
11117 -11116 11101 0
11117 11116 -11101 0
-11118 11117 11102 0
-11118 -11117 -11102 0
11118 -11117 11102 0
11118 11117 -11102 0
-11119 11118 11103 0
-11119 -11118 -11103 0
11119 -11118 11103 0
11119 11118 -11103 0
-11120 11119 11104 0
-11120 -11119 -11104 0
11120 -11119 11104 0
11120 11119 -11104 0
-11121 11120 11105 0
-11121 -11120 -11105 0
11121 -11120 11105 0
11121 11120 -11105 0
-11122 11121 11106 0
-11122 -11121 -11106 0
11122 -11121 11106 0
11122 11121 -11106 0
-11123 11122 11107 0
-11123 -11122 -11107 0
11123 -11122 11107 0
11123 11122 -11107 0
-11124 11123 11108 0
-11124 -11123 -11108 0
11124 -11123 11108 0
11124 11123 -11108 0
-11125 11124 11109 0
-11125 -11124 -11109 0
11125 -11124 11109 0
11125 11124 -11109 0
-11126 11125 11110 0
-11126 -11125 -11110 0
11126 -11125 11110 0
11126 11125 -11110 0
-11127 11126 11111 0
-11127 -11126 -11111 0
11127 -11126 11111 0
11127 11126 -11111 0
-11127 0
-11128 10814 0
-11128 48 0
11128 -10814 -48 0
-11129 10816 0
-11129 43 0
11129 -10816 -43 0
-11130 10818 0
-11130 38 0
11130 -10818 -38 0
-11131 10820 0
-11131 48 0
11131 -10820 -48 0
-11132 10822 0
-11132 43 0
11132 -10822 -43 0
-11133 10824 0
-11133 38 0
11133 -10824 -38 0
-11134 10826 0
-11134 96 0
11134 -10826 -96 0
-11135 10828 0
-11135 86 0
11135 -10828 -86 0
-11136 10830 0
-11136 96 0
11136 -10830 -96 0
-11137 10832 0
-11137 86 0
11137 -10832 -86 0
-11138 10834 0
-11138 144 0
11138 -10834 -144 0
-11139 10836 0
-11139 134 0
11139 -10836 -134 0
-11140 10838 0
-11140 144 0
11140 -10838 -144 0
-11141 10840 0
-11141 134 0
11141 -10840 -134 0
-11142 10842 0
-11142 192 0
11142 -10842 -192 0
-11143 10844 0
-11143 187 0
11143 -10844 -187 0
-11144 10846 0
-11144 182 0
11144 -10846 -182 0
-11145 11128 11129 0
-11145 -11128 -11129 0
11145 -11128 11129 0
11145 11128 -11129 0
-11146 11145 11130 0
-11146 -11145 -11130 0
11146 -11145 11130 0
11146 11145 -11130 0
-11147 11146 11131 0
-11147 -11146 -11131 0
11147 -11146 11131 0
11147 11146 -11131 0
-11148 11147 11132 0
-11148 -11147 -11132 0
11148 -11147 11132 0
11148 11147 -11132 0
-11149 11148 11133 0
-11149 -11148 -11133 0
11149 -11148 11133 0
11149 11148 -11133 0
-11150 11149 11134 0
-11150 -11149 -11134 0
11150 -11149 11134 0
11150 11149 -11134 0
-11151 11150 11135 0
-11151 -11150 -11135 0
11151 -11150 11135 0
11151 11150 -11135 0
-11152 11151 11136 0
-11152 -11151 -11136 0
11152 -11151 11136 0
11152 11151 -11136 0
-11153 11152 11137 0
-11153 -11152 -11137 0
11153 -11152 11137 0
11153 11152 -11137 0
-11154 11153 11138 0
-11154 -11153 -11138 0
11154 -11153 11138 0
11154 11153 -11138 0
-11155 11154 11139 0
-11155 -11154 -11139 0
11155 -11154 11139 0
11155 11154 -11139 0
-11156 11155 11140 0
-11156 -11155 -11140 0
11156 -11155 11140 0
11156 11155 -11140 0
-11157 11156 11141 0
-11157 -11156 -11141 0
11157 -11156 11141 0
11157 11156 -11141 0
-11158 11157 11142 0
-11158 -11157 -11142 0
11158 -11157 11142 0
11158 11157 -11142 0
-11159 11158 11143 0
-11159 -11158 -11143 0
11159 -11158 11143 0
11159 11158 -11143 0
-11160 11159 11144 0
-11160 -11159 -11144 0
11160 -11159 11144 0
11160 11159 -11144 0
-11160 0
-11161 7 0
-11161 26 0
11161 -7 -26 0
-11162 11161 0
-11162 33 0
11162 -11161 -33 0
-11163 9 0
-11163 19 0
11163 -9 -19 0
-11164 11163 0
-11164 33 0
11164 -11163 -33 0
-11165 55 0
-11165 74 0
11165 -55 -74 0
-11166 11165 0
-11166 81 0
11166 -11165 -81 0
-11167 62 0
-11167 72 0
11167 -62 -72 0
-11168 11167 0
-11168 81 0
11168 -11167 -81 0
-11169 103 0
-11169 122 0
11169 -103 -122 0
-11170 11169 0
-11170 129 0
11170 -11169 -129 0
-11171 110 0
-11171 120 0
11171 -110 -120 0
-11172 11171 0
-11172 129 0
11172 -11171 -129 0
-11173 151 0
-11173 170 0
11173 -151 -170 0
-11174 11173 0
-11174 177 0
11174 -11173 -177 0
-11175 153 0
-11175 163 0
11175 -153 -163 0
-11176 11175 0
-11176 177 0
11176 -11175 -177 0
-11177 11162 11162 0
-11177 -11162 -11162 0
11177 -11162 11162 0
11177 11162 -11162 0
-11178 11177 11164 0
-11178 -11177 -11164 0
11178 -11177 11164 0
11178 11177 -11164 0
-11179 11178 11162 0
-11179 -11178 -11162 0
11179 -11178 11162 0
11179 11178 -11162 0
-11180 11179 11162 0
-11180 -11179 -11162 0
11180 -11179 11162 0
11180 11179 -11162 0
-11181 11180 11164 0
-11181 -11180 -11164 0
11181 -11180 11164 0
11181 11180 -11164 0
-11182 11181 11166 0
-11182 -11181 -11166 0
11182 -11181 11166 0
11182 11181 -11166 0
-11183 11182 11168 0
-11183 -11182 -11168 0
11183 -11182 11168 0
11183 11182 -11168 0
-11184 11183 11166 0
-11184 -11183 -11166 0
11184 -11183 11166 0
11184 11183 -11166 0
-11185 11184 11168 0
-11185 -11184 -11168 0
11185 -11184 11168 0
11185 11184 -11168 0
-11186 11185 11170 0
-11186 -11185 -11170 0
11186 -11185 11170 0
11186 11185 -11170 0
-11187 11186 11172 0
-11187 -11186 -11172 0
11187 -11186 11172 0
11187 11186 -11172 0
-11188 11187 11170 0
-11188 -11187 -11170 0
11188 -11187 11170 0
11188 11187 -11170 0
-11189 11188 11172 0
-11189 -11188 -11172 0
11189 -11188 11172 0
11189 11188 -11172 0
-11190 11189 11174 0
-11190 -11189 -11174 0
11190 -11189 11174 0
11190 11189 -11174 0
-11191 11190 11174 0
-11191 -11190 -11174 0
11191 -11190 11174 0
11191 11190 -11174 0
-11192 11191 11176 0
-11192 -11191 -11176 0
11192 -11191 11176 0
11192 11191 -11176 0
-11192 0
-11193 11161 0
-11193 34 0
11193 -11161 -34 0
-11194 11163 0
-11194 35 0
11194 -11163 -35 0
-11195 11161 0
-11195 37 0
11195 -11161 -37 0
-11196 11163 0
-11196 41 0
11196 -11163 -41 0
-11197 11165 0
-11197 82 0
11197 -11165 -82 0
-11198 11167 0
-11198 84 0
11198 -11167 -84 0
-11199 11165 0
-11199 85 0
11199 -11165 -85 0
-11200 11167 0
-11200 93 0
11200 -11167 -93 0
-11201 11169 0
-11201 130 0
11201 -11169 -130 0
-11202 11171 0
-11202 132 0
11202 -11171 -132 0
-11203 11169 0
-11203 133 0
11203 -11169 -133 0
-11204 11171 0
-11204 141 0
11204 -11171 -141 0
-11205 11173 0
-11205 178 0
11205 -11173 -178 0
-11206 11175 0
-11206 179 0
11206 -11175 -179 0
-11207 11193 11193 0
-11207 -11193 -11193 0
11207 -11193 11193 0
11207 11193 -11193 0
-11208 11207 11194 0
-11208 -11207 -11194 0
11208 -11207 11194 0
11208 11207 -11194 0
-11209 11208 11195 0
-11209 -11208 -11195 0
11209 -11208 11195 0
11209 11208 -11195 0
-11210 11209 11195 0
-11210 -11209 -11195 0
11210 -11209 11195 0
11210 11209 -11195 0
-11211 11210 11196 0
-11211 -11210 -11196 0
11211 -11210 11196 0
11211 11210 -11196 0
-11212 11211 11197 0
-11212 -11211 -11197 0
11212 -11211 11197 0
11212 11211 -11197 0
-11213 11212 11198 0
-11213 -11212 -11198 0
11213 -11212 11198 0
11213 11212 -11198 0
-11214 11213 11199 0
-11214 -11213 -11199 0
11214 -11213 11199 0
11214 11213 -11199 0
-11215 11214 11200 0
-11215 -11214 -11200 0
11215 -11214 11200 0
11215 11214 -11200 0
-11216 11215 11201 0
-11216 -11215 -11201 0
11216 -11215 11201 0
11216 11215 -11201 0
-11217 11216 11202 0
-11217 -11216 -11202 0
11217 -11216 11202 0
11217 11216 -11202 0
-11218 11217 11203 0
-11218 -11217 -11203 0
11218 -11217 11203 0
11218 11217 -11203 0
-11219 11218 11204 0
-11219 -11218 -11204 0
11219 -11218 11204 0
11219 11218 -11204 0
-11220 11219 11205 0
-11220 -11219 -11205 0
11220 -11219 11205 0
11220 11219 -11205 0
-11221 11220 11205 0
-11221 -11220 -11205 0
11221 -11220 11205 0
11221 11220 -11205 0
-11222 11221 11206 0
-11222 -11221 -11206 0
11222 -11221 11206 0
11222 11221 -11206 0
-11222 0
-11223 11161 0
-11223 35 0
11223 -11161 -35 0
-11224 11161 0
-11224 36 0
11224 -11161 -36 0
-11225 11163 0
-11225 36 0
11225 -11163 -36 0
-11226 11161 0
-11226 41 0
11226 -11161 -41 0
-11227 11161 0
-11227 45 0
11227 -11161 -45 0
-11228 11163 0
-11228 45 0
11228 -11163 -45 0
-11229 11165 0
-11229 83 0
11229 -11165 -83 0
-11230 11167 0
-11230 83 0
11230 -11167 -83 0
-11231 11165 0
-11231 89 0
11231 -11165 -89 0
-11232 11167 0
-11232 89 0
11232 -11167 -89 0
-11233 11169 0
-11233 131 0
11233 -11169 -131 0
-11234 11171 0
-11234 131 0
11234 -11171 -131 0
-11235 11169 0
-11235 137 0
11235 -11169 -137 0
-11236 11171 0
-11236 137 0
11236 -11171 -137 0
-11237 11173 0
-11237 179 0
11237 -11173 -179 0
-11238 11173 0
-11238 180 0
11238 -11173 -180 0
-11239 11175 0
-11239 180 0
11239 -11175 -180 0
-11240 11223 11224 0
-11240 -11223 -11224 0
11240 -11223 11224 0
11240 11223 -11224 0
-11241 11240 11225 0
-11241 -11240 -11225 0
11241 -11240 11225 0
11241 11240 -11225 0
-11242 11241 11226 0
-11242 -11241 -11226 0
11242 -11241 11226 0
11242 11241 -11226 0
-11243 11242 11227 0
-11243 -11242 -11227 0
11243 -11242 11227 0
11243 11242 -11227 0
-11244 11243 11228 0
-11244 -11243 -11228 0
11244 -11243 11228 0
11244 11243 -11228 0
-11245 11244 11229 0
-11245 -11244 -11229 0
11245 -11244 11229 0
11245 11244 -11229 0
-11246 11245 11230 0
-11246 -11245 -11230 0
11246 -11245 11230 0
11246 11245 -11230 0
-11247 11246 11231 0
-11247 -11246 -11231 0
11247 -11246 11231 0
11247 11246 -11231 0
-11248 11247 11232 0
-11248 -11247 -11232 0
11248 -11247 11232 0
11248 11247 -11232 0
-11249 11248 11233 0
-11249 -11248 -11233 0
11249 -11248 11233 0
11249 11248 -11233 0
-11250 11249 11234 0
-11250 -11249 -11234 0
11250 -11249 11234 0
11250 11249 -11234 0
-11251 11250 11235 0
-11251 -11250 -11235 0
11251 -11250 11235 0
11251 11250 -11235 0
-11252 11251 11236 0
-11252 -11251 -11236 0
11252 -11251 11236 0
11252 11251 -11236 0
-11253 11252 11237 0
-11253 -11252 -11237 0
11253 -11252 11237 0
11253 11252 -11237 0
-11254 11253 11238 0
-11254 -11253 -11238 0
11254 -11253 11238 0
11254 11253 -11238 0
-11255 11254 11239 0
-11255 -11254 -11239 0
11255 -11254 11239 0
11255 11254 -11239 0
-11255 0
-11256 11161 0
-11256 38 0
11256 -11161 -38 0
-11257 11163 0
-11257 43 0
11257 -11163 -43 0
-11258 11165 0
-11258 86 0
11258 -11165 -86 0
-11259 11167 0
-11259 96 0
11259 -11167 -96 0
-11260 11169 0
-11260 134 0
11260 -11169 -134 0
-11261 11171 0
-11261 144 0
11261 -11171 -144 0
-11262 11173 0
-11262 182 0
11262 -11173 -182 0
-11263 11175 0
-11263 187 0
11263 -11175 -187 0
-11264 11256 11256 0
-11264 -11256 -11256 0
11264 -11256 11256 0
11264 11256 -11256 0
-11265 11264 11257 0
-11265 -11264 -11257 0
11265 -11264 11257 0
11265 11264 -11257 0
-11266 11265 11256 0
-11266 -11265 -11256 0
11266 -11265 11256 0
11266 11265 -11256 0
-11267 11266 11256 0
-11267 -11266 -11256 0
11267 -11266 11256 0
11267 11266 -11256 0
-11268 11267 11257 0
-11268 -11267 -11257 0
11268 -11267 11257 0
11268 11267 -11257 0
-11269 11268 11258 0
-11269 -11268 -11258 0
11269 -11268 11258 0
11269 11268 -11258 0
-11270 11269 11259 0
-11270 -11269 -11259 0
11270 -11269 11259 0
11270 11269 -11259 0
-11271 11270 11258 0
-11271 -11270 -11258 0
11271 -11270 11258 0
11271 11270 -11258 0
-11272 11271 11259 0
-11272 -11271 -11259 0
11272 -11271 11259 0
11272 11271 -11259 0
-11273 11272 11260 0
-11273 -11272 -11260 0
11273 -11272 11260 0
11273 11272 -11260 0
-11274 11273 11261 0
-11274 -11273 -11261 0
11274 -11273 11261 0
11274 11273 -11261 0
-11275 11274 11260 0
-11275 -11274 -11260 0
11275 -11274 11260 0
11275 11274 -11260 0
-11276 11275 11261 0
-11276 -11275 -11261 0
11276 -11275 11261 0
11276 11275 -11261 0
-11277 11276 11262 0
-11277 -11276 -11262 0
11277 -11276 11262 0
11277 11276 -11262 0
-11278 11277 11262 0
-11278 -11277 -11262 0
11278 -11277 11262 0
11278 11277 -11262 0
-11279 11278 11263 0
-11279 -11278 -11263 0
11279 -11278 11263 0
11279 11278 -11263 0
-11279 0
-11280 11161 0
-11280 39 0
11280 -11161 -39 0
-11281 11161 0
-11281 40 0
11281 -11161 -40 0
-11282 11163 0
-11282 44 0
11282 -11163 -44 0
-11283 11161 0
-11283 42 0
11283 -11161 -42 0
-11284 11161 0
-11284 46 0
11284 -11161 -46 0
-11285 11163 0
-11285 47 0
11285 -11163 -47 0
-11286 11165 0
-11286 87 0
11286 -11165 -87 0
-11287 11167 0
-11287 95 0
11287 -11167 -95 0
-11288 11165 0
-11288 90 0
11288 -11165 -90 0
-11289 11167 0
-11289 92 0
11289 -11167 -92 0
-11290 11169 0
-11290 135 0
11290 -11169 -135 0
-11291 11171 0
-11291 143 0
11291 -11171 -143 0
-11292 11169 0
-11292 138 0
11292 -11169 -138 0
-11293 11171 0
-11293 140 0
11293 -11171 -140 0
-11294 11173 0
-11294 183 0
11294 -11173 -183 0
-11295 11173 0
-11295 184 0
11295 -11173 -184 0
-11296 11175 0
-11296 188 0
11296 -11175 -188 0
-11297 11280 11281 0
-11297 -11280 -11281 0
11297 -11280 11281 0
11297 11280 -11281 0
-11298 11297 11282 0
-11298 -11297 -11282 0
11298 -11297 11282 0
11298 11297 -11282 0
-11299 11298 11283 0
-11299 -11298 -11283 0
11299 -11298 11283 0
11299 11298 -11283 0
-11300 11299 11284 0
-11300 -11299 -11284 0
11300 -11299 11284 0
11300 11299 -11284 0
-11301 11300 11285 0
-11301 -11300 -11285 0
11301 -11300 11285 0
11301 11300 -11285 0
-11302 11301 11286 0
-11302 -11301 -11286 0
11302 -11301 11286 0
11302 11301 -11286 0
-11303 11302 11287 0
-11303 -11302 -11287 0
11303 -11302 11287 0
11303 11302 -11287 0
-11304 11303 11288 0
-11304 -11303 -11288 0
11304 -11303 11288 0
11304 11303 -11288 0
-11305 11304 11289 0
-11305 -11304 -11289 0
11305 -11304 11289 0
11305 11304 -11289 0
-11306 11305 11290 0
-11306 -11305 -11290 0
11306 -11305 11290 0
11306 11305 -11290 0
-11307 11306 11291 0
-11307 -11306 -11291 0
11307 -11306 11291 0
11307 11306 -11291 0
-11308 11307 11292 0
-11308 -11307 -11292 0
11308 -11307 11292 0
11308 11307 -11292 0
-11309 11308 11293 0
-11309 -11308 -11293 0
11309 -11308 11293 0
11309 11308 -11293 0
-11310 11309 11294 0
-11310 -11309 -11294 0
11310 -11309 11294 0
11310 11309 -11294 0
-11311 11310 11295 0
-11311 -11310 -11295 0
11311 -11310 11295 0
11311 11310 -11295 0
-11312 11311 11296 0
-11312 -11311 -11296 0
11312 -11311 11296 0
11312 11311 -11296 0
-11312 0
-11313 11161 0
-11313 43 0
11313 -11161 -43 0
-11314 11161 0
-11314 48 0
11314 -11161 -48 0
-11315 11163 0
-11315 48 0
11315 -11163 -48 0
-11316 11165 0
-11316 91 0
11316 -11165 -91 0
-11317 11167 0
-11317 91 0
11317 -11167 -91 0
-11318 11169 0
-11318 139 0
11318 -11169 -139 0
-11319 11171 0
-11319 139 0
11319 -11171 -139 0
-11320 11173 0
-11320 187 0
11320 -11173 -187 0
-11321 11173 0
-11321 192 0
11321 -11173 -192 0
-11322 11175 0
-11322 192 0
11322 -11175 -192 0
-11323 11313 11314 0
-11323 -11313 -11314 0
11323 -11313 11314 0
11323 11313 -11314 0
-11324 11323 11315 0
-11324 -11323 -11315 0
11324 -11323 11315 0
11324 11323 -11315 0
-11325 11324 11313 0
-11325 -11324 -11313 0
11325 -11324 11313 0
11325 11324 -11313 0
-11326 11325 11314 0
-11326 -11325 -11314 0
11326 -11325 11314 0
11326 11325 -11314 0
-11327 11326 11315 0
-11327 -11326 -11315 0
11327 -11326 11315 0
11327 11326 -11315 0
-11328 11327 11316 0
-11328 -11327 -11316 0
11328 -11327 11316 0
11328 11327 -11316 0
-11329 11328 11317 0
-11329 -11328 -11317 0
11329 -11328 11317 0
11329 11328 -11317 0
-11330 11329 11316 0
-11330 -11329 -11316 0
11330 -11329 11316 0
11330 11329 -11316 0
-11331 11330 11317 0
-11331 -11330 -11317 0
11331 -11330 11317 0
11331 11330 -11317 0
-11332 11331 11318 0
-11332 -11331 -11318 0
11332 -11331 11318 0
11332 11331 -11318 0
-11333 11332 11319 0
-11333 -11332 -11319 0
11333 -11332 11319 0
11333 11332 -11319 0
-11334 11333 11318 0
-11334 -11333 -11318 0
11334 -11333 11318 0
11334 11333 -11318 0
-11335 11334 11319 0
-11335 -11334 -11319 0
11335 -11334 11319 0
11335 11334 -11319 0
-11336 11335 11320 0
-11336 -11335 -11320 0
11336 -11335 11320 0
11336 11335 -11320 0
-11337 11336 11321 0
-11337 -11336 -11321 0
11337 -11336 11321 0
11337 11336 -11321 0
-11338 11337 11322 0
-11338 -11337 -11322 0
11338 -11337 11322 0
11338 11337 -11322 0
-11338 0
-11339 11161 0
-11339 44 0
11339 -11161 -44 0
-11340 11161 0
-11340 47 0
11340 -11161 -47 0
-11341 11163 0
-11341 46 0
11341 -11163 -46 0
-11342 11163 0
-11342 40 0
11342 -11163 -40 0
-11343 11165 0
-11343 92 0
11343 -11165 -92 0
-11344 11167 0
-11344 90 0
11344 -11167 -90 0
-11345 11165 0
-11345 95 0
11345 -11165 -95 0
-11346 11167 0
-11346 87 0
11346 -11167 -87 0
-11347 11169 0
-11347 140 0
11347 -11169 -140 0
-11348 11171 0
-11348 138 0
11348 -11171 -138 0
-11349 11169 0
-11349 143 0
11349 -11169 -143 0
-11350 11171 0
-11350 135 0
11350 -11171 -135 0
-11351 11173 0
-11351 188 0
11351 -11173 -188 0
-11352 11173 0
-11352 191 0
11352 -11173 -191 0
-11353 11175 0
-11353 190 0
11353 -11175 -190 0
-11354 11339 11340 0
-11354 -11339 -11340 0
11354 -11339 11340 0
11354 11339 -11340 0
-11355 11354 11341 0
-11355 -11354 -11341 0
11355 -11354 11341 0
11355 11354 -11341 0
-11356 11355 11340 0
-11356 -11355 -11340 0
11356 -11355 11340 0
11356 11355 -11340 0
-11357 11356 11339 0
-11357 -11356 -11339 0
11357 -11356 11339 0
11357 11356 -11339 0
-11358 11357 11342 0
-11358 -11357 -11342 0
11358 -11357 11342 0
11358 11357 -11342 0
-11359 11358 11343 0
-11359 -11358 -11343 0
11359 -11358 11343 0
11359 11358 -11343 0
-11360 11359 11344 0
-11360 -11359 -11344 0
11360 -11359 11344 0
11360 11359 -11344 0
-11361 11360 11345 0
-11361 -11360 -11345 0
11361 -11360 11345 0
11361 11360 -11345 0
-11362 11361 11346 0
-11362 -11361 -11346 0
11362 -11361 11346 0
11362 11361 -11346 0
-11363 11362 11347 0
-11363 -11362 -11347 0
11363 -11362 11347 0
11363 11362 -11347 0
-11364 11363 11348 0
-11364 -11363 -11348 0
11364 -11363 11348 0
11364 11363 -11348 0
-11365 11364 11349 0
-11365 -11364 -11349 0
11365 -11364 11349 0
11365 11364 -11349 0
-11366 11365 11350 0
-11366 -11365 -11350 0
11366 -11365 11350 0
11366 11365 -11350 0
-11367 11366 11351 0
-11367 -11366 -11351 0
11367 -11366 11351 0
11367 11366 -11351 0
-11368 11367 11352 0
-11368 -11367 -11352 0
11368 -11367 11352 0
11368 11367 -11352 0
-11369 11368 11353 0
-11369 -11368 -11353 0
11369 -11368 11353 0
11369 11368 -11353 0
-11369 0
-11370 7 0
-11370 30 0
11370 -7 -30 0
-11371 11370 0
-11371 33 0
11371 -11370 -33 0
-11372 9 0
-11372 31 0
11372 -9 -31 0
-11373 11372 0
-11373 33 0
11373 -11372 -33 0
-11374 26 0
-11374 8 0
11374 -26 -8 0
-11375 11374 0
-11375 33 0
11375 -11374 -33 0
-11376 19 0
-11376 12 0
11376 -19 -12 0
-11377 11376 0
-11377 33 0
11377 -11376 -33 0
-11378 55 0
-11378 78 0
11378 -55 -78 0
-11379 11378 0
-11379 81 0
11379 -11378 -81 0
-11380 62 0
-11380 80 0
11380 -62 -80 0
-11381 11380 0
-11381 81 0
11381 -11380 -81 0
-11382 74 0
-11382 56 0
11382 -74 -56 0
-11383 11382 0
-11383 81 0
11383 -11382 -81 0
-11384 72 0
-11384 64 0
11384 -72 -64 0
-11385 11384 0
-11385 81 0
11385 -11384 -81 0
-11386 103 0
-11386 126 0
11386 -103 -126 0
-11387 11386 0
-11387 129 0
11387 -11386 -129 0
-11388 110 0
-11388 128 0
11388 -110 -128 0
-11389 11388 0
-11389 129 0
11389 -11388 -129 0
-11390 122 0
-11390 104 0
11390 -122 -104 0
-11391 11390 0
-11391 129 0
11391 -11390 -129 0
-11392 120 0
-11392 112 0
11392 -120 -112 0
-11393 11392 0
-11393 129 0
11393 -11392 -129 0
-11394 151 0
-11394 174 0
11394 -151 -174 0
-11395 11394 0
-11395 177 0
11395 -11394 -177 0
-11396 153 0
-11396 175 0
11396 -153 -175 0
-11397 11396 0
-11397 177 0
11397 -11396 -177 0
-11398 11371 11371 0
-11398 -11371 -11371 0
11398 -11371 11371 0
11398 11371 -11371 0
-11399 11398 11373 0
-11399 -11398 -11373 0
11399 -11398 11373 0
11399 11398 -11373 0
-11400 11399 11375 0
-11400 -11399 -11375 0
11400 -11399 11375 0
11400 11399 -11375 0
-11401 11400 11375 0
-11401 -11400 -11375 0
11401 -11400 11375 0
11401 11400 -11375 0
-11402 11401 11377 0
-11402 -11401 -11377 0
11402 -11401 11377 0
11402 11401 -11377 0
-11403 11402 11379 0
-11403 -11402 -11379 0
11403 -11402 11379 0
11403 11402 -11379 0
-11404 11403 11381 0
-11404 -11403 -11381 0
11404 -11403 11381 0
11404 11403 -11381 0
-11405 11404 11383 0
-11405 -11404 -11383 0
11405 -11404 11383 0
11405 11404 -11383 0
-11406 11405 11385 0
-11406 -11405 -11385 0
11406 -11405 11385 0
11406 11405 -11385 0
-11407 11406 11387 0
-11407 -11406 -11387 0
11407 -11406 11387 0
11407 11406 -11387 0
-11408 11407 11389 0
-11408 -11407 -11389 0
11408 -11407 11389 0
11408 11407 -11389 0
-11409 11408 11391 0
-11409 -11408 -11391 0
11409 -11408 11391 0
11409 11408 -11391 0
-11410 11409 11393 0
-11410 -11409 -11393 0
11410 -11409 11393 0
11410 11409 -11393 0
-11411 11410 11395 0
-11411 -11410 -11395 0
11411 -11410 11395 0
11411 11410 -11395 0
-11412 11411 11395 0
-11412 -11411 -11395 0
11412 -11411 11395 0
11412 11411 -11395 0
-11413 11412 11397 0
-11413 -11412 -11397 0
11413 -11412 11397 0
11413 11412 -11397 0
-11413 0
-11414 11370 0
-11414 34 0
11414 -11370 -34 0
-11415 11372 0
-11415 35 0
11415 -11372 -35 0
-11416 11374 0
-11416 37 0
11416 -11374 -37 0
-11417 11376 0
-11417 41 0
11417 -11376 -41 0
-11418 11378 0
-11418 82 0
11418 -11378 -82 0
-11419 11380 0
-11419 84 0
11419 -11380 -84 0
-11420 11382 0
-11420 85 0
11420 -11382 -85 0
-11421 11384 0
-11421 93 0
11421 -11384 -93 0
-11422 11386 0
-11422 130 0
11422 -11386 -130 0
-11423 11388 0
-11423 132 0
11423 -11388 -132 0
-11424 11390 0
-11424 133 0
11424 -11390 -133 0
-11425 11392 0
-11425 141 0
11425 -11392 -141 0
-11426 11394 0
-11426 178 0
11426 -11394 -178 0
-11427 11396 0
-11427 179 0
11427 -11396 -179 0
-11428 11414 11414 0
-11428 -11414 -11414 0
11428 -11414 11414 0
11428 11414 -11414 0
-11429 11428 11415 0
-11429 -11428 -11415 0
11429 -11428 11415 0
11429 11428 -11415 0
-11430 11429 11416 0
-11430 -11429 -11416 0
11430 -11429 11416 0
11430 11429 -11416 0
-11431 11430 11416 0
-11431 -11430 -11416 0
11431 -11430 11416 0
11431 11430 -11416 0
-11432 11431 11417 0
-11432 -11431 -11417 0
11432 -11431 11417 0
11432 11431 -11417 0
-11433 11432 11418 0
-11433 -11432 -11418 0
11433 -11432 11418 0
11433 11432 -11418 0
-11434 11433 11419 0
-11434 -11433 -11419 0
11434 -11433 11419 0
11434 11433 -11419 0
-11435 11434 11420 0
-11435 -11434 -11420 0
11435 -11434 11420 0
11435 11434 -11420 0
-11436 11435 11421 0
-11436 -11435 -11421 0
11436 -11435 11421 0
11436 11435 -11421 0
-11437 11436 11422 0
-11437 -11436 -11422 0
11437 -11436 11422 0
11437 11436 -11422 0
-11438 11437 11423 0
-11438 -11437 -11423 0
11438 -11437 11423 0
11438 11437 -11423 0
-11439 11438 11424 0
-11439 -11438 -11424 0
11439 -11438 11424 0
11439 11438 -11424 0
-11440 11439 11425 0
-11440 -11439 -11425 0
11440 -11439 11425 0
11440 11439 -11425 0
-11441 11440 11426 0
-11441 -11440 -11426 0
11441 -11440 11426 0
11441 11440 -11426 0
-11442 11441 11426 0
-11442 -11441 -11426 0
11442 -11441 11426 0
11442 11441 -11426 0
-11443 11442 11427 0
-11443 -11442 -11427 0
11443 -11442 11427 0
11443 11442 -11427 0
-11443 0
-11444 11370 0
-11444 35 0
11444 -11370 -35 0
-11445 11370 0
-11445 36 0
11445 -11370 -36 0
-11446 11372 0
-11446 36 0
11446 -11372 -36 0
-11447 11374 0
-11447 41 0
11447 -11374 -41 0
-11448 11374 0
-11448 45 0
11448 -11374 -45 0
-11449 11376 0
-11449 45 0
11449 -11376 -45 0
-11450 11378 0
-11450 83 0
11450 -11378 -83 0
-11451 11380 0
-11451 83 0
11451 -11380 -83 0
-11452 11382 0
-11452 89 0
11452 -11382 -89 0
-11453 11384 0
-11453 89 0
11453 -11384 -89 0
-11454 11386 0
-11454 131 0
11454 -11386 -131 0
-11455 11388 0
-11455 131 0
11455 -11388 -131 0
-11456 11390 0
-11456 137 0
11456 -11390 -137 0
-11457 11392 0
-11457 137 0
11457 -11392 -137 0
-11458 11394 0
-11458 179 0
11458 -11394 -179 0
-11459 11394 0
-11459 180 0
11459 -11394 -180 0
-11460 11396 0
-11460 180 0
11460 -11396 -180 0
-11461 11444 11445 0
-11461 -11444 -11445 0
11461 -11444 11445 0
11461 11444 -11445 0
-11462 11461 11446 0
-11462 -11461 -11446 0
11462 -11461 11446 0
11462 11461 -11446 0
-11463 11462 11447 0
-11463 -11462 -11447 0
11463 -11462 11447 0
11463 11462 -11447 0
-11464 11463 11448 0
-11464 -11463 -11448 0
11464 -11463 11448 0
11464 11463 -11448 0
-11465 11464 11449 0
-11465 -11464 -11449 0
11465 -11464 11449 0
11465 11464 -11449 0
-11466 11465 11450 0
-11466 -11465 -11450 0
11466 -11465 11450 0
11466 11465 -11450 0
-11467 11466 11451 0
-11467 -11466 -11451 0
11467 -11466 11451 0
11467 11466 -11451 0
-11468 11467 11452 0
-11468 -11467 -11452 0
11468 -11467 11452 0
11468 11467 -11452 0
-11469 11468 11453 0
-11469 -11468 -11453 0
11469 -11468 11453 0
11469 11468 -11453 0
-11470 11469 11454 0
-11470 -11469 -11454 0
11470 -11469 11454 0
11470 11469 -11454 0
-11471 11470 11455 0
-11471 -11470 -11455 0
11471 -11470 11455 0
11471 11470 -11455 0
-11472 11471 11456 0
-11472 -11471 -11456 0
11472 -11471 11456 0
11472 11471 -11456 0
-11473 11472 11457 0
-11473 -11472 -11457 0
11473 -11472 11457 0
11473 11472 -11457 0
-11474 11473 11458 0
-11474 -11473 -11458 0
11474 -11473 11458 0
11474 11473 -11458 0
-11475 11474 11459 0
-11475 -11474 -11459 0
11475 -11474 11459 0
11475 11474 -11459 0
-11476 11475 11460 0
-11476 -11475 -11460 0
11476 -11475 11460 0
11476 11475 -11460 0
-11476 0
-11477 11370 0
-11477 37 0
11477 -11370 -37 0
-11478 11372 0
-11478 41 0
11478 -11372 -41 0
-11479 11374 0
-11479 34 0
11479 -11374 -34 0
-11480 11376 0
-11480 35 0
11480 -11376 -35 0
-11481 11378 0
-11481 85 0
11481 -11378 -85 0
-11482 11380 0
-11482 93 0
11482 -11380 -93 0
-11483 11382 0
-11483 82 0
11483 -11382 -82 0
-11484 11384 0
-11484 84 0
11484 -11384 -84 0
-11485 11386 0
-11485 133 0
11485 -11386 -133 0
-11486 11388 0
-11486 141 0
11486 -11388 -141 0
-11487 11390 0
-11487 130 0
11487 -11390 -130 0
-11488 11392 0
-11488 132 0
11488 -11392 -132 0
-11489 11394 0
-11489 181 0
11489 -11394 -181 0
-11490 11396 0
-11490 185 0
11490 -11396 -185 0
-11491 11477 11477 0
-11491 -11477 -11477 0
11491 -11477 11477 0
11491 11477 -11477 0
-11492 11491 11478 0
-11492 -11491 -11478 0
11492 -11491 11478 0
11492 11491 -11478 0
-11493 11492 11479 0
-11493 -11492 -11479 0
11493 -11492 11479 0
11493 11492 -11479 0
-11494 11493 11479 0
-11494 -11493 -11479 0
11494 -11493 11479 0
11494 11493 -11479 0
-11495 11494 11480 0
-11495 -11494 -11480 0
11495 -11494 11480 0
11495 11494 -11480 0
-11496 11495 11481 0
-11496 -11495 -11481 0
11496 -11495 11481 0
11496 11495 -11481 0
-11497 11496 11482 0
-11497 -11496 -11482 0
11497 -11496 11482 0
11497 11496 -11482 0
-11498 11497 11483 0
-11498 -11497 -11483 0
11498 -11497 11483 0
11498 11497 -11483 0
-11499 11498 11484 0
-11499 -11498 -11484 0
11499 -11498 11484 0
11499 11498 -11484 0
-11500 11499 11485 0
-11500 -11499 -11485 0
11500 -11499 11485 0
11500 11499 -11485 0
-11501 11500 11486 0
-11501 -11500 -11486 0
11501 -11500 11486 0
11501 11500 -11486 0
-11502 11501 11487 0
-11502 -11501 -11487 0
11502 -11501 11487 0
11502 11501 -11487 0
-11503 11502 11488 0
-11503 -11502 -11488 0
11503 -11502 11488 0
11503 11502 -11488 0
-11504 11503 11489 0
-11504 -11503 -11489 0
11504 -11503 11489 0
11504 11503 -11489 0
-11505 11504 11489 0
-11505 -11504 -11489 0
11505 -11504 11489 0
11505 11504 -11489 0
-11506 11505 11490 0
-11506 -11505 -11490 0
11506 -11505 11490 0
11506 11505 -11490 0
-11506 0
-11507 11370 0
-11507 38 0
11507 -11370 -38 0
-11508 11372 0
-11508 43 0
11508 -11372 -43 0
-11509 11374 0
-11509 38 0
11509 -11374 -38 0
-11510 11376 0
-11510 43 0
11510 -11376 -43 0
-11511 11378 0
-11511 86 0
11511 -11378 -86 0
-11512 11380 0
-11512 96 0
11512 -11380 -96 0
-11513 11382 0
-11513 86 0
11513 -11382 -86 0
-11514 11384 0
-11514 96 0
11514 -11384 -96 0
-11515 11386 0
-11515 134 0
11515 -11386 -134 0
-11516 11388 0
-11516 144 0
11516 -11388 -144 0
-11517 11390 0
-11517 134 0
11517 -11390 -134 0
-11518 11392 0
-11518 144 0
11518 -11392 -144 0
-11519 11394 0
-11519 182 0
11519 -11394 -182 0
-11520 11396 0
-11520 187 0
11520 -11396 -187 0
-11521 11507 11507 0
-11521 -11507 -11507 0
11521 -11507 11507 0
11521 11507 -11507 0
-11522 11521 11508 0
-11522 -11521 -11508 0
11522 -11521 11508 0
11522 11521 -11508 0
-11523 11522 11509 0
-11523 -11522 -11509 0
11523 -11522 11509 0
11523 11522 -11509 0
-11524 11523 11509 0
-11524 -11523 -11509 0
11524 -11523 11509 0
11524 11523 -11509 0
-11525 11524 11510 0
-11525 -11524 -11510 0
11525 -11524 11510 0
11525 11524 -11510 0
-11526 11525 11511 0
-11526 -11525 -11511 0
11526 -11525 11511 0
11526 11525 -11511 0
-11527 11526 11512 0
-11527 -11526 -11512 0
11527 -11526 11512 0
11527 11526 -11512 0
-11528 11527 11513 0
-11528 -11527 -11513 0
11528 -11527 11513 0
11528 11527 -11513 0
-11529 11528 11514 0
-11529 -11528 -11514 0
11529 -11528 11514 0
11529 11528 -11514 0
-11530 11529 11515 0
-11530 -11529 -11515 0
11530 -11529 11515 0
11530 11529 -11515 0
-11531 11530 11516 0
-11531 -11530 -11516 0
11531 -11530 11516 0
11531 11530 -11516 0
-11532 11531 11517 0
-11532 -11531 -11517 0
11532 -11531 11517 0
11532 11531 -11517 0
-11533 11532 11518 0
-11533 -11532 -11518 0
11533 -11532 11518 0
11533 11532 -11518 0
-11534 11533 11519 0
-11534 -11533 -11519 0
11534 -11533 11519 0
11534 11533 -11519 0
-11535 11534 11519 0
-11535 -11534 -11519 0
11535 -11534 11519 0
11535 11534 -11519 0
-11536 11535 11520 0
-11536 -11535 -11520 0
11536 -11535 11520 0
11536 11535 -11520 0
-11536 0
-11537 11370 0
-11537 39 0
11537 -11370 -39 0
-11538 11370 0
-11538 40 0
11538 -11370 -40 0
-11539 11372 0
-11539 44 0
11539 -11372 -44 0
-11540 11374 0
-11540 42 0
11540 -11374 -42 0
-11541 11374 0
-11541 46 0
11541 -11374 -46 0
-11542 11376 0
-11542 47 0
11542 -11376 -47 0
-11543 11378 0
-11543 87 0
11543 -11378 -87 0
-11544 11380 0
-11544 95 0
11544 -11380 -95 0
-11545 11382 0
-11545 90 0
11545 -11382 -90 0
-11546 11384 0
-11546 92 0
11546 -11384 -92 0
-11547 11386 0
-11547 135 0
11547 -11386 -135 0
-11548 11388 0
-11548 143 0
11548 -11388 -143 0
-11549 11390 0
-11549 138 0
11549 -11390 -138 0
-11550 11392 0
-11550 140 0
11550 -11392 -140 0
-11551 11394 0
-11551 183 0
11551 -11394 -183 0
-11552 11394 0
-11552 184 0
11552 -11394 -184 0
-11553 11396 0
-11553 188 0
11553 -11396 -188 0
-11554 11537 11538 0
-11554 -11537 -11538 0
11554 -11537 11538 0
11554 11537 -11538 0
-11555 11554 11539 0
-11555 -11554 -11539 0
11555 -11554 11539 0
11555 11554 -11539 0
-11556 11555 11540 0
-11556 -11555 -11540 0
11556 -11555 11540 0
11556 11555 -11540 0
-11557 11556 11541 0
-11557 -11556 -11541 0
11557 -11556 11541 0
11557 11556 -11541 0
-11558 11557 11542 0
-11558 -11557 -11542 0
11558 -11557 11542 0
11558 11557 -11542 0
-11559 11558 11543 0
-11559 -11558 -11543 0
11559 -11558 11543 0
11559 11558 -11543 0
-11560 11559 11544 0
-11560 -11559 -11544 0
11560 -11559 11544 0
11560 11559 -11544 0
-11561 11560 11545 0
-11561 -11560 -11545 0
11561 -11560 11545 0
11561 11560 -11545 0
-11562 11561 11546 0
-11562 -11561 -11546 0
11562 -11561 11546 0
11562 11561 -11546 0
-11563 11562 11547 0
-11563 -11562 -11547 0
11563 -11562 11547 0
11563 11562 -11547 0
-11564 11563 11548 0
-11564 -11563 -11548 0
11564 -11563 11548 0
11564 11563 -11548 0
-11565 11564 11549 0
-11565 -11564 -11549 0
11565 -11564 11549 0
11565 11564 -11549 0
-11566 11565 11550 0
-11566 -11565 -11550 0
11566 -11565 11550 0
11566 11565 -11550 0
-11567 11566 11551 0
-11567 -11566 -11551 0
11567 -11566 11551 0
11567 11566 -11551 0
-11568 11567 11552 0
-11568 -11567 -11552 0
11568 -11567 11552 0
11568 11567 -11552 0
-11569 11568 11553 0
-11569 -11568 -11553 0
11569 -11568 11553 0
11569 11568 -11553 0
-11569 0
-11570 11370 0
-11570 41 0
11570 -11370 -41 0
-11571 11370 0
-11571 45 0
11571 -11370 -45 0
-11572 11372 0
-11572 45 0
11572 -11372 -45 0
-11573 11374 0
-11573 35 0
11573 -11374 -35 0
-11574 11374 0
-11574 36 0
11574 -11374 -36 0
-11575 11376 0
-11575 36 0
11575 -11376 -36 0
-11576 11378 0
-11576 89 0
11576 -11378 -89 0
-11577 11380 0
-11577 89 0
11577 -11380 -89 0
-11578 11382 0
-11578 83 0
11578 -11382 -83 0
-11579 11384 0
-11579 83 0
11579 -11384 -83 0
-11580 11386 0
-11580 137 0
11580 -11386 -137 0
-11581 11388 0
-11581 137 0
11581 -11388 -137 0
-11582 11390 0
-11582 131 0
11582 -11390 -131 0
-11583 11392 0
-11583 131 0
11583 -11392 -131 0
-11584 11394 0
-11584 185 0
11584 -11394 -185 0
-11585 11394 0
-11585 189 0
11585 -11394 -189 0
-11586 11396 0
-11586 189 0
11586 -11396 -189 0
-11587 11570 11571 0
-11587 -11570 -11571 0
11587 -11570 11571 0
11587 11570 -11571 0
-11588 11587 11572 0
-11588 -11587 -11572 0
11588 -11587 11572 0
11588 11587 -11572 0
-11589 11588 11573 0
-11589 -11588 -11573 0
11589 -11588 11573 0
11589 11588 -11573 0
-11590 11589 11574 0
-11590 -11589 -11574 0
11590 -11589 11574 0
11590 11589 -11574 0
-11591 11590 11575 0
-11591 -11590 -11575 0
11591 -11590 11575 0
11591 11590 -11575 0
-11592 11591 11576 0
-11592 -11591 -11576 0
11592 -11591 11576 0
11592 11591 -11576 0
-11593 11592 11577 0
-11593 -11592 -11577 0
11593 -11592 11577 0
11593 11592 -11577 0
-11594 11593 11578 0
-11594 -11593 -11578 0
11594 -11593 11578 0
11594 11593 -11578 0
-11595 11594 11579 0
-11595 -11594 -11579 0
11595 -11594 11579 0
11595 11594 -11579 0
-11596 11595 11580 0
-11596 -11595 -11580 0
11596 -11595 11580 0
11596 11595 -11580 0
-11597 11596 11581 0
-11597 -11596 -11581 0
11597 -11596 11581 0
11597 11596 -11581 0
-11598 11597 11582 0
-11598 -11597 -11582 0
11598 -11597 11582 0
11598 11597 -11582 0
-11599 11598 11583 0
-11599 -11598 -11583 0
11599 -11598 11583 0
11599 11598 -11583 0
-11600 11599 11584 0
-11600 -11599 -11584 0
11600 -11599 11584 0
11600 11599 -11584 0
-11601 11600 11585 0
-11601 -11600 -11585 0
11601 -11600 11585 0
11601 11600 -11585 0
-11602 11601 11586 0
-11602 -11601 -11586 0
11602 -11601 11586 0
11602 11601 -11586 0
-11602 0
-11603 11370 0
-11603 42 0
11603 -11370 -42 0
-11604 11370 0
-11604 46 0
11604 -11370 -46 0
-11605 11372 0
-11605 47 0
11605 -11372 -47 0
-11606 11374 0
-11606 39 0
11606 -11374 -39 0
-11607 11374 0
-11607 40 0
11607 -11374 -40 0
-11608 11376 0
-11608 44 0
11608 -11376 -44 0
-11609 11378 0
-11609 90 0
11609 -11378 -90 0
-11610 11380 0
-11610 92 0
11610 -11380 -92 0
-11611 11382 0
-11611 87 0
11611 -11382 -87 0
-11612 11384 0
-11612 95 0
11612 -11384 -95 0
-11613 11386 0
-11613 138 0
11613 -11386 -138 0
-11614 11388 0
-11614 140 0
11614 -11388 -140 0
-11615 11390 0
-11615 135 0
11615 -11390 -135 0
-11616 11392 0
-11616 143 0
11616 -11392 -143 0
-11617 11394 0
-11617 186 0
11617 -11394 -186 0
-11618 11394 0
-11618 190 0
11618 -11394 -190 0
-11619 11396 0
-11619 191 0
11619 -11396 -191 0
-11620 11603 11604 0
-11620 -11603 -11604 0
11620 -11603 11604 0
11620 11603 -11604 0
-11621 11620 11605 0
-11621 -11620 -11605 0
11621 -11620 11605 0
11621 11620 -11605 0
-11622 11621 11606 0
-11622 -11621 -11606 0
11622 -11621 11606 0
11622 11621 -11606 0
-11623 11622 11607 0
-11623 -11622 -11607 0
11623 -11622 11607 0
11623 11622 -11607 0
-11624 11623 11608 0
-11624 -11623 -11608 0
11624 -11623 11608 0
11624 11623 -11608 0
-11625 11624 11609 0
-11625 -11624 -11609 0
11625 -11624 11609 0
11625 11624 -11609 0
-11626 11625 11610 0
-11626 -11625 -11610 0
11626 -11625 11610 0
11626 11625 -11610 0
-11627 11626 11611 0
-11627 -11626 -11611 0
11627 -11626 11611 0
11627 11626 -11611 0
-11628 11627 11612 0
-11628 -11627 -11612 0
11628 -11627 11612 0
11628 11627 -11612 0
-11629 11628 11613 0
-11629 -11628 -11613 0
11629 -11628 11613 0
11629 11628 -11613 0
-11630 11629 11614 0
-11630 -11629 -11614 0
11630 -11629 11614 0
11630 11629 -11614 0
-11631 11630 11615 0
-11631 -11630 -11615 0
11631 -11630 11615 0
11631 11630 -11615 0
-11632 11631 11616 0
-11632 -11631 -11616 0
11632 -11631 11616 0
11632 11631 -11616 0
-11633 11632 11617 0
-11633 -11632 -11617 0
11633 -11632 11617 0
11633 11632 -11617 0
-11634 11633 11618 0
-11634 -11633 -11618 0
11634 -11633 11618 0
11634 11633 -11618 0
-11635 11634 11619 0
-11635 -11634 -11619 0
11635 -11634 11619 0
11635 11634 -11619 0
-11635 0
-11636 11370 0
-11636 43 0
11636 -11370 -43 0
-11637 11370 0
-11637 48 0
11637 -11370 -48 0
-11638 11372 0
-11638 48 0
11638 -11372 -48 0
-11639 11374 0
-11639 43 0
11639 -11374 -43 0
-11640 11374 0
-11640 48 0
11640 -11374 -48 0
-11641 11376 0
-11641 48 0
11641 -11376 -48 0
-11642 11378 0
-11642 91 0
11642 -11378 -91 0
-11643 11380 0
-11643 91 0
11643 -11380 -91 0
-11644 11382 0
-11644 91 0
11644 -11382 -91 0
-11645 11384 0
-11645 91 0
11645 -11384 -91 0
-11646 11386 0
-11646 139 0
11646 -11386 -139 0
-11647 11388 0
-11647 139 0
11647 -11388 -139 0
-11648 11390 0
-11648 139 0
11648 -11390 -139 0
-11649 11392 0
-11649 139 0
11649 -11392 -139 0
-11650 11394 0
-11650 187 0
11650 -11394 -187 0
-11651 11394 0
-11651 192 0
11651 -11394 -192 0
-11652 11396 0
-11652 192 0
11652 -11396 -192 0
-11653 11636 11637 0
-11653 -11636 -11637 0
11653 -11636 11637 0
11653 11636 -11637 0
-11654 11653 11638 0
-11654 -11653 -11638 0
11654 -11653 11638 0
11654 11653 -11638 0
-11655 11654 11639 0
-11655 -11654 -11639 0
11655 -11654 11639 0
11655 11654 -11639 0
-11656 11655 11640 0
-11656 -11655 -11640 0
11656 -11655 11640 0
11656 11655 -11640 0
-11657 11656 11641 0
-11657 -11656 -11641 0
11657 -11656 11641 0
11657 11656 -11641 0
-11658 11657 11642 0
-11658 -11657 -11642 0
11658 -11657 11642 0
11658 11657 -11642 0
-11659 11658 11643 0
-11659 -11658 -11643 0
11659 -11658 11643 0
11659 11658 -11643 0
-11660 11659 11644 0
-11660 -11659 -11644 0
11660 -11659 11644 0
11660 11659 -11644 0
-11661 11660 11645 0
-11661 -11660 -11645 0
11661 -11660 11645 0
11661 11660 -11645 0
-11662 11661 11646 0
-11662 -11661 -11646 0
11662 -11661 11646 0
11662 11661 -11646 0
-11663 11662 11647 0
-11663 -11662 -11647 0
11663 -11662 11647 0
11663 11662 -11647 0
-11664 11663 11648 0
-11664 -11663 -11648 0
11664 -11663 11648 0
11664 11663 -11648 0
-11665 11664 11649 0
-11665 -11664 -11649 0
11665 -11664 11649 0
11665 11664 -11649 0
-11666 11665 11650 0
-11666 -11665 -11650 0
11666 -11665 11650 0
11666 11665 -11650 0
-11667 11666 11651 0
-11667 -11666 -11651 0
11667 -11666 11651 0
11667 11666 -11651 0
-11668 11667 11652 0
-11668 -11667 -11652 0
11668 -11667 11652 0
11668 11667 -11652 0
-11668 0
-11669 11370 0
-11669 44 0
11669 -11370 -44 0
-11670 11370 0
-11670 47 0
11670 -11370 -47 0
-11671 11372 0
-11671 46 0
11671 -11372 -46 0
-11672 11374 0
-11672 47 0
11672 -11374 -47 0
-11673 11374 0
-11673 44 0
11673 -11374 -44 0
-11674 11376 0
-11674 40 0
11674 -11376 -40 0
-11675 11378 0
-11675 92 0
11675 -11378 -92 0
-11676 11380 0
-11676 90 0
11676 -11380 -90 0
-11677 11382 0
-11677 95 0
11677 -11382 -95 0
-11678 11384 0
-11678 87 0
11678 -11384 -87 0
-11679 11386 0
-11679 140 0
11679 -11386 -140 0
-11680 11388 0
-11680 138 0
11680 -11388 -138 0
-11681 11390 0
-11681 143 0
11681 -11390 -143 0
-11682 11392 0
-11682 135 0
11682 -11392 -135 0
-11683 11394 0
-11683 188 0
11683 -11394 -188 0
-11684 11394 0
-11684 191 0
11684 -11394 -191 0
-11685 11396 0
-11685 190 0
11685 -11396 -190 0
-11686 11669 11670 0
-11686 -11669 -11670 0
11686 -11669 11670 0
11686 11669 -11670 0
-11687 11686 11671 0
-11687 -11686 -11671 0
11687 -11686 11671 0
11687 11686 -11671 0
-11688 11687 11672 0
-11688 -11687 -11672 0
11688 -11687 11672 0
11688 11687 -11672 0
-11689 11688 11673 0
-11689 -11688 -11673 0
11689 -11688 11673 0
11689 11688 -11673 0
-11690 11689 11674 0
-11690 -11689 -11674 0
11690 -11689 11674 0
11690 11689 -11674 0
-11691 11690 11675 0
-11691 -11690 -11675 0
11691 -11690 11675 0
11691 11690 -11675 0
-11692 11691 11676 0
-11692 -11691 -11676 0
11692 -11691 11676 0
11692 11691 -11676 0
-11693 11692 11677 0
-11693 -11692 -11677 0
11693 -11692 11677 0
11693 11692 -11677 0
-11694 11693 11678 0
-11694 -11693 -11678 0
11694 -11693 11678 0
11694 11693 -11678 0
-11695 11694 11679 0
-11695 -11694 -11679 0
11695 -11694 11679 0
11695 11694 -11679 0
-11696 11695 11680 0
-11696 -11695 -11680 0
11696 -11695 11680 0
11696 11695 -11680 0
-11697 11696 11681 0
-11697 -11696 -11681 0
11697 -11696 11681 0
11697 11696 -11681 0
-11698 11697 11682 0
-11698 -11697 -11682 0
11698 -11697 11682 0
11698 11697 -11682 0
-11699 11698 11683 0
-11699 -11698 -11683 0
11699 -11698 11683 0
11699 11698 -11683 0
-11700 11699 11684 0
-11700 -11699 -11684 0
11700 -11699 11684 0
11700 11699 -11684 0
-11701 11700 11685 0
-11701 -11700 -11685 0
11701 -11700 11685 0
11701 11700 -11685 0
-11701 0
-11702 7 0
-11702 31 0
11702 -7 -31 0
-11703 11702 0
-11703 33 0
11703 -11702 -33 0
-11704 7 0
-11704 32 0
11704 -7 -32 0
-11705 11704 0
-11705 33 0
11705 -11704 -33 0
-11706 9 0
-11706 32 0
11706 -9 -32 0
-11707 11706 0
-11707 33 0
11707 -11706 -33 0
-11708 26 0
-11708 12 0
11708 -26 -12 0
-11709 11708 0
-11709 33 0
11709 -11708 -33 0
-11710 26 0
-11710 16 0
11710 -26 -16 0
-11711 11710 0
-11711 33 0
11711 -11710 -33 0
-11712 19 0
-11712 16 0
11712 -19 -16 0
-11713 11712 0
-11713 33 0
11713 -11712 -33 0
-11714 55 0
-11714 79 0
11714 -55 -79 0
-11715 11714 0
-11715 81 0
11715 -11714 -81 0
-11716 62 0
-11716 79 0
11716 -62 -79 0
-11717 11716 0
-11717 81 0
11717 -11716 -81 0
-11718 74 0
-11718 60 0
11718 -74 -60 0
-11719 11718 0
-11719 81 0
11719 -11718 -81 0
-11720 72 0
-11720 60 0
11720 -72 -60 0
-11721 11720 0
-11721 81 0
11721 -11720 -81 0
-11722 103 0
-11722 127 0
11722 -103 -127 0
-11723 11722 0
-11723 129 0
11723 -11722 -129 0
-11724 110 0
-11724 127 0
11724 -110 -127 0
-11725 11724 0
-11725 129 0
11725 -11724 -129 0
-11726 122 0
-11726 108 0
11726 -122 -108 0
-11727 11726 0
-11727 129 0
11727 -11726 -129 0
-11728 120 0
-11728 108 0
11728 -120 -108 0
-11729 11728 0
-11729 129 0
11729 -11728 -129 0
-11730 151 0
-11730 175 0
11730 -151 -175 0
-11731 11730 0
-11731 177 0
11731 -11730 -177 0
-11732 151 0
-11732 176 0
11732 -151 -176 0
-11733 11732 0
-11733 177 0
11733 -11732 -177 0
-11734 153 0
-11734 176 0
11734 -153 -176 0
-11735 11734 0
-11735 177 0
11735 -11734 -177 0
-11736 11703 11705 0
-11736 -11703 -11705 0
11736 -11703 11705 0
11736 11703 -11705 0
-11737 11736 11707 0
-11737 -11736 -11707 0
11737 -11736 11707 0
11737 11736 -11707 0
-11738 11737 11709 0
-11738 -11737 -11709 0
11738 -11737 11709 0
11738 11737 -11709 0
-11739 11738 11711 0
-11739 -11738 -11711 0
11739 -11738 11711 0
11739 11738 -11711 0
-11740 11739 11713 0
-11740 -11739 -11713 0
11740 -11739 11713 0
11740 11739 -11713 0
-11741 11740 11715 0
-11741 -11740 -11715 0
11741 -11740 11715 0
11741 11740 -11715 0
-11742 11741 11717 0
-11742 -11741 -11717 0
11742 -11741 11717 0
11742 11741 -11717 0
-11743 11742 11719 0
-11743 -11742 -11719 0
11743 -11742 11719 0
11743 11742 -11719 0
-11744 11743 11721 0
-11744 -11743 -11721 0
11744 -11743 11721 0
11744 11743 -11721 0
-11745 11744 11723 0
-11745 -11744 -11723 0
11745 -11744 11723 0
11745 11744 -11723 0
-11746 11745 11725 0
-11746 -11745 -11725 0
11746 -11745 11725 0
11746 11745 -11725 0
-11747 11746 11727 0
-11747 -11746 -11727 0
11747 -11746 11727 0
11747 11746 -11727 0
-11748 11747 11729 0
-11748 -11747 -11729 0
11748 -11747 11729 0
11748 11747 -11729 0
-11749 11748 11731 0
-11749 -11748 -11731 0
11749 -11748 11731 0
11749 11748 -11731 0
-11750 11749 11733 0
-11750 -11749 -11733 0
11750 -11749 11733 0
11750 11749 -11733 0
-11751 11750 11735 0
-11751 -11750 -11735 0
11751 -11750 11735 0
11751 11750 -11735 0
-11751 0
-11752 11702 0
-11752 34 0
11752 -11702 -34 0
-11753 11704 0
-11753 34 0
11753 -11704 -34 0
-11754 11706 0
-11754 35 0
11754 -11706 -35 0
-11755 11708 0
-11755 37 0
11755 -11708 -37 0
-11756 11710 0
-11756 37 0
11756 -11710 -37 0
-11757 11712 0
-11757 41 0
11757 -11712 -41 0
-11758 11714 0
-11758 82 0
11758 -11714 -82 0
-11759 11716 0
-11759 84 0
11759 -11716 -84 0
-11760 11718 0
-11760 85 0
11760 -11718 -85 0
-11761 11720 0
-11761 93 0
11761 -11720 -93 0
-11762 11722 0
-11762 130 0
11762 -11722 -130 0
-11763 11724 0
-11763 132 0
11763 -11724 -132 0
-11764 11726 0
-11764 133 0
11764 -11726 -133 0
-11765 11728 0
-11765 141 0
11765 -11728 -141 0
-11766 11730 0
-11766 178 0
11766 -11730 -178 0
-11767 11732 0
-11767 178 0
11767 -11732 -178 0
-11768 11734 0
-11768 179 0
11768 -11734 -179 0
-11769 11752 11753 0
-11769 -11752 -11753 0
11769 -11752 11753 0
11769 11752 -11753 0
-11770 11769 11754 0
-11770 -11769 -11754 0
11770 -11769 11754 0
11770 11769 -11754 0
-11771 11770 11755 0
-11771 -11770 -11755 0
11771 -11770 11755 0
11771 11770 -11755 0
-11772 11771 11756 0
-11772 -11771 -11756 0
11772 -11771 11756 0
11772 11771 -11756 0
-11773 11772 11757 0
-11773 -11772 -11757 0
11773 -11772 11757 0
11773 11772 -11757 0
-11774 11773 11758 0
-11774 -11773 -11758 0
11774 -11773 11758 0
11774 11773 -11758 0
-11775 11774 11759 0
-11775 -11774 -11759 0
11775 -11774 11759 0
11775 11774 -11759 0
-11776 11775 11760 0
-11776 -11775 -11760 0
11776 -11775 11760 0
11776 11775 -11760 0
-11777 11776 11761 0
-11777 -11776 -11761 0
11777 -11776 11761 0
11777 11776 -11761 0
-11778 11777 11762 0
-11778 -11777 -11762 0
11778 -11777 11762 0
11778 11777 -11762 0
-11779 11778 11763 0
-11779 -11778 -11763 0
11779 -11778 11763 0
11779 11778 -11763 0
-11780 11779 11764 0
-11780 -11779 -11764 0
11780 -11779 11764 0
11780 11779 -11764 0
-11781 11780 11765 0
-11781 -11780 -11765 0
11781 -11780 11765 0
11781 11780 -11765 0
-11782 11781 11766 0
-11782 -11781 -11766 0
11782 -11781 11766 0
11782 11781 -11766 0
-11783 11782 11767 0
-11783 -11782 -11767 0
11783 -11782 11767 0
11783 11782 -11767 0
-11784 11783 11768 0
-11784 -11783 -11768 0
11784 -11783 11768 0
11784 11783 -11768 0
-11784 0
-11785 11702 0
-11785 35 0
11785 -11702 -35 0
-11786 11704 0
-11786 36 0
11786 -11704 -36 0
-11787 11706 0
-11787 36 0
11787 -11706 -36 0
-11788 11708 0
-11788 41 0
11788 -11708 -41 0
-11789 11710 0
-11789 45 0
11789 -11710 -45 0
-11790 11712 0
-11790 45 0
11790 -11712 -45 0
-11791 11714 0
-11791 83 0
11791 -11714 -83 0
-11792 11716 0
-11792 83 0
11792 -11716 -83 0
-11793 11718 0
-11793 89 0
11793 -11718 -89 0
-11794 11720 0
-11794 89 0
11794 -11720 -89 0
-11795 11722 0
-11795 131 0
11795 -11722 -131 0
-11796 11724 0
-11796 131 0
11796 -11724 -131 0
-11797 11726 0
-11797 137 0
11797 -11726 -137 0
-11798 11728 0
-11798 137 0
11798 -11728 -137 0
-11799 11730 0
-11799 179 0
11799 -11730 -179 0
-11800 11732 0
-11800 180 0
11800 -11732 -180 0
-11801 11734 0
-11801 180 0
11801 -11734 -180 0
-11802 11785 11786 0
-11802 -11785 -11786 0
11802 -11785 11786 0
11802 11785 -11786 0
-11803 11802 11787 0
-11803 -11802 -11787 0
11803 -11802 11787 0
11803 11802 -11787 0
-11804 11803 11788 0
-11804 -11803 -11788 0
11804 -11803 11788 0
11804 11803 -11788 0
-11805 11804 11789 0
-11805 -11804 -11789 0
11805 -11804 11789 0
11805 11804 -11789 0
-11806 11805 11790 0
-11806 -11805 -11790 0
11806 -11805 11790 0
11806 11805 -11790 0
-11807 11806 11791 0
-11807 -11806 -11791 0
11807 -11806 11791 0
11807 11806 -11791 0
-11808 11807 11792 0
-11808 -11807 -11792 0
11808 -11807 11792 0
11808 11807 -11792 0
-11809 11808 11793 0
-11809 -11808 -11793 0
11809 -11808 11793 0
11809 11808 -11793 0
-11810 11809 11794 0
-11810 -11809 -11794 0
11810 -11809 11794 0
11810 11809 -11794 0
-11811 11810 11795 0
-11811 -11810 -11795 0
11811 -11810 11795 0
11811 11810 -11795 0
-11812 11811 11796 0
-11812 -11811 -11796 0
11812 -11811 11796 0
11812 11811 -11796 0
-11813 11812 11797 0
-11813 -11812 -11797 0
11813 -11812 11797 0
11813 11812 -11797 0
-11814 11813 11798 0
-11814 -11813 -11798 0
11814 -11813 11798 0
11814 11813 -11798 0
-11815 11814 11799 0
-11815 -11814 -11799 0
11815 -11814 11799 0
11815 11814 -11799 0
-11816 11815 11800 0
-11816 -11815 -11800 0
11816 -11815 11800 0
11816 11815 -11800 0
-11817 11816 11801 0
-11817 -11816 -11801 0
11817 -11816 11801 0
11817 11816 -11801 0
-11817 0
-11818 11702 0
-11818 36 0
11818 -11702 -36 0
-11819 11704 0
-11819 35 0
11819 -11704 -35 0
-11820 11706 0
-11820 34 0
11820 -11706 -34 0
-11821 11708 0
-11821 45 0
11821 -11708 -45 0
-11822 11710 0
-11822 41 0
11822 -11710 -41 0
-11823 11712 0
-11823 37 0
11823 -11712 -37 0
-11824 11714 0
-11824 84 0
11824 -11714 -84 0
-11825 11716 0
-11825 82 0
11825 -11716 -82 0
-11826 11718 0
-11826 93 0
11826 -11718 -93 0
-11827 11720 0
-11827 85 0
11827 -11720 -85 0
-11828 11722 0
-11828 132 0
11828 -11722 -132 0
-11829 11724 0
-11829 130 0
11829 -11724 -130 0
-11830 11726 0
-11830 141 0
11830 -11726 -141 0
-11831 11728 0
-11831 133 0
11831 -11728 -133 0
-11832 11730 0
-11832 180 0
11832 -11730 -180 0
-11833 11732 0
-11833 179 0
11833 -11732 -179 0
-11834 11734 0
-11834 178 0
11834 -11734 -178 0
-11835 11818 11819 0
-11835 -11818 -11819 0
11835 -11818 11819 0
11835 11818 -11819 0
-11836 11835 11820 0
-11836 -11835 -11820 0
11836 -11835 11820 0
11836 11835 -11820 0
-11837 11836 11821 0
-11837 -11836 -11821 0
11837 -11836 11821 0
11837 11836 -11821 0
-11838 11837 11822 0
-11838 -11837 -11822 0
11838 -11837 11822 0
11838 11837 -11822 0
-11839 11838 11823 0
-11839 -11838 -11823 0
11839 -11838 11823 0
11839 11838 -11823 0
-11840 11839 11824 0
-11840 -11839 -11824 0
11840 -11839 11824 0
11840 11839 -11824 0
-11841 11840 11825 0
-11841 -11840 -11825 0
11841 -11840 11825 0
11841 11840 -11825 0
-11842 11841 11826 0
-11842 -11841 -11826 0
11842 -11841 11826 0
11842 11841 -11826 0
-11843 11842 11827 0
-11843 -11842 -11827 0
11843 -11842 11827 0
11843 11842 -11827 0
-11844 11843 11828 0
-11844 -11843 -11828 0
11844 -11843 11828 0
11844 11843 -11828 0
-11845 11844 11829 0
-11845 -11844 -11829 0
11845 -11844 11829 0
11845 11844 -11829 0
-11846 11845 11830 0
-11846 -11845 -11830 0
11846 -11845 11830 0
11846 11845 -11830 0
-11847 11846 11831 0
-11847 -11846 -11831 0
11847 -11846 11831 0
11847 11846 -11831 0
-11848 11847 11832 0
-11848 -11847 -11832 0
11848 -11847 11832 0
11848 11847 -11832 0
-11849 11848 11833 0
-11849 -11848 -11833 0
11849 -11848 11833 0
11849 11848 -11833 0
-11850 11849 11834 0
-11850 -11849 -11834 0
11850 -11849 11834 0
11850 11849 -11834 0
-11850 0
-11851 11702 0
-11851 37 0
11851 -11702 -37 0
-11852 11704 0
-11852 37 0
11852 -11704 -37 0
-11853 11706 0
-11853 41 0
11853 -11706 -41 0
-11854 11708 0
-11854 34 0
11854 -11708 -34 0
-11855 11710 0
-11855 34 0
11855 -11710 -34 0
-11856 11712 0
-11856 35 0
11856 -11712 -35 0
-11857 11714 0
-11857 85 0
11857 -11714 -85 0
-11858 11716 0
-11858 93 0
11858 -11716 -93 0
-11859 11718 0
-11859 82 0
11859 -11718 -82 0
-11860 11720 0
-11860 84 0
11860 -11720 -84 0
-11861 11722 0
-11861 133 0
11861 -11722 -133 0
-11862 11724 0
-11862 141 0
11862 -11724 -141 0
-11863 11726 0
-11863 130 0
11863 -11726 -130 0
-11864 11728 0
-11864 132 0
11864 -11728 -132 0
-11865 11730 0
-11865 181 0
11865 -11730 -181 0
-11866 11732 0
-11866 181 0
11866 -11732 -181 0
-11867 11734 0
-11867 185 0
11867 -11734 -185 0
-11868 11851 11852 0
-11868 -11851 -11852 0
11868 -11851 11852 0
11868 11851 -11852 0
-11869 11868 11853 0
-11869 -11868 -11853 0
11869 -11868 11853 0
11869 11868 -11853 0
-11870 11869 11854 0
-11870 -11869 -11854 0
11870 -11869 11854 0
11870 11869 -11854 0
-11871 11870 11855 0
-11871 -11870 -11855 0
11871 -11870 11855 0
11871 11870 -11855 0
-11872 11871 11856 0
-11872 -11871 -11856 0
11872 -11871 11856 0
11872 11871 -11856 0
-11873 11872 11857 0
-11873 -11872 -11857 0
11873 -11872 11857 0
11873 11872 -11857 0
-11874 11873 11858 0
-11874 -11873 -11858 0
11874 -11873 11858 0
11874 11873 -11858 0
-11875 11874 11859 0
-11875 -11874 -11859 0
11875 -11874 11859 0
11875 11874 -11859 0
-11876 11875 11860 0
-11876 -11875 -11860 0
11876 -11875 11860 0
11876 11875 -11860 0
-11877 11876 11861 0
-11877 -11876 -11861 0
11877 -11876 11861 0
11877 11876 -11861 0
-11878 11877 11862 0
-11878 -11877 -11862 0
11878 -11877 11862 0
11878 11877 -11862 0
-11879 11878 11863 0
-11879 -11878 -11863 0
11879 -11878 11863 0
11879 11878 -11863 0
-11880 11879 11864 0
-11880 -11879 -11864 0
11880 -11879 11864 0
11880 11879 -11864 0
-11881 11880 11865 0
-11881 -11880 -11865 0
11881 -11880 11865 0
11881 11880 -11865 0
-11882 11881 11866 0
-11882 -11881 -11866 0
11882 -11881 11866 0
11882 11881 -11866 0
-11883 11882 11867 0
-11883 -11882 -11867 0
11883 -11882 11867 0
11883 11882 -11867 0
-11883 0
-11884 11702 0
-11884 38 0
11884 -11702 -38 0
-11885 11704 0
-11885 38 0
11885 -11704 -38 0
-11886 11706 0
-11886 43 0
11886 -11706 -43 0
-11887 11708 0
-11887 38 0
11887 -11708 -38 0
-11888 11710 0
-11888 38 0
11888 -11710 -38 0
-11889 11712 0
-11889 43 0
11889 -11712 -43 0
-11890 11714 0
-11890 86 0
11890 -11714 -86 0
-11891 11716 0
-11891 96 0
11891 -11716 -96 0
-11892 11718 0
-11892 86 0
11892 -11718 -86 0
-11893 11720 0
-11893 96 0
11893 -11720 -96 0
-11894 11722 0
-11894 134 0
11894 -11722 -134 0
-11895 11724 0
-11895 144 0
11895 -11724 -144 0
-11896 11726 0
-11896 134 0
11896 -11726 -134 0
-11897 11728 0
-11897 144 0
11897 -11728 -144 0
-11898 11730 0
-11898 182 0
11898 -11730 -182 0
-11899 11732 0
-11899 182 0
11899 -11732 -182 0
-11900 11734 0
-11900 187 0
11900 -11734 -187 0
-11901 11884 11885 0
-11901 -11884 -11885 0
11901 -11884 11885 0
11901 11884 -11885 0
-11902 11901 11886 0
-11902 -11901 -11886 0
11902 -11901 11886 0
11902 11901 -11886 0
-11903 11902 11887 0
-11903 -11902 -11887 0
11903 -11902 11887 0
11903 11902 -11887 0
-11904 11903 11888 0
-11904 -11903 -11888 0
11904 -11903 11888 0
11904 11903 -11888 0
-11905 11904 11889 0
-11905 -11904 -11889 0
11905 -11904 11889 0
11905 11904 -11889 0
-11906 11905 11890 0
-11906 -11905 -11890 0
11906 -11905 11890 0
11906 11905 -11890 0
-11907 11906 11891 0
-11907 -11906 -11891 0
11907 -11906 11891 0
11907 11906 -11891 0
-11908 11907 11892 0
-11908 -11907 -11892 0
11908 -11907 11892 0
11908 11907 -11892 0
-11909 11908 11893 0
-11909 -11908 -11893 0
11909 -11908 11893 0
11909 11908 -11893 0
-11910 11909 11894 0
-11910 -11909 -11894 0
11910 -11909 11894 0
11910 11909 -11894 0
-11911 11910 11895 0
-11911 -11910 -11895 0
11911 -11910 11895 0
11911 11910 -11895 0
-11912 11911 11896 0
-11912 -11911 -11896 0
11912 -11911 11896 0
11912 11911 -11896 0
-11913 11912 11897 0
-11913 -11912 -11897 0
11913 -11912 11897 0
11913 11912 -11897 0
-11914 11913 11898 0
-11914 -11913 -11898 0
11914 -11913 11898 0
11914 11913 -11898 0
-11915 11914 11899 0
-11915 -11914 -11899 0
11915 -11914 11899 0
11915 11914 -11899 0
-11916 11915 11900 0
-11916 -11915 -11900 0
11916 -11915 11900 0
11916 11915 -11900 0
-11916 0
-11917 11702 0
-11917 39 0
11917 -11702 -39 0
-11918 11704 0
-11918 40 0
11918 -11704 -40 0
-11919 11706 0
-11919 44 0
11919 -11706 -44 0
-11920 11708 0
-11920 42 0
11920 -11708 -42 0
-11921 11710 0
-11921 46 0
11921 -11710 -46 0
-11922 11712 0
-11922 47 0
11922 -11712 -47 0
-11923 11714 0
-11923 87 0
11923 -11714 -87 0
-11924 11716 0
-11924 95 0
11924 -11716 -95 0
-11925 11718 0
-11925 90 0
11925 -11718 -90 0
-11926 11720 0
-11926 92 0
11926 -11720 -92 0
-11927 11722 0
-11927 135 0
11927 -11722 -135 0
-11928 11724 0
-11928 143 0
11928 -11724 -143 0
-11929 11726 0
-11929 138 0
11929 -11726 -138 0
-11930 11728 0
-11930 140 0
11930 -11728 -140 0
-11931 11730 0
-11931 183 0
11931 -11730 -183 0
-11932 11732 0
-11932 184 0
11932 -11732 -184 0
-11933 11734 0
-11933 188 0
11933 -11734 -188 0
-11934 11917 11918 0
-11934 -11917 -11918 0
11934 -11917 11918 0
11934 11917 -11918 0
-11935 11934 11919 0
-11935 -11934 -11919 0
11935 -11934 11919 0
11935 11934 -11919 0
-11936 11935 11920 0
-11936 -11935 -11920 0
11936 -11935 11920 0
11936 11935 -11920 0
-11937 11936 11921 0
-11937 -11936 -11921 0
11937 -11936 11921 0
11937 11936 -11921 0
-11938 11937 11922 0
-11938 -11937 -11922 0
11938 -11937 11922 0
11938 11937 -11922 0
-11939 11938 11923 0
-11939 -11938 -11923 0
11939 -11938 11923 0
11939 11938 -11923 0
-11940 11939 11924 0
-11940 -11939 -11924 0
11940 -11939 11924 0
11940 11939 -11924 0
-11941 11940 11925 0
-11941 -11940 -11925 0
11941 -11940 11925 0
11941 11940 -11925 0
-11942 11941 11926 0
-11942 -11941 -11926 0
11942 -11941 11926 0
11942 11941 -11926 0
-11943 11942 11927 0
-11943 -11942 -11927 0
11943 -11942 11927 0
11943 11942 -11927 0
-11944 11943 11928 0
-11944 -11943 -11928 0
11944 -11943 11928 0
11944 11943 -11928 0
-11945 11944 11929 0
-11945 -11944 -11929 0
11945 -11944 11929 0
11945 11944 -11929 0
-11946 11945 11930 0
-11946 -11945 -11930 0
11946 -11945 11930 0
11946 11945 -11930 0
-11947 11946 11931 0
-11947 -11946 -11931 0
11947 -11946 11931 0
11947 11946 -11931 0
-11948 11947 11932 0
-11948 -11947 -11932 0
11948 -11947 11932 0
11948 11947 -11932 0
-11949 11948 11933 0
-11949 -11948 -11933 0
11949 -11948 11933 0
11949 11948 -11933 0
-11949 0
-11950 11702 0
-11950 40 0
11950 -11702 -40 0
-11951 11704 0
-11951 39 0
11951 -11704 -39 0
-11952 11706 0
-11952 42 0
11952 -11706 -42 0
-11953 11708 0
-11953 46 0
11953 -11708 -46 0
-11954 11710 0
-11954 42 0
11954 -11710 -42 0
-11955 11712 0
-11955 39 0
11955 -11712 -39 0
-11956 11714 0
-11956 88 0
11956 -11714 -88 0
-11957 11716 0
-11957 94 0
11957 -11716 -94 0
-11958 11718 0
-11958 94 0
11958 -11718 -94 0
-11959 11720 0
-11959 88 0
11959 -11720 -88 0
-11960 11722 0
-11960 136 0
11960 -11722 -136 0
-11961 11724 0
-11961 142 0
11961 -11724 -142 0
-11962 11726 0
-11962 142 0
11962 -11726 -142 0
-11963 11728 0
-11963 136 0
11963 -11728 -136 0
-11964 11730 0
-11964 184 0
11964 -11730 -184 0
-11965 11732 0
-11965 183 0
11965 -11732 -183 0
-11966 11734 0
-11966 186 0
11966 -11734 -186 0
-11967 11950 11951 0
-11967 -11950 -11951 0
11967 -11950 11951 0
11967 11950 -11951 0
-11968 11967 11952 0
-11968 -11967 -11952 0
11968 -11967 11952 0
11968 11967 -11952 0
-11969 11968 11953 0
-11969 -11968 -11953 0
11969 -11968 11953 0
11969 11968 -11953 0
-11970 11969 11954 0
-11970 -11969 -11954 0
11970 -11969 11954 0
11970 11969 -11954 0
-11971 11970 11955 0
-11971 -11970 -11955 0
11971 -11970 11955 0
11971 11970 -11955 0
-11972 11971 11956 0
-11972 -11971 -11956 0
11972 -11971 11956 0
11972 11971 -11956 0
-11973 11972 11957 0
-11973 -11972 -11957 0
11973 -11972 11957 0
11973 11972 -11957 0
-11974 11973 11958 0
-11974 -11973 -11958 0
11974 -11973 11958 0
11974 11973 -11958 0
-11975 11974 11959 0
-11975 -11974 -11959 0
11975 -11974 11959 0
11975 11974 -11959 0
-11976 11975 11960 0
-11976 -11975 -11960 0
11976 -11975 11960 0
11976 11975 -11960 0
-11977 11976 11961 0
-11977 -11976 -11961 0
11977 -11976 11961 0
11977 11976 -11961 0
-11978 11977 11962 0
-11978 -11977 -11962 0
11978 -11977 11962 0
11978 11977 -11962 0
-11979 11978 11963 0
-11979 -11978 -11963 0
11979 -11978 11963 0
11979 11978 -11963 0
-11980 11979 11964 0
-11980 -11979 -11964 0
11980 -11979 11964 0
11980 11979 -11964 0
-11981 11980 11965 0
-11981 -11980 -11965 0
11981 -11980 11965 0
11981 11980 -11965 0
-11982 11981 11966 0
-11982 -11981 -11966 0
11982 -11981 11966 0
11982 11981 -11966 0
-11982 0
-11983 11702 0
-11983 41 0
11983 -11702 -41 0
-11984 11704 0
-11984 45 0
11984 -11704 -45 0
-11985 11706 0
-11985 45 0
11985 -11706 -45 0
-11986 11708 0
-11986 35 0
11986 -11708 -35 0
-11987 11710 0
-11987 36 0
11987 -11710 -36 0
-11988 11712 0
-11988 36 0
11988 -11712 -36 0
-11989 11714 0
-11989 89 0
11989 -11714 -89 0
-11990 11716 0
-11990 89 0
11990 -11716 -89 0
-11991 11718 0
-11991 83 0
11991 -11718 -83 0
-11992 11720 0
-11992 83 0
11992 -11720 -83 0
-11993 11722 0
-11993 137 0
11993 -11722 -137 0
-11994 11724 0
-11994 137 0
11994 -11724 -137 0
-11995 11726 0
-11995 131 0
11995 -11726 -131 0
-11996 11728 0
-11996 131 0
11996 -11728 -131 0
-11997 11730 0
-11997 185 0
11997 -11730 -185 0
-11998 11732 0
-11998 189 0
11998 -11732 -189 0
-11999 11734 0
-11999 189 0
11999 -11734 -189 0
-12000 11983 11984 0
-12000 -11983 -11984 0
12000 -11983 11984 0
12000 11983 -11984 0
-12001 12000 11985 0
-12001 -12000 -11985 0
12001 -12000 11985 0
12001 12000 -11985 0
-12002 12001 11986 0
-12002 -12001 -11986 0
12002 -12001 11986 0
12002 12001 -11986 0
-12003 12002 11987 0
-12003 -12002 -11987 0
12003 -12002 11987 0
12003 12002 -11987 0
-12004 12003 11988 0
-12004 -12003 -11988 0
12004 -12003 11988 0
12004 12003 -11988 0
-12005 12004 11989 0
-12005 -12004 -11989 0
12005 -12004 11989 0
12005 12004 -11989 0
-12006 12005 11990 0
-12006 -12005 -11990 0
12006 -12005 11990 0
12006 12005 -11990 0
-12007 12006 11991 0
-12007 -12006 -11991 0
12007 -12006 11991 0
12007 12006 -11991 0
-12008 12007 11992 0
-12008 -12007 -11992 0
12008 -12007 11992 0
12008 12007 -11992 0
-12009 12008 11993 0
-12009 -12008 -11993 0
12009 -12008 11993 0
12009 12008 -11993 0
-12010 12009 11994 0
-12010 -12009 -11994 0
12010 -12009 11994 0
12010 12009 -11994 0
-12011 12010 11995 0
-12011 -12010 -11995 0
12011 -12010 11995 0
12011 12010 -11995 0
-12012 12011 11996 0
-12012 -12011 -11996 0
12012 -12011 11996 0
12012 12011 -11996 0
-12013 12012 11997 0
-12013 -12012 -11997 0
12013 -12012 11997 0
12013 12012 -11997 0
-12014 12013 11998 0
-12014 -12013 -11998 0
12014 -12013 11998 0
12014 12013 -11998 0
-12015 12014 11999 0
-12015 -12014 -11999 0
12015 -12014 11999 0
12015 12014 -11999 0
-12015 0
-12016 11702 0
-12016 42 0
12016 -11702 -42 0
-12017 11704 0
-12017 46 0
12017 -11704 -46 0
-12018 11706 0
-12018 47 0
12018 -11706 -47 0
-12019 11708 0
-12019 39 0
12019 -11708 -39 0
-12020 11710 0
-12020 40 0
12020 -11710 -40 0
-12021 11712 0
-12021 44 0
12021 -11712 -44 0
-12022 11714 0
-12022 90 0
12022 -11714 -90 0
-12023 11716 0
-12023 92 0
12023 -11716 -92 0
-12024 11718 0
-12024 87 0
12024 -11718 -87 0
-12025 11720 0
-12025 95 0
12025 -11720 -95 0
-12026 11722 0
-12026 138 0
12026 -11722 -138 0
-12027 11724 0
-12027 140 0
12027 -11724 -140 0
-12028 11726 0
-12028 135 0
12028 -11726 -135 0
-12029 11728 0
-12029 143 0
12029 -11728 -143 0
-12030 11730 0
-12030 186 0
12030 -11730 -186 0
-12031 11732 0
-12031 190 0
12031 -11732 -190 0
-12032 11734 0
-12032 191 0
12032 -11734 -191 0
-12033 12016 12017 0
-12033 -12016 -12017 0
12033 -12016 12017 0
12033 12016 -12017 0
-12034 12033 12018 0
-12034 -12033 -12018 0
12034 -12033 12018 0
12034 12033 -12018 0
-12035 12034 12019 0
-12035 -12034 -12019 0
12035 -12034 12019 0
12035 12034 -12019 0
-12036 12035 12020 0
-12036 -12035 -12020 0
12036 -12035 12020 0
12036 12035 -12020 0
-12037 12036 12021 0
-12037 -12036 -12021 0
12037 -12036 12021 0
12037 12036 -12021 0
-12038 12037 12022 0
-12038 -12037 -12022 0
12038 -12037 12022 0
12038 12037 -12022 0
-12039 12038 12023 0
-12039 -12038 -12023 0
12039 -12038 12023 0
12039 12038 -12023 0
-12040 12039 12024 0
-12040 -12039 -12024 0
12040 -12039 12024 0
12040 12039 -12024 0
-12041 12040 12025 0
-12041 -12040 -12025 0
12041 -12040 12025 0
12041 12040 -12025 0
-12042 12041 12026 0
-12042 -12041 -12026 0
12042 -12041 12026 0
12042 12041 -12026 0
-12043 12042 12027 0
-12043 -12042 -12027 0
12043 -12042 12027 0
12043 12042 -12027 0
-12044 12043 12028 0
-12044 -12043 -12028 0
12044 -12043 12028 0
12044 12043 -12028 0
-12045 12044 12029 0
-12045 -12044 -12029 0
12045 -12044 12029 0
12045 12044 -12029 0
-12046 12045 12030 0
-12046 -12045 -12030 0
12046 -12045 12030 0
12046 12045 -12030 0
-12047 12046 12031 0
-12047 -12046 -12031 0
12047 -12046 12031 0
12047 12046 -12031 0
-12048 12047 12032 0
-12048 -12047 -12032 0
12048 -12047 12032 0
12048 12047 -12032 0
-12048 0
-12049 11702 0
-12049 43 0
12049 -11702 -43 0
-12050 11704 0
-12050 48 0
12050 -11704 -48 0
-12051 11706 0
-12051 48 0
12051 -11706 -48 0
-12052 11708 0
-12052 43 0
12052 -11708 -43 0
-12053 11710 0
-12053 48 0
12053 -11710 -48 0
-12054 11712 0
-12054 48 0
12054 -11712 -48 0
-12055 11714 0
-12055 91 0
12055 -11714 -91 0
-12056 11716 0
-12056 91 0
12056 -11716 -91 0
-12057 11718 0
-12057 91 0
12057 -11718 -91 0
-12058 11720 0
-12058 91 0
12058 -11720 -91 0
-12059 11722 0
-12059 139 0
12059 -11722 -139 0
-12060 11724 0
-12060 139 0
12060 -11724 -139 0
-12061 11726 0
-12061 139 0
12061 -11726 -139 0
-12062 11728 0
-12062 139 0
12062 -11728 -139 0
-12063 11730 0
-12063 187 0
12063 -11730 -187 0
-12064 11732 0
-12064 192 0
12064 -11732 -192 0
-12065 11734 0
-12065 192 0
12065 -11734 -192 0
-12066 12049 12050 0
-12066 -12049 -12050 0
12066 -12049 12050 0
12066 12049 -12050 0
-12067 12066 12051 0
-12067 -12066 -12051 0
12067 -12066 12051 0
12067 12066 -12051 0
-12068 12067 12052 0
-12068 -12067 -12052 0
12068 -12067 12052 0
12068 12067 -12052 0
-12069 12068 12053 0
-12069 -12068 -12053 0
12069 -12068 12053 0
12069 12068 -12053 0
-12070 12069 12054 0
-12070 -12069 -12054 0
12070 -12069 12054 0
12070 12069 -12054 0
-12071 12070 12055 0
-12071 -12070 -12055 0
12071 -12070 12055 0
12071 12070 -12055 0
-12072 12071 12056 0
-12072 -12071 -12056 0
12072 -12071 12056 0
12072 12071 -12056 0
-12073 12072 12057 0
-12073 -12072 -12057 0
12073 -12072 12057 0
12073 12072 -12057 0
-12074 12073 12058 0
-12074 -12073 -12058 0
12074 -12073 12058 0
12074 12073 -12058 0
-12075 12074 12059 0
-12075 -12074 -12059 0
12075 -12074 12059 0
12075 12074 -12059 0
-12076 12075 12060 0
-12076 -12075 -12060 0
12076 -12075 12060 0
12076 12075 -12060 0
-12077 12076 12061 0
-12077 -12076 -12061 0
12077 -12076 12061 0
12077 12076 -12061 0
-12078 12077 12062 0
-12078 -12077 -12062 0
12078 -12077 12062 0
12078 12077 -12062 0
-12079 12078 12063 0
-12079 -12078 -12063 0
12079 -12078 12063 0
12079 12078 -12063 0
-12080 12079 12064 0
-12080 -12079 -12064 0
12080 -12079 12064 0
12080 12079 -12064 0
-12081 12080 12065 0
-12081 -12080 -12065 0
12081 -12080 12065 0
12081 12080 -12065 0
-12081 0
-12082 11702 0
-12082 44 0
12082 -11702 -44 0
-12083 11704 0
-12083 47 0
12083 -11704 -47 0
-12084 11706 0
-12084 46 0
12084 -11706 -46 0
-12085 11708 0
-12085 47 0
12085 -11708 -47 0
-12086 11710 0
-12086 44 0
12086 -11710 -44 0
-12087 11712 0
-12087 40 0
12087 -11712 -40 0
-12088 11714 0
-12088 92 0
12088 -11714 -92 0
-12089 11716 0
-12089 90 0
12089 -11716 -90 0
-12090 11718 0
-12090 95 0
12090 -11718 -95 0
-12091 11720 0
-12091 87 0
12091 -11720 -87 0
-12092 11722 0
-12092 140 0
12092 -11722 -140 0
-12093 11724 0
-12093 138 0
12093 -11724 -138 0
-12094 11726 0
-12094 143 0
12094 -11726 -143 0
-12095 11728 0
-12095 135 0
12095 -11728 -135 0
-12096 11730 0
-12096 188 0
12096 -11730 -188 0
-12097 11732 0
-12097 191 0
12097 -11732 -191 0
-12098 11734 0
-12098 190 0
12098 -11734 -190 0
-12099 12082 12083 0
-12099 -12082 -12083 0
12099 -12082 12083 0
12099 12082 -12083 0
-12100 12099 12084 0
-12100 -12099 -12084 0
12100 -12099 12084 0
12100 12099 -12084 0
-12101 12100 12085 0
-12101 -12100 -12085 0
12101 -12100 12085 0
12101 12100 -12085 0
-12102 12101 12086 0
-12102 -12101 -12086 0
12102 -12101 12086 0
12102 12101 -12086 0
-12103 12102 12087 0
-12103 -12102 -12087 0
12103 -12102 12087 0
12103 12102 -12087 0
-12104 12103 12088 0
-12104 -12103 -12088 0
12104 -12103 12088 0
12104 12103 -12088 0
-12105 12104 12089 0
-12105 -12104 -12089 0
12105 -12104 12089 0
12105 12104 -12089 0
-12106 12105 12090 0
-12106 -12105 -12090 0
12106 -12105 12090 0
12106 12105 -12090 0
-12107 12106 12091 0
-12107 -12106 -12091 0
12107 -12106 12091 0
12107 12106 -12091 0
-12108 12107 12092 0
-12108 -12107 -12092 0
12108 -12107 12092 0
12108 12107 -12092 0
-12109 12108 12093 0
-12109 -12108 -12093 0
12109 -12108 12093 0
12109 12108 -12093 0
-12110 12109 12094 0
-12110 -12109 -12094 0
12110 -12109 12094 0
12110 12109 -12094 0
-12111 12110 12095 0
-12111 -12110 -12095 0
12111 -12110 12095 0
12111 12110 -12095 0
-12112 12111 12096 0
-12112 -12111 -12096 0
12112 -12111 12096 0
12112 12111 -12096 0
-12113 12112 12097 0
-12113 -12112 -12097 0
12113 -12112 12097 0
12113 12112 -12097 0
-12114 12113 12098 0
-12114 -12113 -12098 0
12114 -12113 12098 0
12114 12113 -12098 0
-12114 0
-12115 11702 0
-12115 45 0
12115 -11702 -45 0
-12116 11704 0
-12116 41 0
12116 -11704 -41 0
-12117 11706 0
-12117 37 0
12117 -11706 -37 0
-12118 11708 0
-12118 36 0
12118 -11708 -36 0
-12119 11710 0
-12119 35 0
12119 -11710 -35 0
-12120 11712 0
-12120 34 0
12120 -11712 -34 0
-12121 11714 0
-12121 93 0
12121 -11714 -93 0
-12122 11716 0
-12122 85 0
12122 -11716 -85 0
-12123 11718 0
-12123 84 0
12123 -11718 -84 0
-12124 11720 0
-12124 82 0
12124 -11720 -82 0
-12125 11722 0
-12125 141 0
12125 -11722 -141 0
-12126 11724 0
-12126 133 0
12126 -11724 -133 0
-12127 11726 0
-12127 132 0
12127 -11726 -132 0
-12128 11728 0
-12128 130 0
12128 -11728 -130 0
-12129 11730 0
-12129 189 0
12129 -11730 -189 0
-12130 11732 0
-12130 185 0
12130 -11732 -185 0
-12131 11734 0
-12131 181 0
12131 -11734 -181 0
-12132 12115 12116 0
-12132 -12115 -12116 0
12132 -12115 12116 0
12132 12115 -12116 0
-12133 12132 12117 0
-12133 -12132 -12117 0
12133 -12132 12117 0
12133 12132 -12117 0
-12134 12133 12118 0
-12134 -12133 -12118 0
12134 -12133 12118 0
12134 12133 -12118 0
-12135 12134 12119 0
-12135 -12134 -12119 0
12135 -12134 12119 0
12135 12134 -12119 0
-12136 12135 12120 0
-12136 -12135 -12120 0
12136 -12135 12120 0
12136 12135 -12120 0
-12137 12136 12121 0
-12137 -12136 -12121 0
12137 -12136 12121 0
12137 12136 -12121 0
-12138 12137 12122 0
-12138 -12137 -12122 0
12138 -12137 12122 0
12138 12137 -12122 0
-12139 12138 12123 0
-12139 -12138 -12123 0
12139 -12138 12123 0
12139 12138 -12123 0
-12140 12139 12124 0
-12140 -12139 -12124 0
12140 -12139 12124 0
12140 12139 -12124 0
-12141 12140 12125 0
-12141 -12140 -12125 0
12141 -12140 12125 0
12141 12140 -12125 0
-12142 12141 12126 0
-12142 -12141 -12126 0
12142 -12141 12126 0
12142 12141 -12126 0
-12143 12142 12127 0
-12143 -12142 -12127 0
12143 -12142 12127 0
12143 12142 -12127 0
-12144 12143 12128 0
-12144 -12143 -12128 0
12144 -12143 12128 0
12144 12143 -12128 0
-12145 12144 12129 0
-12145 -12144 -12129 0
12145 -12144 12129 0
12145 12144 -12129 0
-12146 12145 12130 0
-12146 -12145 -12130 0
12146 -12145 12130 0
12146 12145 -12130 0
-12147 12146 12131 0
-12147 -12146 -12131 0
12147 -12146 12131 0
12147 12146 -12131 0
-12147 0
-12148 11702 0
-12148 46 0
12148 -11702 -46 0
-12149 11704 0
-12149 42 0
12149 -11704 -42 0
-12150 11706 0
-12150 39 0
12150 -11706 -39 0
-12151 11708 0
-12151 40 0
12151 -11708 -40 0
-12152 11710 0
-12152 39 0
12152 -11710 -39 0
-12153 11712 0
-12153 42 0
12153 -11712 -42 0
-12154 11714 0
-12154 94 0
12154 -11714 -94 0
-12155 11716 0
-12155 88 0
12155 -11716 -88 0
-12156 11718 0
-12156 88 0
12156 -11718 -88 0
-12157 11720 0
-12157 94 0
12157 -11720 -94 0
-12158 11722 0
-12158 142 0
12158 -11722 -142 0
-12159 11724 0
-12159 136 0
12159 -11724 -136 0
-12160 11726 0
-12160 136 0
12160 -11726 -136 0
-12161 11728 0
-12161 142 0
12161 -11728 -142 0
-12162 11730 0
-12162 190 0
12162 -11730 -190 0
-12163 11732 0
-12163 186 0
12163 -11732 -186 0
-12164 11734 0
-12164 183 0
12164 -11734 -183 0
-12165 12148 12149 0
-12165 -12148 -12149 0
12165 -12148 12149 0
12165 12148 -12149 0
-12166 12165 12150 0
-12166 -12165 -12150 0
12166 -12165 12150 0
12166 12165 -12150 0
-12167 12166 12151 0
-12167 -12166 -12151 0
12167 -12166 12151 0
12167 12166 -12151 0
-12168 12167 12152 0
-12168 -12167 -12152 0
12168 -12167 12152 0
12168 12167 -12152 0
-12169 12168 12153 0
-12169 -12168 -12153 0
12169 -12168 12153 0
12169 12168 -12153 0
-12170 12169 12154 0
-12170 -12169 -12154 0
12170 -12169 12154 0
12170 12169 -12154 0
-12171 12170 12155 0
-12171 -12170 -12155 0
12171 -12170 12155 0
12171 12170 -12155 0
-12172 12171 12156 0
-12172 -12171 -12156 0
12172 -12171 12156 0
12172 12171 -12156 0
-12173 12172 12157 0
-12173 -12172 -12157 0
12173 -12172 12157 0
12173 12172 -12157 0
-12174 12173 12158 0
-12174 -12173 -12158 0
12174 -12173 12158 0
12174 12173 -12158 0
-12175 12174 12159 0
-12175 -12174 -12159 0
12175 -12174 12159 0
12175 12174 -12159 0
-12176 12175 12160 0
-12176 -12175 -12160 0
12176 -12175 12160 0
12176 12175 -12160 0
-12177 12176 12161 0
-12177 -12176 -12161 0
12177 -12176 12161 0
12177 12176 -12161 0
-12178 12177 12162 0
-12178 -12177 -12162 0
12178 -12177 12162 0
12178 12177 -12162 0
-12179 12178 12163 0
-12179 -12178 -12163 0
12179 -12178 12163 0
12179 12178 -12163 0
-12180 12179 12164 0
-12180 -12179 -12164 0
12180 -12179 12164 0
12180 12179 -12164 0
-12180 0
-12181 11702 0
-12181 47 0
12181 -11702 -47 0
-12182 11704 0
-12182 44 0
12182 -11704 -44 0
-12183 11706 0
-12183 40 0
12183 -11706 -40 0
-12184 11708 0
-12184 44 0
12184 -11708 -44 0
-12185 11710 0
-12185 47 0
12185 -11710 -47 0
-12186 11712 0
-12186 46 0
12186 -11712 -46 0
-12187 11714 0
-12187 95 0
12187 -11714 -95 0
-12188 11716 0
-12188 87 0
12188 -11716 -87 0
-12189 11718 0
-12189 92 0
12189 -11718 -92 0
-12190 11720 0
-12190 90 0
12190 -11720 -90 0
-12191 11722 0
-12191 143 0
12191 -11722 -143 0
-12192 11724 0
-12192 135 0
12192 -11724 -135 0
-12193 11726 0
-12193 140 0
12193 -11726 -140 0
-12194 11728 0
-12194 138 0
12194 -11728 -138 0
-12195 11730 0
-12195 191 0
12195 -11730 -191 0
-12196 11732 0
-12196 188 0
12196 -11732 -188 0
-12197 11734 0
-12197 184 0
12197 -11734 -184 0
-12198 12181 12182 0
-12198 -12181 -12182 0
12198 -12181 12182 0
12198 12181 -12182 0
-12199 12198 12183 0
-12199 -12198 -12183 0
12199 -12198 12183 0
12199 12198 -12183 0
-12200 12199 12184 0
-12200 -12199 -12184 0
12200 -12199 12184 0
12200 12199 -12184 0
-12201 12200 12185 0
-12201 -12200 -12185 0
12201 -12200 12185 0
12201 12200 -12185 0
-12202 12201 12186 0
-12202 -12201 -12186 0
12202 -12201 12186 0
12202 12201 -12186 0
-12203 12202 12187 0
-12203 -12202 -12187 0
12203 -12202 12187 0
12203 12202 -12187 0
-12204 12203 12188 0
-12204 -12203 -12188 0
12204 -12203 12188 0
12204 12203 -12188 0
-12205 12204 12189 0
-12205 -12204 -12189 0
12205 -12204 12189 0
12205 12204 -12189 0
-12206 12205 12190 0
-12206 -12205 -12190 0
12206 -12205 12190 0
12206 12205 -12190 0
-12207 12206 12191 0
-12207 -12206 -12191 0
12207 -12206 12191 0
12207 12206 -12191 0
-12208 12207 12192 0
-12208 -12207 -12192 0
12208 -12207 12192 0
12208 12207 -12192 0
-12209 12208 12193 0
-12209 -12208 -12193 0
12209 -12208 12193 0
12209 12208 -12193 0
-12210 12209 12194 0
-12210 -12209 -12194 0
12210 -12209 12194 0
12210 12209 -12194 0
-12211 12210 12195 0
-12211 -12210 -12195 0
12211 -12210 12195 0
12211 12210 -12195 0
-12212 12211 12196 0
-12212 -12211 -12196 0
12212 -12211 12196 0
12212 12211 -12196 0
-12213 12212 12197 0
-12213 -12212 -12197 0
12213 -12212 12197 0
12213 12212 -12197 0
-12213 0
-12214 11702 0
-12214 48 0
12214 -11702 -48 0
-12215 11704 0
-12215 43 0
12215 -11704 -43 0
-12216 11706 0
-12216 38 0
12216 -11706 -38 0
-12217 11708 0
-12217 48 0
12217 -11708 -48 0
-12218 11710 0
-12218 43 0
12218 -11710 -43 0
-12219 11712 0
-12219 38 0
12219 -11712 -38 0
-12220 11714 0
-12220 96 0
12220 -11714 -96 0
-12221 11716 0
-12221 86 0
12221 -11716 -86 0
-12222 11718 0
-12222 96 0
12222 -11718 -96 0
-12223 11720 0
-12223 86 0
12223 -11720 -86 0
-12224 11722 0
-12224 144 0
12224 -11722 -144 0
-12225 11724 0
-12225 134 0
12225 -11724 -134 0
-12226 11726 0
-12226 144 0
12226 -11726 -144 0
-12227 11728 0
-12227 134 0
12227 -11728 -134 0
-12228 11730 0
-12228 192 0
12228 -11730 -192 0
-12229 11732 0
-12229 187 0
12229 -11732 -187 0
-12230 11734 0
-12230 182 0
12230 -11734 -182 0
-12231 12214 12215 0
-12231 -12214 -12215 0
12231 -12214 12215 0
12231 12214 -12215 0
-12232 12231 12216 0
-12232 -12231 -12216 0
12232 -12231 12216 0
12232 12231 -12216 0
-12233 12232 12217 0
-12233 -12232 -12217 0
12233 -12232 12217 0
12233 12232 -12217 0
-12234 12233 12218 0
-12234 -12233 -12218 0
12234 -12233 12218 0
12234 12233 -12218 0
-12235 12234 12219 0
-12235 -12234 -12219 0
12235 -12234 12219 0
12235 12234 -12219 0
-12236 12235 12220 0
-12236 -12235 -12220 0
12236 -12235 12220 0
12236 12235 -12220 0
-12237 12236 12221 0
-12237 -12236 -12221 0
12237 -12236 12221 0
12237 12236 -12221 0
-12238 12237 12222 0
-12238 -12237 -12222 0
12238 -12237 12222 0
12238 12237 -12222 0
-12239 12238 12223 0
-12239 -12238 -12223 0
12239 -12238 12223 0
12239 12238 -12223 0
-12240 12239 12224 0
-12240 -12239 -12224 0
12240 -12239 12224 0
12240 12239 -12224 0
-12241 12240 12225 0
-12241 -12240 -12225 0
12241 -12240 12225 0
12241 12240 -12225 0
-12242 12241 12226 0
-12242 -12241 -12226 0
12242 -12241 12226 0
12242 12241 -12226 0
-12243 12242 12227 0
-12243 -12242 -12227 0
12243 -12242 12227 0
12243 12242 -12227 0
-12244 12243 12228 0
-12244 -12243 -12228 0
12244 -12243 12228 0
12244 12243 -12228 0
-12245 12244 12229 0
-12245 -12244 -12229 0
12245 -12244 12229 0
12245 12244 -12229 0
-12246 12245 12230 0
-12246 -12245 -12230 0
12246 -12245 12230 0
12246 12245 -12230 0
-12246 0
-12247 8 0
-12247 30 0
12247 -8 -30 0
-12248 12247 0
-12248 33 0
12248 -12247 -33 0
-12249 12 0
-12249 31 0
12249 -12 -31 0
-12250 12249 0
-12250 33 0
12250 -12249 -33 0
-12251 56 0
-12251 78 0
12251 -56 -78 0
-12252 12251 0
-12252 81 0
12252 -12251 -81 0
-12253 64 0
-12253 80 0
12253 -64 -80 0
-12254 12253 0
-12254 81 0
12254 -12253 -81 0
-12255 104 0
-12255 126 0
12255 -104 -126 0
-12256 12255 0
-12256 129 0
12256 -12255 -129 0
-12257 112 0
-12257 128 0
12257 -112 -128 0
-12258 12257 0
-12258 129 0
12258 -12257 -129 0
-12259 152 0
-12259 174 0
12259 -152 -174 0
-12260 12259 0
-12260 177 0
12260 -12259 -177 0
-12261 156 0
-12261 175 0
12261 -156 -175 0
-12262 12261 0
-12262 177 0
12262 -12261 -177 0
-12263 12248 12248 0
-12263 -12248 -12248 0
12263 -12248 12248 0
12263 12248 -12248 0
-12264 12263 12250 0
-12264 -12263 -12250 0
12264 -12263 12250 0
12264 12263 -12250 0
-12265 12264 12248 0
-12265 -12264 -12248 0
12265 -12264 12248 0
12265 12264 -12248 0
-12266 12265 12248 0
-12266 -12265 -12248 0
12266 -12265 12248 0
12266 12265 -12248 0
-12267 12266 12250 0
-12267 -12266 -12250 0
12267 -12266 12250 0
12267 12266 -12250 0
-12268 12267 12252 0
-12268 -12267 -12252 0
12268 -12267 12252 0
12268 12267 -12252 0
-12269 12268 12254 0
-12269 -12268 -12254 0
12269 -12268 12254 0
12269 12268 -12254 0
-12270 12269 12252 0
-12270 -12269 -12252 0
12270 -12269 12252 0
12270 12269 -12252 0
-12271 12270 12254 0
-12271 -12270 -12254 0
12271 -12270 12254 0
12271 12270 -12254 0
-12272 12271 12256 0
-12272 -12271 -12256 0
12272 -12271 12256 0
12272 12271 -12256 0
-12273 12272 12258 0
-12273 -12272 -12258 0
12273 -12272 12258 0
12273 12272 -12258 0
-12274 12273 12256 0
-12274 -12273 -12256 0
12274 -12273 12256 0
12274 12273 -12256 0
-12275 12274 12258 0
-12275 -12274 -12258 0
12275 -12274 12258 0
12275 12274 -12258 0
-12276 12275 12260 0
-12276 -12275 -12260 0
12276 -12275 12260 0
12276 12275 -12260 0
-12277 12276 12260 0
-12277 -12276 -12260 0
12277 -12276 12260 0
12277 12276 -12260 0
-12278 12277 12262 0
-12278 -12277 -12262 0
12278 -12277 12262 0
12278 12277 -12262 0
-12278 0
-12279 12247 0
-12279 34 0
12279 -12247 -34 0
-12280 12249 0
-12280 35 0
12280 -12249 -35 0
-12281 12247 0
-12281 37 0
12281 -12247 -37 0
-12282 12249 0
-12282 41 0
12282 -12249 -41 0
-12283 12251 0
-12283 82 0
12283 -12251 -82 0
-12284 12253 0
-12284 84 0
12284 -12253 -84 0
-12285 12251 0
-12285 85 0
12285 -12251 -85 0
-12286 12253 0
-12286 93 0
12286 -12253 -93 0
-12287 12255 0
-12287 130 0
12287 -12255 -130 0
-12288 12257 0
-12288 132 0
12288 -12257 -132 0
-12289 12255 0
-12289 133 0
12289 -12255 -133 0
-12290 12257 0
-12290 141 0
12290 -12257 -141 0
-12291 12259 0
-12291 178 0
12291 -12259 -178 0
-12292 12261 0
-12292 179 0
12292 -12261 -179 0
-12293 12279 12279 0
-12293 -12279 -12279 0
12293 -12279 12279 0
12293 12279 -12279 0
-12294 12293 12280 0
-12294 -12293 -12280 0
12294 -12293 12280 0
12294 12293 -12280 0
-12295 12294 12281 0
-12295 -12294 -12281 0
12295 -12294 12281 0
12295 12294 -12281 0
-12296 12295 12281 0
-12296 -12295 -12281 0
12296 -12295 12281 0
12296 12295 -12281 0
-12297 12296 12282 0
-12297 -12296 -12282 0
12297 -12296 12282 0
12297 12296 -12282 0
-12298 12297 12283 0
-12298 -12297 -12283 0
12298 -12297 12283 0
12298 12297 -12283 0
-12299 12298 12284 0
-12299 -12298 -12284 0
12299 -12298 12284 0
12299 12298 -12284 0
-12300 12299 12285 0
-12300 -12299 -12285 0
12300 -12299 12285 0
12300 12299 -12285 0
-12301 12300 12286 0
-12301 -12300 -12286 0
12301 -12300 12286 0
12301 12300 -12286 0
-12302 12301 12287 0
-12302 -12301 -12287 0
12302 -12301 12287 0
12302 12301 -12287 0
-12303 12302 12288 0
-12303 -12302 -12288 0
12303 -12302 12288 0
12303 12302 -12288 0
-12304 12303 12289 0
-12304 -12303 -12289 0
12304 -12303 12289 0
12304 12303 -12289 0
-12305 12304 12290 0
-12305 -12304 -12290 0
12305 -12304 12290 0
12305 12304 -12290 0
-12306 12305 12291 0
-12306 -12305 -12291 0
12306 -12305 12291 0
12306 12305 -12291 0
-12307 12306 12291 0
-12307 -12306 -12291 0
12307 -12306 12291 0
12307 12306 -12291 0
-12308 12307 12292 0
-12308 -12307 -12292 0
12308 -12307 12292 0
12308 12307 -12292 0
-12308 0
-12309 12247 0
-12309 35 0
12309 -12247 -35 0
-12310 12247 0
-12310 36 0
12310 -12247 -36 0
-12311 12249 0
-12311 36 0
12311 -12249 -36 0
-12312 12247 0
-12312 41 0
12312 -12247 -41 0
-12313 12247 0
-12313 45 0
12313 -12247 -45 0
-12314 12249 0
-12314 45 0
12314 -12249 -45 0
-12315 12251 0
-12315 83 0
12315 -12251 -83 0
-12316 12253 0
-12316 83 0
12316 -12253 -83 0
-12317 12251 0
-12317 89 0
12317 -12251 -89 0
-12318 12253 0
-12318 89 0
12318 -12253 -89 0
-12319 12255 0
-12319 131 0
12319 -12255 -131 0
-12320 12257 0
-12320 131 0
12320 -12257 -131 0
-12321 12255 0
-12321 137 0
12321 -12255 -137 0
-12322 12257 0
-12322 137 0
12322 -12257 -137 0
-12323 12259 0
-12323 179 0
12323 -12259 -179 0
-12324 12259 0
-12324 180 0
12324 -12259 -180 0
-12325 12261 0
-12325 180 0
12325 -12261 -180 0
-12326 12309 12310 0
-12326 -12309 -12310 0
12326 -12309 12310 0
12326 12309 -12310 0
-12327 12326 12311 0
-12327 -12326 -12311 0
12327 -12326 12311 0
12327 12326 -12311 0
-12328 12327 12312 0
-12328 -12327 -12312 0
12328 -12327 12312 0
12328 12327 -12312 0
-12329 12328 12313 0
-12329 -12328 -12313 0
12329 -12328 12313 0
12329 12328 -12313 0
-12330 12329 12314 0
-12330 -12329 -12314 0
12330 -12329 12314 0
12330 12329 -12314 0
-12331 12330 12315 0
-12331 -12330 -12315 0
12331 -12330 12315 0
12331 12330 -12315 0
-12332 12331 12316 0
-12332 -12331 -12316 0
12332 -12331 12316 0
12332 12331 -12316 0
-12333 12332 12317 0
-12333 -12332 -12317 0
12333 -12332 12317 0
12333 12332 -12317 0
-12334 12333 12318 0
-12334 -12333 -12318 0
12334 -12333 12318 0
12334 12333 -12318 0
-12335 12334 12319 0
-12335 -12334 -12319 0
12335 -12334 12319 0
12335 12334 -12319 0
-12336 12335 12320 0
-12336 -12335 -12320 0
12336 -12335 12320 0
12336 12335 -12320 0
-12337 12336 12321 0
-12337 -12336 -12321 0
12337 -12336 12321 0
12337 12336 -12321 0
-12338 12337 12322 0
-12338 -12337 -12322 0
12338 -12337 12322 0
12338 12337 -12322 0
-12339 12338 12323 0
-12339 -12338 -12323 0
12339 -12338 12323 0
12339 12338 -12323 0
-12340 12339 12324 0
-12340 -12339 -12324 0
12340 -12339 12324 0
12340 12339 -12324 0
-12341 12340 12325 0
-12341 -12340 -12325 0
12341 -12340 12325 0
12341 12340 -12325 0
-12341 0
-12342 12247 0
-12342 38 0
12342 -12247 -38 0
-12343 12249 0
-12343 43 0
12343 -12249 -43 0
-12344 12251 0
-12344 86 0
12344 -12251 -86 0
-12345 12253 0
-12345 96 0
12345 -12253 -96 0
-12346 12255 0
-12346 134 0
12346 -12255 -134 0
-12347 12257 0
-12347 144 0
12347 -12257 -144 0
-12348 12259 0
-12348 182 0
12348 -12259 -182 0
-12349 12261 0
-12349 187 0
12349 -12261 -187 0
-12350 12342 12342 0
-12350 -12342 -12342 0
12350 -12342 12342 0
12350 12342 -12342 0
-12351 12350 12343 0
-12351 -12350 -12343 0
12351 -12350 12343 0
12351 12350 -12343 0
-12352 12351 12342 0
-12352 -12351 -12342 0
12352 -12351 12342 0
12352 12351 -12342 0
-12353 12352 12342 0
-12353 -12352 -12342 0
12353 -12352 12342 0
12353 12352 -12342 0
-12354 12353 12343 0
-12354 -12353 -12343 0
12354 -12353 12343 0
12354 12353 -12343 0
-12355 12354 12344 0
-12355 -12354 -12344 0
12355 -12354 12344 0
12355 12354 -12344 0
-12356 12355 12345 0
-12356 -12355 -12345 0
12356 -12355 12345 0
12356 12355 -12345 0
-12357 12356 12344 0
-12357 -12356 -12344 0
12357 -12356 12344 0
12357 12356 -12344 0
-12358 12357 12345 0
-12358 -12357 -12345 0
12358 -12357 12345 0
12358 12357 -12345 0
-12359 12358 12346 0
-12359 -12358 -12346 0
12359 -12358 12346 0
12359 12358 -12346 0
-12360 12359 12347 0
-12360 -12359 -12347 0
12360 -12359 12347 0
12360 12359 -12347 0
-12361 12360 12346 0
-12361 -12360 -12346 0
12361 -12360 12346 0
12361 12360 -12346 0
-12362 12361 12347 0
-12362 -12361 -12347 0
12362 -12361 12347 0
12362 12361 -12347 0
-12363 12362 12348 0
-12363 -12362 -12348 0
12363 -12362 12348 0
12363 12362 -12348 0
-12364 12363 12348 0
-12364 -12363 -12348 0
12364 -12363 12348 0
12364 12363 -12348 0
-12365 12364 12349 0
-12365 -12364 -12349 0
12365 -12364 12349 0
12365 12364 -12349 0
-12365 0
-12366 12247 0
-12366 39 0
12366 -12247 -39 0
-12367 12247 0
-12367 40 0
12367 -12247 -40 0
-12368 12249 0
-12368 44 0
12368 -12249 -44 0
-12369 12247 0
-12369 42 0
12369 -12247 -42 0
-12370 12247 0
-12370 46 0
12370 -12247 -46 0
-12371 12249 0
-12371 47 0
12371 -12249 -47 0
-12372 12251 0
-12372 87 0
12372 -12251 -87 0
-12373 12253 0
-12373 95 0
12373 -12253 -95 0
-12374 12251 0
-12374 90 0
12374 -12251 -90 0
-12375 12253 0
-12375 92 0
12375 -12253 -92 0
-12376 12255 0
-12376 135 0
12376 -12255 -135 0
-12377 12257 0
-12377 143 0
12377 -12257 -143 0
-12378 12255 0
-12378 138 0
12378 -12255 -138 0
-12379 12257 0
-12379 140 0
12379 -12257 -140 0
-12380 12259 0
-12380 183 0
12380 -12259 -183 0
-12381 12259 0
-12381 184 0
12381 -12259 -184 0
-12382 12261 0
-12382 188 0
12382 -12261 -188 0
-12383 12366 12367 0
-12383 -12366 -12367 0
12383 -12366 12367 0
12383 12366 -12367 0
-12384 12383 12368 0
-12384 -12383 -12368 0
12384 -12383 12368 0
12384 12383 -12368 0
-12385 12384 12369 0
-12385 -12384 -12369 0
12385 -12384 12369 0
12385 12384 -12369 0
-12386 12385 12370 0
-12386 -12385 -12370 0
12386 -12385 12370 0
12386 12385 -12370 0
-12387 12386 12371 0
-12387 -12386 -12371 0
12387 -12386 12371 0
12387 12386 -12371 0
-12388 12387 12372 0
-12388 -12387 -12372 0
12388 -12387 12372 0
12388 12387 -12372 0
-12389 12388 12373 0
-12389 -12388 -12373 0
12389 -12388 12373 0
12389 12388 -12373 0
-12390 12389 12374 0
-12390 -12389 -12374 0
12390 -12389 12374 0
12390 12389 -12374 0
-12391 12390 12375 0
-12391 -12390 -12375 0
12391 -12390 12375 0
12391 12390 -12375 0
-12392 12391 12376 0
-12392 -12391 -12376 0
12392 -12391 12376 0
12392 12391 -12376 0
-12393 12392 12377 0
-12393 -12392 -12377 0
12393 -12392 12377 0
12393 12392 -12377 0
-12394 12393 12378 0
-12394 -12393 -12378 0
12394 -12393 12378 0
12394 12393 -12378 0
-12395 12394 12379 0
-12395 -12394 -12379 0
12395 -12394 12379 0
12395 12394 -12379 0
-12396 12395 12380 0
-12396 -12395 -12380 0
12396 -12395 12380 0
12396 12395 -12380 0
-12397 12396 12381 0
-12397 -12396 -12381 0
12397 -12396 12381 0
12397 12396 -12381 0
-12398 12397 12382 0
-12398 -12397 -12382 0
12398 -12397 12382 0
12398 12397 -12382 0
-12398 0
-12399 12247 0
-12399 43 0
12399 -12247 -43 0
-12400 12247 0
-12400 48 0
12400 -12247 -48 0
-12401 12249 0
-12401 48 0
12401 -12249 -48 0
-12402 12251 0
-12402 91 0
12402 -12251 -91 0
-12403 12253 0
-12403 91 0
12403 -12253 -91 0
-12404 12255 0
-12404 139 0
12404 -12255 -139 0
-12405 12257 0
-12405 139 0
12405 -12257 -139 0
-12406 12259 0
-12406 187 0
12406 -12259 -187 0
-12407 12259 0
-12407 192 0
12407 -12259 -192 0
-12408 12261 0
-12408 192 0
12408 -12261 -192 0
-12409 12399 12400 0
-12409 -12399 -12400 0
12409 -12399 12400 0
12409 12399 -12400 0
-12410 12409 12401 0
-12410 -12409 -12401 0
12410 -12409 12401 0
12410 12409 -12401 0
-12411 12410 12399 0
-12411 -12410 -12399 0
12411 -12410 12399 0
12411 12410 -12399 0
-12412 12411 12400 0
-12412 -12411 -12400 0
12412 -12411 12400 0
12412 12411 -12400 0
-12413 12412 12401 0
-12413 -12412 -12401 0
12413 -12412 12401 0
12413 12412 -12401 0
-12414 12413 12402 0
-12414 -12413 -12402 0
12414 -12413 12402 0
12414 12413 -12402 0
-12415 12414 12403 0
-12415 -12414 -12403 0
12415 -12414 12403 0
12415 12414 -12403 0
-12416 12415 12402 0
-12416 -12415 -12402 0
12416 -12415 12402 0
12416 12415 -12402 0
-12417 12416 12403 0
-12417 -12416 -12403 0
12417 -12416 12403 0
12417 12416 -12403 0
-12418 12417 12404 0
-12418 -12417 -12404 0
12418 -12417 12404 0
12418 12417 -12404 0
-12419 12418 12405 0
-12419 -12418 -12405 0
12419 -12418 12405 0
12419 12418 -12405 0
-12420 12419 12404 0
-12420 -12419 -12404 0
12420 -12419 12404 0
12420 12419 -12404 0
-12421 12420 12405 0
-12421 -12420 -12405 0
12421 -12420 12405 0
12421 12420 -12405 0
-12422 12421 12406 0
-12422 -12421 -12406 0
12422 -12421 12406 0
12422 12421 -12406 0
-12423 12422 12407 0
-12423 -12422 -12407 0
12423 -12422 12407 0
12423 12422 -12407 0
-12424 12423 12408 0
-12424 -12423 -12408 0
12424 -12423 12408 0
12424 12423 -12408 0
-12424 0
-12425 12247 0
-12425 44 0
12425 -12247 -44 0
-12426 12247 0
-12426 47 0
12426 -12247 -47 0
-12427 12249 0
-12427 46 0
12427 -12249 -46 0
-12428 12249 0
-12428 40 0
12428 -12249 -40 0
-12429 12251 0
-12429 92 0
12429 -12251 -92 0
-12430 12253 0
-12430 90 0
12430 -12253 -90 0
-12431 12251 0
-12431 95 0
12431 -12251 -95 0
-12432 12253 0
-12432 87 0
12432 -12253 -87 0
-12433 12255 0
-12433 140 0
12433 -12255 -140 0
-12434 12257 0
-12434 138 0
12434 -12257 -138 0
-12435 12255 0
-12435 143 0
12435 -12255 -143 0
-12436 12257 0
-12436 135 0
12436 -12257 -135 0
-12437 12259 0
-12437 188 0
12437 -12259 -188 0
-12438 12259 0
-12438 191 0
12438 -12259 -191 0
-12439 12261 0
-12439 190 0
12439 -12261 -190 0
-12440 12425 12426 0
-12440 -12425 -12426 0
12440 -12425 12426 0
12440 12425 -12426 0
-12441 12440 12427 0
-12441 -12440 -12427 0
12441 -12440 12427 0
12441 12440 -12427 0
-12442 12441 12426 0
-12442 -12441 -12426 0
12442 -12441 12426 0
12442 12441 -12426 0
-12443 12442 12425 0
-12443 -12442 -12425 0
12443 -12442 12425 0
12443 12442 -12425 0
-12444 12443 12428 0
-12444 -12443 -12428 0
12444 -12443 12428 0
12444 12443 -12428 0
-12445 12444 12429 0
-12445 -12444 -12429 0
12445 -12444 12429 0
12445 12444 -12429 0
-12446 12445 12430 0
-12446 -12445 -12430 0
12446 -12445 12430 0
12446 12445 -12430 0
-12447 12446 12431 0
-12447 -12446 -12431 0
12447 -12446 12431 0
12447 12446 -12431 0
-12448 12447 12432 0
-12448 -12447 -12432 0
12448 -12447 12432 0
12448 12447 -12432 0
-12449 12448 12433 0
-12449 -12448 -12433 0
12449 -12448 12433 0
12449 12448 -12433 0
-12450 12449 12434 0
-12450 -12449 -12434 0
12450 -12449 12434 0
12450 12449 -12434 0
-12451 12450 12435 0
-12451 -12450 -12435 0
12451 -12450 12435 0
12451 12450 -12435 0
-12452 12451 12436 0
-12452 -12451 -12436 0
12452 -12451 12436 0
12452 12451 -12436 0
-12453 12452 12437 0
-12453 -12452 -12437 0
12453 -12452 12437 0
12453 12452 -12437 0
-12454 12453 12438 0
-12454 -12453 -12438 0
12454 -12453 12438 0
12454 12453 -12438 0
-12455 12454 12439 0
-12455 -12454 -12439 0
12455 -12454 12439 0
12455 12454 -12439 0
-12455 0
-12456 8 0
-12456 31 0
12456 -8 -31 0
-12457 12456 0
-12457 33 0
12457 -12456 -33 0
-12458 8 0
-12458 32 0
12458 -8 -32 0
-12459 12458 0
-12459 33 0
12459 -12458 -33 0
-12460 12 0
-12460 32 0
12460 -12 -32 0
-12461 12460 0
-12461 33 0
12461 -12460 -33 0
-12462 30 0
-12462 12 0
12462 -30 -12 0
-12463 12462 0
-12463 33 0
12463 -12462 -33 0
-12464 30 0
-12464 16 0
12464 -30 -16 0
-12465 12464 0
-12465 33 0
12465 -12464 -33 0
-12466 31 0
-12466 16 0
12466 -31 -16 0
-12467 12466 0
-12467 33 0
12467 -12466 -33 0
-12468 56 0
-12468 79 0
12468 -56 -79 0
-12469 12468 0
-12469 81 0
12469 -12468 -81 0
-12470 64 0
-12470 79 0
12470 -64 -79 0
-12471 12470 0
-12471 81 0
12471 -12470 -81 0
-12472 78 0
-12472 60 0
12472 -78 -60 0
-12473 12472 0
-12473 81 0
12473 -12472 -81 0
-12474 80 0
-12474 60 0
12474 -80 -60 0
-12475 12474 0
-12475 81 0
12475 -12474 -81 0
-12476 104 0
-12476 127 0
12476 -104 -127 0
-12477 12476 0
-12477 129 0
12477 -12476 -129 0
-12478 112 0
-12478 127 0
12478 -112 -127 0
-12479 12478 0
-12479 129 0
12479 -12478 -129 0
-12480 126 0
-12480 108 0
12480 -126 -108 0
-12481 12480 0
-12481 129 0
12481 -12480 -129 0
-12482 128 0
-12482 108 0
12482 -128 -108 0
-12483 12482 0
-12483 129 0
12483 -12482 -129 0
-12484 152 0
-12484 175 0
12484 -152 -175 0
-12485 12484 0
-12485 177 0
12485 -12484 -177 0
-12486 152 0
-12486 176 0
12486 -152 -176 0
-12487 12486 0
-12487 177 0
12487 -12486 -177 0
-12488 156 0
-12488 176 0
12488 -156 -176 0
-12489 12488 0
-12489 177 0
12489 -12488 -177 0
-12490 12457 12459 0
-12490 -12457 -12459 0
12490 -12457 12459 0
12490 12457 -12459 0
-12491 12490 12461 0
-12491 -12490 -12461 0
12491 -12490 12461 0
12491 12490 -12461 0
-12492 12491 12463 0
-12492 -12491 -12463 0
12492 -12491 12463 0
12492 12491 -12463 0
-12493 12492 12465 0
-12493 -12492 -12465 0
12493 -12492 12465 0
12493 12492 -12465 0
-12494 12493 12467 0
-12494 -12493 -12467 0
12494 -12493 12467 0
12494 12493 -12467 0
-12495 12494 12469 0
-12495 -12494 -12469 0
12495 -12494 12469 0
12495 12494 -12469 0
-12496 12495 12471 0
-12496 -12495 -12471 0
12496 -12495 12471 0
12496 12495 -12471 0
-12497 12496 12473 0
-12497 -12496 -12473 0
12497 -12496 12473 0
12497 12496 -12473 0
-12498 12497 12475 0
-12498 -12497 -12475 0
12498 -12497 12475 0
12498 12497 -12475 0
-12499 12498 12477 0
-12499 -12498 -12477 0
12499 -12498 12477 0
12499 12498 -12477 0
-12500 12499 12479 0
-12500 -12499 -12479 0
12500 -12499 12479 0
12500 12499 -12479 0
-12501 12500 12481 0
-12501 -12500 -12481 0
12501 -12500 12481 0
12501 12500 -12481 0
-12502 12501 12483 0
-12502 -12501 -12483 0
12502 -12501 12483 0
12502 12501 -12483 0
-12503 12502 12485 0
-12503 -12502 -12485 0
12503 -12502 12485 0
12503 12502 -12485 0
-12504 12503 12487 0
-12504 -12503 -12487 0
12504 -12503 12487 0
12504 12503 -12487 0
-12505 12504 12489 0
-12505 -12504 -12489 0
12505 -12504 12489 0
12505 12504 -12489 0
-12505 0
-12506 12456 0
-12506 34 0
12506 -12456 -34 0
-12507 12458 0
-12507 34 0
12507 -12458 -34 0
-12508 12460 0
-12508 35 0
12508 -12460 -35 0
-12509 12462 0
-12509 37 0
12509 -12462 -37 0
-12510 12464 0
-12510 37 0
12510 -12464 -37 0
-12511 12466 0
-12511 41 0
12511 -12466 -41 0
-12512 12468 0
-12512 82 0
12512 -12468 -82 0
-12513 12470 0
-12513 84 0
12513 -12470 -84 0
-12514 12472 0
-12514 85 0
12514 -12472 -85 0
-12515 12474 0
-12515 93 0
12515 -12474 -93 0
-12516 12476 0
-12516 130 0
12516 -12476 -130 0
-12517 12478 0
-12517 132 0
12517 -12478 -132 0
-12518 12480 0
-12518 133 0
12518 -12480 -133 0
-12519 12482 0
-12519 141 0
12519 -12482 -141 0
-12520 12484 0
-12520 178 0
12520 -12484 -178 0
-12521 12486 0
-12521 178 0
12521 -12486 -178 0
-12522 12488 0
-12522 179 0
12522 -12488 -179 0
-12523 12506 12507 0
-12523 -12506 -12507 0
12523 -12506 12507 0
12523 12506 -12507 0
-12524 12523 12508 0
-12524 -12523 -12508 0
12524 -12523 12508 0
12524 12523 -12508 0
-12525 12524 12509 0
-12525 -12524 -12509 0
12525 -12524 12509 0
12525 12524 -12509 0
-12526 12525 12510 0
-12526 -12525 -12510 0
12526 -12525 12510 0
12526 12525 -12510 0
-12527 12526 12511 0
-12527 -12526 -12511 0
12527 -12526 12511 0
12527 12526 -12511 0
-12528 12527 12512 0
-12528 -12527 -12512 0
12528 -12527 12512 0
12528 12527 -12512 0
-12529 12528 12513 0
-12529 -12528 -12513 0
12529 -12528 12513 0
12529 12528 -12513 0
-12530 12529 12514 0
-12530 -12529 -12514 0
12530 -12529 12514 0
12530 12529 -12514 0
-12531 12530 12515 0
-12531 -12530 -12515 0
12531 -12530 12515 0
12531 12530 -12515 0
-12532 12531 12516 0
-12532 -12531 -12516 0
12532 -12531 12516 0
12532 12531 -12516 0
-12533 12532 12517 0
-12533 -12532 -12517 0
12533 -12532 12517 0
12533 12532 -12517 0
-12534 12533 12518 0
-12534 -12533 -12518 0
12534 -12533 12518 0
12534 12533 -12518 0
-12535 12534 12519 0
-12535 -12534 -12519 0
12535 -12534 12519 0
12535 12534 -12519 0
-12536 12535 12520 0
-12536 -12535 -12520 0
12536 -12535 12520 0
12536 12535 -12520 0
-12537 12536 12521 0
-12537 -12536 -12521 0
12537 -12536 12521 0
12537 12536 -12521 0
-12538 12537 12522 0
-12538 -12537 -12522 0
12538 -12537 12522 0
12538 12537 -12522 0
-12538 0
-12539 12456 0
-12539 35 0
12539 -12456 -35 0
-12540 12458 0
-12540 36 0
12540 -12458 -36 0
-12541 12460 0
-12541 36 0
12541 -12460 -36 0
-12542 12462 0
-12542 41 0
12542 -12462 -41 0
-12543 12464 0
-12543 45 0
12543 -12464 -45 0
-12544 12466 0
-12544 45 0
12544 -12466 -45 0
-12545 12468 0
-12545 83 0
12545 -12468 -83 0
-12546 12470 0
-12546 83 0
12546 -12470 -83 0
-12547 12472 0
-12547 89 0
12547 -12472 -89 0
-12548 12474 0
-12548 89 0
12548 -12474 -89 0
-12549 12476 0
-12549 131 0
12549 -12476 -131 0
-12550 12478 0
-12550 131 0
12550 -12478 -131 0
-12551 12480 0
-12551 137 0
12551 -12480 -137 0
-12552 12482 0
-12552 137 0
12552 -12482 -137 0
-12553 12484 0
-12553 179 0
12553 -12484 -179 0
-12554 12486 0
-12554 180 0
12554 -12486 -180 0
-12555 12488 0
-12555 180 0
12555 -12488 -180 0
-12556 12539 12540 0
-12556 -12539 -12540 0
12556 -12539 12540 0
12556 12539 -12540 0
-12557 12556 12541 0
-12557 -12556 -12541 0
12557 -12556 12541 0
12557 12556 -12541 0
-12558 12557 12542 0
-12558 -12557 -12542 0
12558 -12557 12542 0
12558 12557 -12542 0
-12559 12558 12543 0
-12559 -12558 -12543 0
12559 -12558 12543 0
12559 12558 -12543 0
-12560 12559 12544 0
-12560 -12559 -12544 0
12560 -12559 12544 0
12560 12559 -12544 0
-12561 12560 12545 0
-12561 -12560 -12545 0
12561 -12560 12545 0
12561 12560 -12545 0
-12562 12561 12546 0
-12562 -12561 -12546 0
12562 -12561 12546 0
12562 12561 -12546 0
-12563 12562 12547 0
-12563 -12562 -12547 0
12563 -12562 12547 0
12563 12562 -12547 0
-12564 12563 12548 0
-12564 -12563 -12548 0
12564 -12563 12548 0
12564 12563 -12548 0
-12565 12564 12549 0
-12565 -12564 -12549 0
12565 -12564 12549 0
12565 12564 -12549 0
-12566 12565 12550 0
-12566 -12565 -12550 0
12566 -12565 12550 0
12566 12565 -12550 0
-12567 12566 12551 0
-12567 -12566 -12551 0
12567 -12566 12551 0
12567 12566 -12551 0
-12568 12567 12552 0
-12568 -12567 -12552 0
12568 -12567 12552 0
12568 12567 -12552 0
-12569 12568 12553 0
-12569 -12568 -12553 0
12569 -12568 12553 0
12569 12568 -12553 0
-12570 12569 12554 0
-12570 -12569 -12554 0
12570 -12569 12554 0
12570 12569 -12554 0
-12571 12570 12555 0
-12571 -12570 -12555 0
12571 -12570 12555 0
12571 12570 -12555 0
-12571 0
-12572 12456 0
-12572 36 0
12572 -12456 -36 0
-12573 12458 0
-12573 35 0
12573 -12458 -35 0
-12574 12460 0
-12574 34 0
12574 -12460 -34 0
-12575 12462 0
-12575 45 0
12575 -12462 -45 0
-12576 12464 0
-12576 41 0
12576 -12464 -41 0
-12577 12466 0
-12577 37 0
12577 -12466 -37 0
-12578 12468 0
-12578 84 0
12578 -12468 -84 0
-12579 12470 0
-12579 82 0
12579 -12470 -82 0
-12580 12472 0
-12580 93 0
12580 -12472 -93 0
-12581 12474 0
-12581 85 0
12581 -12474 -85 0
-12582 12476 0
-12582 132 0
12582 -12476 -132 0
-12583 12478 0
-12583 130 0
12583 -12478 -130 0
-12584 12480 0
-12584 141 0
12584 -12480 -141 0
-12585 12482 0
-12585 133 0
12585 -12482 -133 0
-12586 12484 0
-12586 180 0
12586 -12484 -180 0
-12587 12486 0
-12587 179 0
12587 -12486 -179 0
-12588 12488 0
-12588 178 0
12588 -12488 -178 0
-12589 12572 12573 0
-12589 -12572 -12573 0
12589 -12572 12573 0
12589 12572 -12573 0
-12590 12589 12574 0
-12590 -12589 -12574 0
12590 -12589 12574 0
12590 12589 -12574 0
-12591 12590 12575 0
-12591 -12590 -12575 0
12591 -12590 12575 0
12591 12590 -12575 0
-12592 12591 12576 0
-12592 -12591 -12576 0
12592 -12591 12576 0
12592 12591 -12576 0
-12593 12592 12577 0
-12593 -12592 -12577 0
12593 -12592 12577 0
12593 12592 -12577 0
-12594 12593 12578 0
-12594 -12593 -12578 0
12594 -12593 12578 0
12594 12593 -12578 0
-12595 12594 12579 0
-12595 -12594 -12579 0
12595 -12594 12579 0
12595 12594 -12579 0
-12596 12595 12580 0
-12596 -12595 -12580 0
12596 -12595 12580 0
12596 12595 -12580 0
-12597 12596 12581 0
-12597 -12596 -12581 0
12597 -12596 12581 0
12597 12596 -12581 0
-12598 12597 12582 0
-12598 -12597 -12582 0
12598 -12597 12582 0
12598 12597 -12582 0
-12599 12598 12583 0
-12599 -12598 -12583 0
12599 -12598 12583 0
12599 12598 -12583 0
-12600 12599 12584 0
-12600 -12599 -12584 0
12600 -12599 12584 0
12600 12599 -12584 0
-12601 12600 12585 0
-12601 -12600 -12585 0
12601 -12600 12585 0
12601 12600 -12585 0
-12602 12601 12586 0
-12602 -12601 -12586 0
12602 -12601 12586 0
12602 12601 -12586 0
-12603 12602 12587 0
-12603 -12602 -12587 0
12603 -12602 12587 0
12603 12602 -12587 0
-12604 12603 12588 0
-12604 -12603 -12588 0
12604 -12603 12588 0
12604 12603 -12588 0
-12604 0
-12605 12456 0
-12605 38 0
12605 -12456 -38 0
-12606 12458 0
-12606 38 0
12606 -12458 -38 0
-12607 12460 0
-12607 43 0
12607 -12460 -43 0
-12608 12462 0
-12608 38 0
12608 -12462 -38 0
-12609 12464 0
-12609 38 0
12609 -12464 -38 0
-12610 12466 0
-12610 43 0
12610 -12466 -43 0
-12611 12468 0
-12611 86 0
12611 -12468 -86 0
-12612 12470 0
-12612 96 0
12612 -12470 -96 0
-12613 12472 0
-12613 86 0
12613 -12472 -86 0
-12614 12474 0
-12614 96 0
12614 -12474 -96 0
-12615 12476 0
-12615 134 0
12615 -12476 -134 0
-12616 12478 0
-12616 144 0
12616 -12478 -144 0
-12617 12480 0
-12617 134 0
12617 -12480 -134 0
-12618 12482 0
-12618 144 0
12618 -12482 -144 0
-12619 12484 0
-12619 182 0
12619 -12484 -182 0
-12620 12486 0
-12620 182 0
12620 -12486 -182 0
-12621 12488 0
-12621 187 0
12621 -12488 -187 0
-12622 12605 12606 0
-12622 -12605 -12606 0
12622 -12605 12606 0
12622 12605 -12606 0
-12623 12622 12607 0
-12623 -12622 -12607 0
12623 -12622 12607 0
12623 12622 -12607 0
-12624 12623 12608 0
-12624 -12623 -12608 0
12624 -12623 12608 0
12624 12623 -12608 0
-12625 12624 12609 0
-12625 -12624 -12609 0
12625 -12624 12609 0
12625 12624 -12609 0
-12626 12625 12610 0
-12626 -12625 -12610 0
12626 -12625 12610 0
12626 12625 -12610 0
-12627 12626 12611 0
-12627 -12626 -12611 0
12627 -12626 12611 0
12627 12626 -12611 0
-12628 12627 12612 0
-12628 -12627 -12612 0
12628 -12627 12612 0
12628 12627 -12612 0
-12629 12628 12613 0
-12629 -12628 -12613 0
12629 -12628 12613 0
12629 12628 -12613 0
-12630 12629 12614 0
-12630 -12629 -12614 0
12630 -12629 12614 0
12630 12629 -12614 0
-12631 12630 12615 0
-12631 -12630 -12615 0
12631 -12630 12615 0
12631 12630 -12615 0
-12632 12631 12616 0
-12632 -12631 -12616 0
12632 -12631 12616 0
12632 12631 -12616 0
-12633 12632 12617 0
-12633 -12632 -12617 0
12633 -12632 12617 0
12633 12632 -12617 0
-12634 12633 12618 0
-12634 -12633 -12618 0
12634 -12633 12618 0
12634 12633 -12618 0
-12635 12634 12619 0
-12635 -12634 -12619 0
12635 -12634 12619 0
12635 12634 -12619 0
-12636 12635 12620 0
-12636 -12635 -12620 0
12636 -12635 12620 0
12636 12635 -12620 0
-12637 12636 12621 0
-12637 -12636 -12621 0
12637 -12636 12621 0
12637 12636 -12621 0
-12637 0
-12638 12456 0
-12638 39 0
12638 -12456 -39 0
-12639 12458 0
-12639 40 0
12639 -12458 -40 0
-12640 12460 0
-12640 44 0
12640 -12460 -44 0
-12641 12462 0
-12641 42 0
12641 -12462 -42 0
-12642 12464 0
-12642 46 0
12642 -12464 -46 0
-12643 12466 0
-12643 47 0
12643 -12466 -47 0
-12644 12468 0
-12644 87 0
12644 -12468 -87 0
-12645 12470 0
-12645 95 0
12645 -12470 -95 0
-12646 12472 0
-12646 90 0
12646 -12472 -90 0
-12647 12474 0
-12647 92 0
12647 -12474 -92 0
-12648 12476 0
-12648 135 0
12648 -12476 -135 0
-12649 12478 0
-12649 143 0
12649 -12478 -143 0
-12650 12480 0
-12650 138 0
12650 -12480 -138 0
-12651 12482 0
-12651 140 0
12651 -12482 -140 0
-12652 12484 0
-12652 183 0
12652 -12484 -183 0
-12653 12486 0
-12653 184 0
12653 -12486 -184 0
-12654 12488 0
-12654 188 0
12654 -12488 -188 0
-12655 12638 12639 0
-12655 -12638 -12639 0
12655 -12638 12639 0
12655 12638 -12639 0
-12656 12655 12640 0
-12656 -12655 -12640 0
12656 -12655 12640 0
12656 12655 -12640 0
-12657 12656 12641 0
-12657 -12656 -12641 0
12657 -12656 12641 0
12657 12656 -12641 0
-12658 12657 12642 0
-12658 -12657 -12642 0
12658 -12657 12642 0
12658 12657 -12642 0
-12659 12658 12643 0
-12659 -12658 -12643 0
12659 -12658 12643 0
12659 12658 -12643 0
-12660 12659 12644 0
-12660 -12659 -12644 0
12660 -12659 12644 0
12660 12659 -12644 0
-12661 12660 12645 0
-12661 -12660 -12645 0
12661 -12660 12645 0
12661 12660 -12645 0
-12662 12661 12646 0
-12662 -12661 -12646 0
12662 -12661 12646 0
12662 12661 -12646 0
-12663 12662 12647 0
-12663 -12662 -12647 0
12663 -12662 12647 0
12663 12662 -12647 0
-12664 12663 12648 0
-12664 -12663 -12648 0
12664 -12663 12648 0
12664 12663 -12648 0
-12665 12664 12649 0
-12665 -12664 -12649 0
12665 -12664 12649 0
12665 12664 -12649 0
-12666 12665 12650 0
-12666 -12665 -12650 0
12666 -12665 12650 0
12666 12665 -12650 0
-12667 12666 12651 0
-12667 -12666 -12651 0
12667 -12666 12651 0
12667 12666 -12651 0
-12668 12667 12652 0
-12668 -12667 -12652 0
12668 -12667 12652 0
12668 12667 -12652 0
-12669 12668 12653 0
-12669 -12668 -12653 0
12669 -12668 12653 0
12669 12668 -12653 0
-12670 12669 12654 0
-12670 -12669 -12654 0
12670 -12669 12654 0
12670 12669 -12654 0
-12670 0
-12671 12456 0
-12671 40 0
12671 -12456 -40 0
-12672 12458 0
-12672 39 0
12672 -12458 -39 0
-12673 12460 0
-12673 42 0
12673 -12460 -42 0
-12674 12462 0
-12674 46 0
12674 -12462 -46 0
-12675 12464 0
-12675 42 0
12675 -12464 -42 0
-12676 12466 0
-12676 39 0
12676 -12466 -39 0
-12677 12468 0
-12677 88 0
12677 -12468 -88 0
-12678 12470 0
-12678 94 0
12678 -12470 -94 0
-12679 12472 0
-12679 94 0
12679 -12472 -94 0
-12680 12474 0
-12680 88 0
12680 -12474 -88 0
-12681 12476 0
-12681 136 0
12681 -12476 -136 0
-12682 12478 0
-12682 142 0
12682 -12478 -142 0
-12683 12480 0
-12683 142 0
12683 -12480 -142 0
-12684 12482 0
-12684 136 0
12684 -12482 -136 0
-12685 12484 0
-12685 184 0
12685 -12484 -184 0
-12686 12486 0
-12686 183 0
12686 -12486 -183 0
-12687 12488 0
-12687 186 0
12687 -12488 -186 0
-12688 12671 12672 0
-12688 -12671 -12672 0
12688 -12671 12672 0
12688 12671 -12672 0
-12689 12688 12673 0
-12689 -12688 -12673 0
12689 -12688 12673 0
12689 12688 -12673 0
-12690 12689 12674 0
-12690 -12689 -12674 0
12690 -12689 12674 0
12690 12689 -12674 0
-12691 12690 12675 0
-12691 -12690 -12675 0
12691 -12690 12675 0
12691 12690 -12675 0
-12692 12691 12676 0
-12692 -12691 -12676 0
12692 -12691 12676 0
12692 12691 -12676 0
-12693 12692 12677 0
-12693 -12692 -12677 0
12693 -12692 12677 0
12693 12692 -12677 0
-12694 12693 12678 0
-12694 -12693 -12678 0
12694 -12693 12678 0
12694 12693 -12678 0
-12695 12694 12679 0
-12695 -12694 -12679 0
12695 -12694 12679 0
12695 12694 -12679 0
-12696 12695 12680 0
-12696 -12695 -12680 0
12696 -12695 12680 0
12696 12695 -12680 0
-12697 12696 12681 0
-12697 -12696 -12681 0
12697 -12696 12681 0
12697 12696 -12681 0
-12698 12697 12682 0
-12698 -12697 -12682 0
12698 -12697 12682 0
12698 12697 -12682 0
-12699 12698 12683 0
-12699 -12698 -12683 0
12699 -12698 12683 0
12699 12698 -12683 0
-12700 12699 12684 0
-12700 -12699 -12684 0
12700 -12699 12684 0
12700 12699 -12684 0
-12701 12700 12685 0
-12701 -12700 -12685 0
12701 -12700 12685 0
12701 12700 -12685 0
-12702 12701 12686 0
-12702 -12701 -12686 0
12702 -12701 12686 0
12702 12701 -12686 0
-12703 12702 12687 0
-12703 -12702 -12687 0
12703 -12702 12687 0
12703 12702 -12687 0
-12703 0
-12704 12456 0
-12704 42 0
12704 -12456 -42 0
-12705 12458 0
-12705 46 0
12705 -12458 -46 0
-12706 12460 0
-12706 47 0
12706 -12460 -47 0
-12707 12462 0
-12707 39 0
12707 -12462 -39 0
-12708 12464 0
-12708 40 0
12708 -12464 -40 0
-12709 12466 0
-12709 44 0
12709 -12466 -44 0
-12710 12468 0
-12710 90 0
12710 -12468 -90 0
-12711 12470 0
-12711 92 0
12711 -12470 -92 0
-12712 12472 0
-12712 87 0
12712 -12472 -87 0
-12713 12474 0
-12713 95 0
12713 -12474 -95 0
-12714 12476 0
-12714 138 0
12714 -12476 -138 0
-12715 12478 0
-12715 140 0
12715 -12478 -140 0
-12716 12480 0
-12716 135 0
12716 -12480 -135 0
-12717 12482 0
-12717 143 0
12717 -12482 -143 0
-12718 12484 0
-12718 186 0
12718 -12484 -186 0
-12719 12486 0
-12719 190 0
12719 -12486 -190 0
-12720 12488 0
-12720 191 0
12720 -12488 -191 0
-12721 12704 12705 0
-12721 -12704 -12705 0
12721 -12704 12705 0
12721 12704 -12705 0
-12722 12721 12706 0
-12722 -12721 -12706 0
12722 -12721 12706 0
12722 12721 -12706 0
-12723 12722 12707 0
-12723 -12722 -12707 0
12723 -12722 12707 0
12723 12722 -12707 0
-12724 12723 12708 0
-12724 -12723 -12708 0
12724 -12723 12708 0
12724 12723 -12708 0
-12725 12724 12709 0
-12725 -12724 -12709 0
12725 -12724 12709 0
12725 12724 -12709 0
-12726 12725 12710 0
-12726 -12725 -12710 0
12726 -12725 12710 0
12726 12725 -12710 0
-12727 12726 12711 0
-12727 -12726 -12711 0
12727 -12726 12711 0
12727 12726 -12711 0
-12728 12727 12712 0
-12728 -12727 -12712 0
12728 -12727 12712 0
12728 12727 -12712 0
-12729 12728 12713 0
-12729 -12728 -12713 0
12729 -12728 12713 0
12729 12728 -12713 0
-12730 12729 12714 0
-12730 -12729 -12714 0
12730 -12729 12714 0
12730 12729 -12714 0
-12731 12730 12715 0
-12731 -12730 -12715 0
12731 -12730 12715 0
12731 12730 -12715 0
-12732 12731 12716 0
-12732 -12731 -12716 0
12732 -12731 12716 0
12732 12731 -12716 0
-12733 12732 12717 0
-12733 -12732 -12717 0
12733 -12732 12717 0
12733 12732 -12717 0
-12734 12733 12718 0
-12734 -12733 -12718 0
12734 -12733 12718 0
12734 12733 -12718 0
-12735 12734 12719 0
-12735 -12734 -12719 0
12735 -12734 12719 0
12735 12734 -12719 0
-12736 12735 12720 0
-12736 -12735 -12720 0
12736 -12735 12720 0
12736 12735 -12720 0
-12736 0
-12737 12456 0
-12737 44 0
12737 -12456 -44 0
-12738 12458 0
-12738 47 0
12738 -12458 -47 0
-12739 12460 0
-12739 46 0
12739 -12460 -46 0
-12740 12462 0
-12740 47 0
12740 -12462 -47 0
-12741 12464 0
-12741 44 0
12741 -12464 -44 0
-12742 12466 0
-12742 40 0
12742 -12466 -40 0
-12743 12468 0
-12743 92 0
12743 -12468 -92 0
-12744 12470 0
-12744 90 0
12744 -12470 -90 0
-12745 12472 0
-12745 95 0
12745 -12472 -95 0
-12746 12474 0
-12746 87 0
12746 -12474 -87 0
-12747 12476 0
-12747 140 0
12747 -12476 -140 0
-12748 12478 0
-12748 138 0
12748 -12478 -138 0
-12749 12480 0
-12749 143 0
12749 -12480 -143 0
-12750 12482 0
-12750 135 0
12750 -12482 -135 0
-12751 12484 0
-12751 188 0
12751 -12484 -188 0
-12752 12486 0
-12752 191 0
12752 -12486 -191 0
-12753 12488 0
-12753 190 0
12753 -12488 -190 0
-12754 12737 12738 0
-12754 -12737 -12738 0
12754 -12737 12738 0
12754 12737 -12738 0
-12755 12754 12739 0
-12755 -12754 -12739 0
12755 -12754 12739 0
12755 12754 -12739 0
-12756 12755 12740 0
-12756 -12755 -12740 0
12756 -12755 12740 0
12756 12755 -12740 0
-12757 12756 12741 0
-12757 -12756 -12741 0
12757 -12756 12741 0
12757 12756 -12741 0
-12758 12757 12742 0
-12758 -12757 -12742 0
12758 -12757 12742 0
12758 12757 -12742 0
-12759 12758 12743 0
-12759 -12758 -12743 0
12759 -12758 12743 0
12759 12758 -12743 0
-12760 12759 12744 0
-12760 -12759 -12744 0
12760 -12759 12744 0
12760 12759 -12744 0
-12761 12760 12745 0
-12761 -12760 -12745 0
12761 -12760 12745 0
12761 12760 -12745 0
-12762 12761 12746 0
-12762 -12761 -12746 0
12762 -12761 12746 0
12762 12761 -12746 0
-12763 12762 12747 0
-12763 -12762 -12747 0
12763 -12762 12747 0
12763 12762 -12747 0
-12764 12763 12748 0
-12764 -12763 -12748 0
12764 -12763 12748 0
12764 12763 -12748 0
-12765 12764 12749 0
-12765 -12764 -12749 0
12765 -12764 12749 0
12765 12764 -12749 0
-12766 12765 12750 0
-12766 -12765 -12750 0
12766 -12765 12750 0
12766 12765 -12750 0
-12767 12766 12751 0
-12767 -12766 -12751 0
12767 -12766 12751 0
12767 12766 -12751 0
-12768 12767 12752 0
-12768 -12767 -12752 0
12768 -12767 12752 0
12768 12767 -12752 0
-12769 12768 12753 0
-12769 -12768 -12753 0
12769 -12768 12753 0
12769 12768 -12753 0
-12769 0
-12770 12456 0
-12770 48 0
12770 -12456 -48 0
-12771 12458 0
-12771 43 0
12771 -12458 -43 0
-12772 12460 0
-12772 38 0
12772 -12460 -38 0
-12773 12462 0
-12773 48 0
12773 -12462 -48 0
-12774 12464 0
-12774 43 0
12774 -12464 -43 0
-12775 12466 0
-12775 38 0
12775 -12466 -38 0
-12776 12468 0
-12776 96 0
12776 -12468 -96 0
-12777 12470 0
-12777 86 0
12777 -12470 -86 0
-12778 12472 0
-12778 96 0
12778 -12472 -96 0
-12779 12474 0
-12779 86 0
12779 -12474 -86 0
-12780 12476 0
-12780 144 0
12780 -12476 -144 0
-12781 12478 0
-12781 134 0
12781 -12478 -134 0
-12782 12480 0
-12782 144 0
12782 -12480 -144 0
-12783 12482 0
-12783 134 0
12783 -12482 -134 0
-12784 12484 0
-12784 192 0
12784 -12484 -192 0
-12785 12486 0
-12785 187 0
12785 -12486 -187 0
-12786 12488 0
-12786 182 0
12786 -12488 -182 0
-12787 12770 12771 0
-12787 -12770 -12771 0
12787 -12770 12771 0
12787 12770 -12771 0
-12788 12787 12772 0
-12788 -12787 -12772 0
12788 -12787 12772 0
12788 12787 -12772 0
-12789 12788 12773 0
-12789 -12788 -12773 0
12789 -12788 12773 0
12789 12788 -12773 0
-12790 12789 12774 0
-12790 -12789 -12774 0
12790 -12789 12774 0
12790 12789 -12774 0
-12791 12790 12775 0
-12791 -12790 -12775 0
12791 -12790 12775 0
12791 12790 -12775 0
-12792 12791 12776 0
-12792 -12791 -12776 0
12792 -12791 12776 0
12792 12791 -12776 0
-12793 12792 12777 0
-12793 -12792 -12777 0
12793 -12792 12777 0
12793 12792 -12777 0
-12794 12793 12778 0
-12794 -12793 -12778 0
12794 -12793 12778 0
12794 12793 -12778 0
-12795 12794 12779 0
-12795 -12794 -12779 0
12795 -12794 12779 0
12795 12794 -12779 0
-12796 12795 12780 0
-12796 -12795 -12780 0
12796 -12795 12780 0
12796 12795 -12780 0
-12797 12796 12781 0
-12797 -12796 -12781 0
12797 -12796 12781 0
12797 12796 -12781 0
-12798 12797 12782 0
-12798 -12797 -12782 0
12798 -12797 12782 0
12798 12797 -12782 0
-12799 12798 12783 0
-12799 -12798 -12783 0
12799 -12798 12783 0
12799 12798 -12783 0
-12800 12799 12784 0
-12800 -12799 -12784 0
12800 -12799 12784 0
12800 12799 -12784 0
-12801 12800 12785 0
-12801 -12800 -12785 0
12801 -12800 12785 0
12801 12800 -12785 0
-12802 12801 12786 0
-12802 -12801 -12786 0
12802 -12801 12786 0
12802 12801 -12786 0
-12802 0
