p cnf 12610 45829
1 2 3 4 5 6 7 8 9 10 11 12 13 14 15 16 0
17 18 19 20 21 22 23 24 25 26 27 28 29 30 31 32 0
33 34 35 36 37 38 39 40 41 42 43 44 45 46 47 48 0
-49 65 0
49 -65 0
-50 73 0
50 -73 0
-51 69 0
51 -69 0
-52 77 0
52 -77 0
-53 68 0
53 -68 0
-54 76 0
54 -76 0
-55 72 0
55 -72 0
-56 80 0
56 -80 0
-57 67 0
57 -67 0
-58 75 0
58 -75 0
-59 71 0
59 -71 0
-60 79 0
60 -79 0
-61 66 0
61 -66 0
-62 74 0
62 -74 0
-63 70 0
63 -70 0
-64 78 0
64 -78 0
-65 49 0
65 -49 0
-66 61 0
66 -61 0
-67 57 0
67 -57 0
-68 53 0
68 -53 0
-69 51 0
69 -51 0
-70 63 0
70 -63 0
-71 59 0
71 -59 0
-72 55 0
72 -55 0
-73 50 0
73 -50 0
-74 62 0
74 -62 0
-75 58 0
75 -58 0
-76 54 0
76 -54 0
-77 52 0
77 -52 0
-78 64 0
78 -64 0
-79 60 0
79 -60 0
-80 56 0
80 -56 0
-82 93 0
82 -93 0
-83 89 0
83 -89 0
-84 85 0
84 -85 0
-85 84 0
85 -84 0
-86 96 0
86 -96 0
-87 92 0
87 -92 0
-89 83 0
89 -83 0
-90 95 0
90 -95 0
-92 87 0
92 -87 0
-93 82 0
93 -82 0
-95 90 0
95 -90 0
-96 86 0
96 -86 0
-49 65 0
49 -65 0
-50 69 0
50 -69 0
-51 73 0
51 -73 0
-52 77 0
52 -77 0
-53 66 0
53 -66 0
-54 70 0
54 -70 0
-55 74 0
55 -74 0
-56 78 0
56 -78 0
-57 67 0
57 -67 0
-58 71 0
58 -71 0
-59 75 0
59 -75 0
-60 79 0
60 -79 0
-61 68 0
61 -68 0
-62 72 0
62 -72 0
-63 76 0
63 -76 0
-64 80 0
64 -80 0
-65 49 0
65 -49 0
-66 53 0
66 -53 0
-67 57 0
67 -57 0
-68 61 0
68 -61 0
-69 50 0
69 -50 0
-70 54 0
70 -54 0
-71 58 0
71 -58 0
-72 62 0
72 -62 0
-73 51 0
73 -51 0
-74 55 0
74 -55 0
-75 59 0
75 -59 0
-76 63 0
76 -63 0
-77 52 0
77 -52 0
-78 56 0
78 -56 0
-79 60 0
79 -60 0
-80 64 0
80 -64 0
-82 85 0
82 -85 0
-83 89 0
83 -89 0
-84 93 0
84 -93 0
-85 82 0
85 -82 0
-87 90 0
87 -90 0
-88 94 0
88 -94 0
-89 83 0
89 -83 0
-90 87 0
90 -87 0
-92 95 0
92 -95 0
-93 84 0
93 -84 0
-94 88 0
94 -88 0
-95 92 0
95 -92 0
-50 51 0
50 -51 0
-51 50 0
51 -50 0
-53 61 0
53 -61 0
-54 63 0
54 -63 0
-55 62 0
55 -62 0
-56 64 0
56 -64 0
-58 59 0
58 -59 0
-59 58 0
59 -58 0
-61 53 0
61 -53 0
-62 55 0
62 -55 0
-63 54 0
63 -54 0
-64 56 0
64 -56 0
-66 68 0
66 -68 0
-68 66 0
68 -66 0
-69 73 0
69 -73 0
-70 76 0
70 -76 0
-71 75 0
71 -75 0
-72 74 0
72 -74 0
-73 69 0
73 -69 0
-74 72 0
74 -72 0
-75 71 0
75 -71 0
-76 70 0
76 -70 0
-78 80 0
78 -80 0
-80 78 0
80 -78 0
-82 84 0
82 -84 0
-84 82 0
84 -82 0
-85 93 0
85 -93 0
-86 96 0
86 -96 0
-87 95 0
87 -95 0
-88 94 0
88 -94 0
-90 92 0
90 -92 0
-92 90 0
92 -90 0
-93 85 0
93 -85 0
-94 88 0
94 -88 0
-95 87 0
95 -87 0
-96 86 0
96 -86 0
49 50 51 52 53 54 55 56 57 58 59 60 61 62 63 64 0
65 66 67 68 69 70 71 72 73 74 75 76 77 78 79 80 0
81 82 83 84 85 86 87 88 89 90 91 92 93 94 95 96 0
-97 113 0
97 -113 0
-98 121 0
98 -121 0
-99 117 0
99 -117 0
-100 125 0
100 -125 0
-101 116 0
101 -116 0
-102 124 0
102 -124 0
-103 120 0
103 -120 0
-104 128 0
104 -128 0
-105 115 0
105 -115 0
-106 123 0
106 -123 0
-107 119 0
107 -119 0
-108 127 0
108 -127 0
-109 114 0
109 -114 0
-110 122 0
110 -122 0
-111 118 0
111 -118 0
-112 126 0
112 -126 0
-113 97 0
113 -97 0
-114 109 0
114 -109 0
-115 105 0
115 -105 0
-116 101 0
116 -101 0
-117 99 0
117 -99 0
-118 111 0
118 -111 0
-119 107 0
119 -107 0
-120 103 0
120 -103 0
-121 98 0
121 -98 0
-122 110 0
122 -110 0
-123 106 0
123 -106 0
-124 102 0
124 -102 0
-125 100 0
125 -100 0
-126 112 0
126 -112 0
-127 108 0
127 -108 0
-128 104 0
128 -104 0
-130 141 0
130 -141 0
-131 137 0
131 -137 0
-132 133 0
132 -133 0
-133 132 0
133 -132 0
-134 144 0
134 -144 0
-135 140 0
135 -140 0
-137 131 0
137 -131 0
-138 143 0
138 -143 0
-140 135 0
140 -135 0
-141 130 0
141 -130 0
-143 138 0
143 -138 0
-144 134 0
144 -134 0
-97 113 0
97 -113 0
-98 117 0
98 -117 0
-99 121 0
99 -121 0
-100 125 0
100 -125 0
-101 114 0
101 -114 0
-102 118 0
102 -118 0
-103 122 0
103 -122 0
-104 126 0
104 -126 0
-105 115 0
105 -115 0
-106 119 0
106 -119 0
-107 123 0
107 -123 0
-108 127 0
108 -127 0
-109 116 0
109 -116 0
-110 120 0
110 -120 0
-111 124 0
111 -124 0
-112 128 0
112 -128 0
-113 97 0
113 -97 0
-114 101 0
114 -101 0
-115 105 0
115 -105 0
-116 109 0
116 -109 0
-117 98 0
117 -98 0
-118 102 0
118 -102 0
-119 106 0
119 -106 0
-120 110 0
120 -110 0
-121 99 0
121 -99 0
-122 103 0
122 -103 0
-123 107 0
123 -107 0
-124 111 0
124 -111 0
-125 100 0
125 -100 0
-126 104 0
126 -104 0
-127 108 0
127 -108 0
-128 112 0
128 -112 0
-130 133 0
130 -133 0
-131 137 0
131 -137 0
-132 141 0
132 -141 0
-133 130 0
133 -130 0
-135 138 0
135 -138 0
-136 142 0
136 -142 0
-137 131 0
137 -131 0
-138 135 0
138 -135 0
-140 143 0
140 -143 0
-141 132 0
141 -132 0
-142 136 0
142 -136 0
-143 140 0
143 -140 0
-97 117 0
97 -117 0
-98 113 0
98 -113 0
-99 121 0
99 -121 0
-100 125 0
100 -125 0
-101 118 0
101 -118 0
-102 114 0
102 -114 0
-103 122 0
103 -122 0
-104 126 0
104 -126 0
-105 120 0
105 -120 0
-106 116 0
106 -116 0
-107 124 0
107 -124 0
-108 128 0
108 -128 0
-109 119 0
109 -119 0
-110 115 0
110 -115 0
-111 123 0
111 -123 0
-112 127 0
112 -127 0
-113 98 0
113 -98 0
-114 102 0
114 -102 0
-115 110 0
115 -110 0
-116 106 0
116 -106 0
-117 97 0
117 -97 0
-118 101 0
118 -101 0
-119 109 0
119 -109 0
-120 105 0
120 -105 0
-121 99 0
121 -99 0
-122 103 0
122 -103 0
-123 111 0
123 -111 0
-124 107 0
124 -107 0
-125 100 0
125 -100 0
-126 104 0
126 -104 0
-127 112 0
127 -112 0
-128 108 0
128 -108 0
-130 133 0
130 -133 0
-131 141 0
131 -141 0
-132 137 0
132 -137 0
-133 130 0
133 -130 0
-135 142 0
135 -142 0
-136 138 0
136 -138 0
-137 132 0
137 -132 0
-138 136 0
138 -136 0
-139 144 0
139 -144 0
-141 131 0
141 -131 0
-142 135 0
142 -135 0
-144 139 0
144 -139 0
-98 99 0
98 -99 0
-99 98 0
99 -98 0
-101 109 0
101 -109 0
-102 111 0
102 -111 0
-103 110 0
103 -110 0
-104 112 0
104 -112 0
-106 107 0
106 -107 0
-107 106 0
107 -106 0
-109 101 0
109 -101 0
-110 103 0
110 -103 0
-111 102 0
111 -102 0
-112 104 0
112 -104 0
-114 116 0
114 -116 0
-116 114 0
116 -114 0
-117 121 0
117 -121 0
-118 124 0
118 -124 0
-119 123 0
119 -123 0
-120 122 0
120 -122 0
-121 117 0
121 -117 0
-122 120 0
122 -120 0
-123 119 0
123 -119 0
-124 118 0
124 -118 0
-126 128 0
126 -128 0
-128 126 0
128 -126 0
-130 132 0
130 -132 0
-132 130 0
132 -130 0
-133 141 0
133 -141 0
-134 144 0
134 -144 0
-135 143 0
135 -143 0
-136 142 0
136 -142 0
-138 140 0
138 -140 0
-140 138 0
140 -138 0
-141 133 0
141 -133 0
-142 136 0
142 -136 0
-143 135 0
143 -135 0
-144 134 0
144 -134 0
-97 121 0
97 -121 0
-98 117 0
98 -117 0
-99 113 0
99 -113 0
-100 125 0
100 -125 0
-101 123 0
101 -123 0
-102 119 0
102 -119 0
-103 115 0
103 -115 0
-104 127 0
104 -127 0
-105 122 0
105 -122 0
-106 118 0
106 -118 0
-107 114 0
107 -114 0
-108 126 0
108 -126 0
-109 124 0
109 -124 0
-110 120 0
110 -120 0
-111 116 0
111 -116 0
-112 128 0
112 -128 0
-113 99 0
113 -99 0
-114 107 0
114 -107 0
-115 103 0
115 -103 0
-116 111 0
116 -111 0
-117 98 0
117 -98 0
-118 106 0
118 -106 0
-119 102 0
119 -102 0
-120 110 0
120 -110 0
-121 97 0
121 -97 0
-122 105 0
122 -105 0
-123 101 0
123 -101 0
-124 109 0
124 -109 0
-125 100 0
125 -100 0
-126 108 0
126 -108 0
-127 104 0
127 -104 0
-128 112 0
128 -112 0
-130 137 0
130 -137 0
-131 133 0
131 -133 0
-132 141 0
132 -141 0
-133 131 0
133 -131 0
-134 139 0
134 -139 0
-136 143 0
136 -143 0
-137 130 0
137 -130 0
-139 134 0
139 -134 0
-140 142 0
140 -142 0
-141 132 0
141 -132 0
-142 140 0
142 -140 0
-143 136 0
143 -136 0
-97 98 0
97 -98 0
-98 97 0
98 -97 0
-101 102 0
101 -102 0
-102 101 0
102 -101 0
-105 110 0
105 -110 0
-106 109 0
106 -109 0
-107 111 0
107 -111 0
-108 112 0
108 -112 0
-109 106 0
109 -106 0
-110 105 0
110 -105 0
-111 107 0
111 -107 0
-112 108 0
112 -108 0
-113 117 0
113 -117 0
-114 118 0
114 -118 0
-115 120 0
115 -120 0
-116 119 0
116 -119 0
-117 113 0
117 -113 0
-118 114 0
118 -114 0
-119 116 0
119 -116 0
-120 115 0
120 -115 0
-123 124 0
123 -124 0
-124 123 0
124 -123 0
-127 128 0
127 -128 0
-128 127 0
128 -127 0
-131 132 0
131 -132 0
-132 131 0
132 -131 0
-135 136 0
135 -136 0
-136 135 0
136 -135 0
-137 141 0
137 -141 0
-138 142 0
138 -142 0
-139 144 0
139 -144 0
-140 143 0
140 -143 0
-141 137 0
141 -137 0
-142 138 0
142 -138 0
-143 140 0
143 -140 0
-144 139 0
144 -139 0
-97 99 0
97 -99 0
-98 97 0
98 -97 0
-99 98 0
99 -98 0
-101 111 0
101 -111 0
-102 109 0
102 -109 0
-103 110 0
103 -110 0
-104 112 0
104 -112 0
-105 103 0
105 -103 0
-106 101 0
106 -101 0
-107 102 0
107 -102 0
-108 104 0
108 -104 0
-109 107 0
109 -107 0
-110 105 0
110 -105 0
-111 106 0
111 -106 0
-112 108 0
112 -108 0
-113 121 0
113 -121 0
-114 124 0
114 -124 0
-115 122 0
115 -122 0
-116 123 0
116 -123 0
-117 113 0
117 -113 0
-118 116 0
118 -116 0
-119 114 0
119 -114 0
-120 115 0
120 -115 0
-121 117 0
121 -117 0
-122 120 0
122 -120 0
-123 118 0
123 -118 0
-124 119 0
124 -119 0
-126 128 0
126 -128 0
-127 126 0
127 -126 0
-128 127 0
128 -127 0
-130 132 0
130 -132 0
-131 130 0
131 -130 0
-132 131 0
132 -131 0
-133 141 0
133 -141 0
-134 144 0
134 -144 0
-135 142 0
135 -142 0
-136 143 0
136 -143 0
-137 133 0
137 -133 0
-138 136 0
138 -136 0
-139 134 0
139 -134 0
-140 135 0
140 -135 0
-141 137 0
141 -137 0
-142 140 0
142 -140 0
-143 138 0
143 -138 0
-144 139 0
144 -139 0
-97 121 0
97 -121 0
-98 113 0
98 -113 0
-99 117 0
99 -117 0
-100 125 0
100 -125 0
-101 124 0
101 -124 0
-102 116 0
102 -116 0
-103 120 0
103 -120 0
-104 128 0
104 -128 0
-105 122 0
105 -122 0
-106 114 0
106 -114 0
-107 118 0
107 -118 0
-108 126 0
108 -126 0
-109 123 0
109 -123 0
-110 115 0
110 -115 0
-111 119 0
111 -119 0
-112 127 0
112 -127 0
-113 99 0
113 -99 0
-114 111 0
114 -111 0
-115 103 0
115 -103 0
-116 107 0
116 -107 0
-117 97 0
117 -97 0
-118 109 0
118 -109 0
-119 101 0
119 -101 0
-120 105 0
120 -105 0
-121 98 0
121 -98 0
-122 110 0
122 -110 0
-123 102 0
123 -102 0
-124 106 0
124 -106 0
-125 100 0
125 -100 0
-126 112 0
126 -112 0
-127 104 0
127 -104 0
-128 108 0
128 -108 0
-130 141 0
130 -141 0
-131 133 0
131 -133 0
-132 137 0
132 -137 0
-133 132 0
133 -132 0
-134 144 0
134 -144 0
-135 136 0
135 -136 0
-136 140 0
136 -140 0
-137 130 0
137 -130 0
-138 142 0
138 -142 0
-139 134 0
139 -134 0
-140 138 0
140 -138 0
-141 131 0
141 -131 0
-142 143 0
142 -143 0
-143 135 0
143 -135 0
-144 139 0
144 -139 0
-97 117 0
97 -117 0
-98 121 0
98 -121 0
-99 113 0
99 -113 0
-100 125 0
100 -125 0
-101 119 0
101 -119 0
-102 123 0
102 -123 0
-103 115 0
103 -115 0
-104 127 0
104 -127 0
-105 120 0
105 -120 0
-106 124 0
106 -124 0
-107 116 0
107 -116 0
-108 128 0
108 -128 0
-109 118 0
109 -118 0
-110 122 0
110 -122 0
-111 114 0
111 -114 0
-112 126 0
112 -126 0
-113 98 0
113 -98 0
-114 106 0
114 -106 0
-115 110 0
115 -110 0
-116 102 0
116 -102 0
-117 99 0
117 -99 0
-118 107 0
118 -107 0
-119 111 0
119 -111 0
-120 103 0
120 -103 0
-121 97 0
121 -97 0
-122 105 0
122 -105 0
-123 109 0
123 -109 0
-124 101 0
124 -101 0
-125 100 0
125 -100 0
-126 108 0
126 -108 0
-127 112 0
127 -112 0
-128 104 0
128 -104 0
-130 137 0
130 -137 0
-131 141 0
131 -141 0
-132 133 0
132 -133 0
-133 131 0
133 -131 0
-134 139 0
134 -139 0
-135 143 0
135 -143 0
-136 135 0
136 -135 0
-137 132 0
137 -132 0
-138 140 0
138 -140 0
-139 144 0
139 -144 0
-140 136 0
140 -136 0
-141 130 0
141 -130 0
-142 138 0
142 -138 0
-143 142 0
143 -142 0
-144 134 0
144 -134 0
-97 99 0
97 -99 0
-99 97 0
99 -97 0
-101 107 0
101 -107 0
-102 106 0
102 -106 0
-103 105 0
103 -105 0
-104 108 0
104 -108 0
-105 103 0
105 -103 0
-106 102 0
106 -102 0
-107 101 0
107 -101 0
-108 104 0
108 -104 0
-109 111 0
109 -111 0
-111 109 0
111 -109 0
-113 121 0
113 -121 0
-114 123 0
114 -123 0
-115 122 0
115 -122 0
-116 124 0
116 -124 0
-118 119 0
118 -119 0
-119 118 0
119 -118 0
-121 113 0
121 -113 0
-122 115 0
122 -115 0
-123 114 0
123 -114 0
-124 116 0
124 -116 0
-126 127 0
126 -127 0
-127 126 0
127 -126 0
-130 131 0
130 -131 0
-131 130 0
131 -130 0
-133 137 0
133 -137 0
-134 139 0
134 -139 0
-135 138 0
135 -138 0
-136 140 0
136 -140 0
-137 133 0
137 -133 0
-138 135 0
138 -135 0
-139 134 0
139 -134 0
-140 136 0
140 -136 0
-142 143 0
142 -143 0
-143 142 0
143 -142 0
-97 98 0
97 -98 0
-98 99 0
98 -99 0
-99 97 0
99 -97 0
-101 106 0
101 -106 0
-102 107 0
102 -107 0
-103 105 0
103 -105 0
-104 108 0
104 -108 0
-105 110 0
105 -110 0
-106 111 0
106 -111 0
-107 109 0
107 -109 0
-108 112 0
108 -112 0
-109 102 0
109 -102 0
-110 103 0
110 -103 0
-111 101 0
111 -101 0
-112 104 0
112 -104 0
-113 117 0
113 -117 0
-114 119 0
114 -119 0
-115 120 0
115 -120 0
-116 118 0
116 -118 0
-117 121 0
117 -121 0
-118 123 0
118 -123 0
-119 124 0
119 -124 0
-120 122 0
120 -122 0
-121 113 0
121 -113 0
-122 115 0
122 -115 0
-123 116 0
123 -116 0
-124 114 0
124 -114 0
-126 127 0
126 -127 0
-127 128 0
127 -128 0
-128 126 0
128 -126 0
-130 131 0
130 -131 0
-131 132 0
131 -132 0
-132 130 0
132 -130 0
-133 137 0
133 -137 0
-134 139 0
134 -139 0
-135 140 0
135 -140 0
-136 138 0
136 -138 0
-137 141 0
137 -141 0
-138 143 0
138 -143 0
-139 144 0
139 -144 0
-140 142 0
140 -142 0
-141 133 0
141 -133 0
-142 135 0
142 -135 0
-143 136 0
143 -136 0
-144 134 0
144 -134 0
97 98 99 100 101 102 103 104 105 106 107 108 109 110 111 112 0
113 114 115 116 117 118 119 120 121 122 123 124 125 126 127 128 0
129 130 131 132 133 134 135 136 137 138 139 140 141 142 143 144 0
-145 161 0
145 -161 0
-146 169 0
146 -169 0
-147 165 0
147 -165 0
-148 173 0
148 -173 0
-149 164 0
149 -164 0
-150 172 0
150 -172 0
-151 168 0
151 -168 0
-152 176 0
152 -176 0
-153 163 0
153 -163 0
-154 171 0
154 -171 0
-155 167 0
155 -167 0
-156 175 0
156 -175 0
-157 162 0
157 -162 0
-158 170 0
158 -170 0
-159 166 0
159 -166 0
-160 174 0
160 -174 0
-161 145 0
161 -145 0
-162 157 0
162 -157 0
-163 153 0
163 -153 0
-164 149 0
164 -149 0
-165 147 0
165 -147 0
-166 159 0
166 -159 0
-167 155 0
167 -155 0
-168 151 0
168 -151 0
-169 146 0
169 -146 0
-170 158 0
170 -158 0
-171 154 0
171 -154 0
-172 150 0
172 -150 0
-173 148 0
173 -148 0
-174 160 0
174 -160 0
-175 156 0
175 -156 0
-176 152 0
176 -152 0
-178 189 0
178 -189 0
-179 185 0
179 -185 0
-180 181 0
180 -181 0
-181 180 0
181 -180 0
-182 192 0
182 -192 0
-183 188 0
183 -188 0
-185 179 0
185 -179 0
-186 191 0
186 -191 0
-188 183 0
188 -183 0
-189 178 0
189 -178 0
-191 186 0
191 -186 0
-192 182 0
192 -182 0
-145 161 0
145 -161 0
-146 165 0
146 -165 0
-147 169 0
147 -169 0
-148 173 0
148 -173 0
-149 162 0
149 -162 0
-150 166 0
150 -166 0
-151 170 0
151 -170 0
-152 174 0
152 -174 0
-153 163 0
153 -163 0
-154 167 0
154 -167 0
-155 171 0
155 -171 0
-156 175 0
156 -175 0
-157 164 0
157 -164 0
-158 168 0
158 -168 0
-159 172 0
159 -172 0
-160 176 0
160 -176 0
-161 145 0
161 -145 0
-162 149 0
162 -149 0
-163 153 0
163 -153 0
-164 157 0
164 -157 0
-165 146 0
165 -146 0
-166 150 0
166 -150 0
-167 154 0
167 -154 0
-168 158 0
168 -158 0
-169 147 0
169 -147 0
-170 151 0
170 -151 0
-171 155 0
171 -155 0
-172 159 0
172 -159 0
-173 148 0
173 -148 0
-174 152 0
174 -152 0
-175 156 0
175 -156 0
-176 160 0
176 -160 0
-178 181 0
178 -181 0
-179 185 0
179 -185 0
-180 189 0
180 -189 0
-181 178 0
181 -178 0
-183 186 0
183 -186 0
-184 190 0
184 -190 0
-185 179 0
185 -179 0
-186 183 0
186 -183 0
-188 191 0
188 -191 0
-189 180 0
189 -180 0
-190 184 0
190 -184 0
-191 188 0
191 -188 0
-145 165 0
145 -165 0
-146 161 0
146 -161 0
-147 169 0
147 -169 0
-148 173 0
148 -173 0
-149 166 0
149 -166 0
-150 162 0
150 -162 0
-151 170 0
151 -170 0
-152 174 0
152 -174 0
-153 168 0
153 -168 0
-154 164 0
154 -164 0
-155 172 0
155 -172 0
-156 176 0
156 -176 0
-157 167 0
157 -167 0
-158 163 0
158 -163 0
-159 171 0
159 -171 0
-160 175 0
160 -175 0
-161 146 0
161 -146 0
-162 150 0
162 -150 0
-163 158 0
163 -158 0
-164 154 0
164 -154 0
-165 145 0
165 -145 0
-166 149 0
166 -149 0
-167 157 0
167 -157 0
-168 153 0
168 -153 0
-169 147 0
169 -147 0
-170 151 0
170 -151 0
-171 159 0
171 -159 0
-172 155 0
172 -155 0
-173 148 0
173 -148 0
-174 152 0
174 -152 0
-175 160 0
175 -160 0
-176 156 0
176 -156 0
-178 181 0
178 -181 0
-179 189 0
179 -189 0
-180 185 0
180 -185 0
-181 178 0
181 -178 0
-183 190 0
183 -190 0
-184 186 0
184 -186 0
-185 180 0
185 -180 0
-186 184 0
186 -184 0
-187 192 0
187 -192 0
-189 179 0
189 -179 0
-190 183 0
190 -183 0
-192 187 0
192 -187 0
-146 147 0
146 -147 0
-147 146 0
147 -146 0
-149 157 0
149 -157 0
-150 159 0
150 -159 0
-151 158 0
151 -158 0
-152 160 0
152 -160 0
-154 155 0
154 -155 0
-155 154 0
155 -154 0
-157 149 0
157 -149 0
-158 151 0
158 -151 0
-159 150 0
159 -150 0
-160 152 0
160 -152 0
-162 164 0
162 -164 0
-164 162 0
164 -162 0
-165 169 0
165 -169 0
-166 172 0
166 -172 0
-167 171 0
167 -171 0
-168 170 0
168 -170 0
-169 165 0
169 -165 0
-170 168 0
170 -168 0
-171 167 0
171 -167 0
-172 166 0
172 -166 0
-174 176 0
174 -176 0
-176 174 0
176 -174 0
-178 180 0
178 -180 0
-180 178 0
180 -178 0
-181 189 0
181 -189 0
-182 192 0
182 -192 0
-183 191 0
183 -191 0
-184 190 0
184 -190 0
-186 188 0
186 -188 0
-188 186 0
188 -186 0
-189 181 0
189 -181 0
-190 184 0
190 -184 0
-191 183 0
191 -183 0
-192 182 0
192 -182 0
-145 169 0
145 -169 0
-146 165 0
146 -165 0
-147 161 0
147 -161 0
-148 173 0
148 -173 0
-149 171 0
149 -171 0
-150 167 0
150 -167 0
-151 163 0
151 -163 0
-152 175 0
152 -175 0
-153 170 0
153 -170 0
-154 166 0
154 -166 0
-155 162 0
155 -162 0
-156 174 0
156 -174 0
-157 172 0
157 -172 0
-158 168 0
158 -168 0
-159 164 0
159 -164 0
-160 176 0
160 -176 0
-161 147 0
161 -147 0
-162 155 0
162 -155 0
-163 151 0
163 -151 0
-164 159 0
164 -159 0
-165 146 0
165 -146 0
-166 154 0
166 -154 0
-167 150 0
167 -150 0
-168 158 0
168 -158 0
-169 145 0
169 -145 0
-170 153 0
170 -153 0
-171 149 0
171 -149 0
-172 157 0
172 -157 0
-173 148 0
173 -148 0
-174 156 0
174 -156 0
-175 152 0
175 -152 0
-176 160 0
176 -160 0
-178 185 0
178 -185 0
-179 181 0
179 -181 0
-180 189 0
180 -189 0
-181 179 0
181 -179 0
-182 187 0
182 -187 0
-184 191 0
184 -191 0
-185 178 0
185 -178 0
-187 182 0
187 -182 0
-188 190 0
188 -190 0
-189 180 0
189 -180 0
-190 188 0
190 -188 0
-191 184 0
191 -184 0
-145 146 0
145 -146 0
-146 145 0
146 -145 0
-149 150 0
149 -150 0
-150 149 0
150 -149 0
-153 158 0
153 -158 0
-154 157 0
154 -157 0
-155 159 0
155 -159 0
-156 160 0
156 -160 0
-157 154 0
157 -154 0
-158 153 0
158 -153 0
-159 155 0
159 -155 0
-160 156 0
160 -156 0
-161 165 0
161 -165 0
-162 166 0
162 -166 0
-163 168 0
163 -168 0
-164 167 0
164 -167 0
-165 161 0
165 -161 0
-166 162 0
166 -162 0
-167 164 0
167 -164 0
-168 163 0
168 -163 0
-171 172 0
171 -172 0
-172 171 0
172 -171 0
-175 176 0
175 -176 0
-176 175 0
176 -175 0
-179 180 0
179 -180 0
-180 179 0
180 -179 0
-183 184 0
183 -184 0
-184 183 0
184 -183 0
-185 189 0
185 -189 0
-186 190 0
186 -190 0
-187 192 0
187 -192 0
-188 191 0
188 -191 0
-189 185 0
189 -185 0
-190 186 0
190 -186 0
-191 188 0
191 -188 0
-192 187 0
192 -187 0
-145 147 0
145 -147 0
-146 145 0
146 -145 0
-147 146 0
147 -146 0
-149 159 0
149 -159 0
-150 157 0
150 -157 0
-151 158 0
151 -158 0
-152 160 0
152 -160 0
-153 151 0
153 -151 0
-154 149 0
154 -149 0
-155 150 0
155 -150 0
-156 152 0
156 -152 0
-157 155 0
157 -155 0
-158 153 0
158 -153 0
-159 154 0
159 -154 0
-160 156 0
160 -156 0
-161 169 0
161 -169 0
-162 172 0
162 -172 0
-163 170 0
163 -170 0
-164 171 0
164 -171 0
-165 161 0
165 -161 0
-166 164 0
166 -164 0
-167 162 0
167 -162 0
-168 163 0
168 -163 0
-169 165 0
169 -165 0
-170 168 0
170 -168 0
-171 166 0
171 -166 0
-172 167 0
172 -167 0
-174 176 0
174 -176 0
-175 174 0
175 -174 0
-176 175 0
176 -175 0
-178 180 0
178 -180 0
-179 178 0
179 -178 0
-180 179 0
180 -179 0
-181 189 0
181 -189 0
-182 192 0
182 -192 0
-183 190 0
183 -190 0
-184 191 0
184 -191 0
-185 181 0
185 -181 0
-186 184 0
186 -184 0
-187 182 0
187 -182 0
-188 183 0
188 -183 0
-189 185 0
189 -185 0
-190 188 0
190 -188 0
-191 186 0
191 -186 0
-192 187 0
192 -187 0
-145 169 0
145 -169 0
-146 161 0
146 -161 0
-147 165 0
147 -165 0
-148 173 0
148 -173 0
-149 172 0
149 -172 0
-150 164 0
150 -164 0
-151 168 0
151 -168 0
-152 176 0
152 -176 0
-153 170 0
153 -170 0
-154 162 0
154 -162 0
-155 166 0
155 -166 0
-156 174 0
156 -174 0
-157 171 0
157 -171 0
-158 163 0
158 -163 0
-159 167 0
159 -167 0
-160 175 0
160 -175 0
-161 147 0
161 -147 0
-162 159 0
162 -159 0
-163 151 0
163 -151 0
-164 155 0
164 -155 0
-165 145 0
165 -145 0
-166 157 0
166 -157 0
-167 149 0
167 -149 0
-168 153 0
168 -153 0
-169 146 0
169 -146 0
-170 158 0
170 -158 0
-171 150 0
171 -150 0
-172 154 0
172 -154 0
-173 148 0
173 -148 0
-174 160 0
174 -160 0
-175 152 0
175 -152 0
-176 156 0
176 -156 0
-178 189 0
178 -189 0
-179 181 0
179 -181 0
-180 185 0
180 -185 0
-181 180 0
181 -180 0
-182 192 0
182 -192 0
-183 184 0
183 -184 0
-184 188 0
184 -188 0
-185 178 0
185 -178 0
-186 190 0
186 -190 0
-187 182 0
187 -182 0
-188 186 0
188 -186 0
-189 179 0
189 -179 0
-190 191 0
190 -191 0
-191 183 0
191 -183 0
-192 187 0
192 -187 0
-145 165 0
145 -165 0
-146 169 0
146 -169 0
-147 161 0
147 -161 0
-148 173 0
148 -173 0
-149 167 0
149 -167 0
-150 171 0
150 -171 0
-151 163 0
151 -163 0
-152 175 0
152 -175 0
-153 168 0
153 -168 0
-154 172 0
154 -172 0
-155 164 0
155 -164 0
-156 176 0
156 -176 0
-157 166 0
157 -166 0
-158 170 0
158 -170 0
-159 162 0
159 -162 0
-160 174 0
160 -174 0
-161 146 0
161 -146 0
-162 154 0
162 -154 0
-163 158 0
163 -158 0
-164 150 0
164 -150 0
-165 147 0
165 -147 0
-166 155 0
166 -155 0
-167 159 0
167 -159 0
-168 151 0
168 -151 0
-169 145 0
169 -145 0
-170 153 0
170 -153 0
-171 157 0
171 -157 0
-172 149 0
172 -149 0
-173 148 0
173 -148 0
-174 156 0
174 -156 0
-175 160 0
175 -160 0
-176 152 0
176 -152 0
-178 185 0
178 -185 0
-179 189 0
179 -189 0
-180 181 0
180 -181 0
-181 179 0
181 -179 0
-182 187 0
182 -187 0
-183 191 0
183 -191 0
-184 183 0
184 -183 0
-185 180 0
185 -180 0
-186 188 0
186 -188 0
-187 192 0
187 -192 0
-188 184 0
188 -184 0
-189 178 0
189 -178 0
-190 186 0
190 -186 0
-191 190 0
191 -190 0
-192 182 0
192 -182 0
-145 147 0
145 -147 0
-147 145 0
147 -145 0
-149 155 0
149 -155 0
-150 154 0
150 -154 0
-151 153 0
151 -153 0
-152 156 0
152 -156 0
-153 151 0
153 -151 0
-154 150 0
154 -150 0
-155 149 0
155 -149 0
-156 152 0
156 -152 0
-157 159 0
157 -159 0
-159 157 0
159 -157 0
-161 169 0
161 -169 0
-162 171 0
162 -171 0
-163 170 0
163 -170 0
-164 172 0
164 -172 0
-166 167 0
166 -167 0
-167 166 0
167 -166 0
-169 161 0
169 -161 0
-170 163 0
170 -163 0
-171 162 0
171 -162 0
-172 164 0
172 -164 0
-174 175 0
174 -175 0
-175 174 0
175 -174 0
-178 179 0
178 -179 0
-179 178 0
179 -178 0
-181 185 0
181 -185 0
-182 187 0
182 -187 0
-183 186 0
183 -186 0
-184 188 0
184 -188 0
-185 181 0
185 -181 0
-186 183 0
186 -183 0
-187 182 0
187 -182 0
-188 184 0
188 -184 0
-190 191 0
190 -191 0
-191 190 0
191 -190 0
-145 146 0
145 -146 0
-146 147 0
146 -147 0
-147 145 0
147 -145 0
-149 154 0
149 -154 0
-150 155 0
150 -155 0
-151 153 0
151 -153 0
-152 156 0
152 -156 0
-153 158 0
153 -158 0
-154 159 0
154 -159 0
-155 157 0
155 -157 0
-156 160 0
156 -160 0
-157 150 0
157 -150 0
-158 151 0
158 -151 0
-159 149 0
159 -149 0
-160 152 0
160 -152 0
-161 165 0
161 -165 0
-162 167 0
162 -167 0
-163 168 0
163 -168 0
-164 166 0
164 -166 0
-165 169 0
165 -169 0
-166 171 0
166 -171 0
-167 172 0
167 -172 0
-168 170 0
168 -170 0
-169 161 0
169 -161 0
-170 163 0
170 -163 0
-171 164 0
171 -164 0
-172 162 0
172 -162 0
-174 175 0
174 -175 0
-175 176 0
175 -176 0
-176 174 0
176 -174 0
-178 179 0
178 -179 0
-179 180 0
179 -180 0
-180 178 0
180 -178 0
-181 185 0
181 -185 0
-182 187 0
182 -187 0
-183 188 0
183 -188 0
-184 186 0
184 -186 0
-185 189 0
185 -189 0
-186 191 0
186 -191 0
-187 192 0
187 -192 0
-188 190 0
188 -190 0
-189 181 0
189 -181 0
-190 183 0
190 -183 0
-191 184 0
191 -184 0
-192 182 0
192 -182 0
145 146 147 148 149 150 151 152 153 154 155 156 157 158 159 160 0
161 162 163 164 165 166 167 168 169 170 171 172 173 174 175 176 0
177 178 179 180 181 182 183 184 185 186 187 188 189 190 191 192 0
-193 1 0
-193 17 0
193 -1 -17 0
-194 193 0
-194 33 0
194 -193 -33 0
-195 2 0
-195 21 0
195 -2 -21 0
-196 195 0
-196 33 0
196 -195 -33 0
-197 3 0
-197 25 0
197 -3 -25 0
-198 197 0
-198 33 0
198 -197 -33 0
-199 49 0
-199 65 0
199 -49 -65 0
-200 199 0
-200 81 0
200 -199 -81 0
-201 50 0
-201 69 0
201 -50 -69 0
-202 201 0
-202 81 0
202 -201 -81 0
-203 97 0
-203 113 0
203 -97 -113 0
-204 203 0
-204 129 0
204 -203 -129 0
-205 145 0
-205 161 0
205 -145 -161 0
-206 205 0
-206 177 0
206 -205 -177 0
-207 194 194 0
-207 -194 -194 0
207 -194 194 0
207 194 -194 0
-208 207 196 0
-208 -207 -196 0
208 -207 196 0
208 207 -196 0
-209 208 198 0
-209 -208 -198 0
209 -208 198 0
209 208 -198 0
-210 209 196 0
-210 -209 -196 0
210 -209 196 0
210 209 -196 0
-211 210 198 0
-211 -210 -198 0
211 -210 198 0
211 210 -198 0
-212 211 194 0
-212 -211 -194 0
212 -211 194 0
212 211 -194 0
-213 212 194 0
-213 -212 -194 0
213 -212 194 0
213 212 -194 0
-214 213 196 0
-214 -213 -196 0
214 -213 196 0
214 213 -196 0
-215 214 198 0
-215 -214 -198 0
215 -214 198 0
215 214 -198 0
-216 215 196 0
-216 -215 -196 0
216 -215 196 0
216 215 -196 0
-217 216 198 0
-217 -216 -198 0
217 -216 198 0
217 216 -198 0
-218 217 200 0
-218 -217 -200 0
218 -217 200 0
218 217 -200 0
-219 218 202 0
-219 -218 -202 0
219 -218 202 0
219 218 -202 0
-220 219 202 0
-220 -219 -202 0
220 -219 202 0
220 219 -202 0
-221 220 204 0
-221 -220 -204 0
221 -220 204 0
221 220 -204 0
-222 221 206 0
-222 -221 -206 0
222 -221 206 0
222 221 -206 0
-222 0
-223 193 0
-223 34 0
223 -193 -34 0
-224 193 0
-224 36 0
224 -193 -36 0
-225 195 0
-225 34 0
225 -195 -34 0
-226 197 0
-226 36 0
226 -197 -36 0
-227 195 0
-227 35 0
227 -195 -35 0
-228 197 0
-228 35 0
228 -197 -35 0
-229 193 0
-229 37 0
229 -193 -37 0
-230 193 0
-230 45 0
230 -193 -45 0
-231 195 0
-231 37 0
231 -195 -37 0
-232 197 0
-232 45 0
232 -197 -45 0
-233 195 0
-233 41 0
233 -195 -41 0
-234 197 0
-234 41 0
234 -197 -41 0
-235 199 0
-235 82 0
235 -199 -82 0
-236 201 0
-236 82 0
236 -201 -82 0
-237 201 0
-237 83 0
237 -201 -83 0
-238 203 0
-238 130 0
238 -203 -130 0
-239 205 0
-239 178 0
239 -205 -178 0
-240 223 224 0
-240 -223 -224 0
240 -223 224 0
240 223 -224 0
-241 240 225 0
-241 -240 -225 0
241 -240 225 0
241 240 -225 0
-242 241 226 0
-242 -241 -226 0
242 -241 226 0
242 241 -226 0
-243 242 227 0
-243 -242 -227 0
243 -242 227 0
243 242 -227 0
-244 243 228 0
-244 -243 -228 0
244 -243 228 0
244 243 -228 0
-245 244 229 0
-245 -244 -229 0
245 -244 229 0
245 244 -229 0
-246 245 230 0
-246 -245 -230 0
246 -245 230 0
246 245 -230 0
-247 246 231 0
-247 -246 -231 0
247 -246 231 0
247 246 -231 0
-248 247 232 0
-248 -247 -232 0
248 -247 232 0
248 247 -232 0
-249 248 233 0
-249 -248 -233 0
249 -248 233 0
249 248 -233 0
-250 249 234 0
-250 -249 -234 0
250 -249 234 0
250 249 -234 0
-251 250 235 0
-251 -250 -235 0
251 -250 235 0
251 250 -235 0
-252 251 236 0
-252 -251 -236 0
252 -251 236 0
252 251 -236 0
-253 252 237 0
-253 -252 -237 0
253 -252 237 0
253 252 -237 0
-254 253 238 0
-254 -253 -238 0
254 -253 238 0
254 253 -238 0
-255 254 239 0
-255 -254 -239 0
255 -254 239 0
255 254 -239 0
-255 0
-256 193 0
-256 35 0
256 -193 -35 0
-257 195 0
-257 36 0
257 -195 -36 0
-258 197 0
-258 34 0
258 -197 -34 0
-259 193 0
-259 41 0
259 -193 -41 0
-260 195 0
-260 45 0
260 -195 -45 0
-261 197 0
-261 37 0
261 -197 -37 0
-262 199 0
-262 83 0
262 -199 -83 0
-263 201 0
-263 84 0
263 -201 -84 0
-264 203 0
-264 131 0
264 -203 -131 0
-265 205 0
-265 179 0
265 -205 -179 0
-266 256 256 0
-266 -256 -256 0
266 -256 256 0
266 256 -256 0
-267 266 257 0
-267 -266 -257 0
267 -266 257 0
267 266 -257 0
-268 267 258 0
-268 -267 -258 0
268 -267 258 0
268 267 -258 0
-269 268 257 0
-269 -268 -257 0
269 -268 257 0
269 268 -257 0
-270 269 258 0
-270 -269 -258 0
270 -269 258 0
270 269 -258 0
-271 270 259 0
-271 -270 -259 0
271 -270 259 0
271 270 -259 0
-272 271 259 0
-272 -271 -259 0
272 -271 259 0
272 271 -259 0
-273 272 260 0
-273 -272 -260 0
273 -272 260 0
273 272 -260 0
-274 273 261 0
-274 -273 -261 0
274 -273 261 0
274 273 -261 0
-275 274 260 0
-275 -274 -260 0
275 -274 260 0
275 274 -260 0
-276 275 261 0
-276 -275 -261 0
276 -275 261 0
276 275 -261 0
-277 276 262 0
-277 -276 -262 0
277 -276 262 0
277 276 -262 0
-278 277 263 0
-278 -277 -263 0
278 -277 263 0
278 277 -263 0
-279 278 263 0
-279 -278 -263 0
279 -278 263 0
279 278 -263 0
-280 279 264 0
-280 -279 -264 0
280 -279 264 0
280 279 -264 0
-281 280 265 0
-281 -280 -265 0
281 -280 265 0
281 280 -265 0
-281 0
-282 193 0
-282 38 0
282 -193 -38 0
-283 193 0
-283 48 0
283 -193 -48 0
-284 195 0
-284 38 0
284 -195 -38 0
-285 197 0
-285 48 0
285 -197 -48 0
-286 195 0
-286 43 0
286 -195 -43 0
-287 197 0
-287 43 0
287 -197 -43 0
-288 199 0
-288 86 0
288 -199 -86 0
-289 201 0
-289 86 0
289 -201 -86 0
-290 201 0
-290 91 0
290 -201 -91 0
-291 203 0
-291 134 0
291 -203 -134 0
-292 205 0
-292 182 0
292 -205 -182 0
-293 282 283 0
-293 -282 -283 0
293 -282 283 0
293 282 -283 0
-294 293 284 0
-294 -293 -284 0
294 -293 284 0
294 293 -284 0
-295 294 285 0
-295 -294 -285 0
295 -294 285 0
295 294 -285 0
-296 295 286 0
-296 -295 -286 0
296 -295 286 0
296 295 -286 0
-297 296 287 0
-297 -296 -287 0
297 -296 287 0
297 296 -287 0
-298 297 282 0
-298 -297 -282 0
298 -297 282 0
298 297 -282 0
-299 298 283 0
-299 -298 -283 0
299 -298 283 0
299 298 -283 0
-300 299 284 0
-300 -299 -284 0
300 -299 284 0
300 299 -284 0
-301 300 285 0
-301 -300 -285 0
301 -300 285 0
301 300 -285 0
-302 301 286 0
-302 -301 -286 0
302 -301 286 0
302 301 -286 0
-303 302 287 0
-303 -302 -287 0
303 -302 287 0
303 302 -287 0
-304 303 288 0
-304 -303 -288 0
304 -303 288 0
304 303 -288 0
-305 304 289 0
-305 -304 -289 0
305 -304 289 0
305 304 -289 0
-306 305 290 0
-306 -305 -290 0
306 -305 290 0
306 305 -290 0
-307 306 291 0
-307 -306 -291 0
307 -306 291 0
307 306 -291 0
-308 307 292 0
-308 -307 -292 0
308 -307 292 0
308 307 -292 0
-308 0
-309 193 0
-309 39 0
309 -193 -39 0
-310 193 0
-310 47 0
310 -193 -47 0
-311 195 0
-311 40 0
311 -195 -40 0
-312 197 0
-312 46 0
312 -197 -46 0
-313 195 0
-313 44 0
313 -195 -44 0
-314 197 0
-314 42 0
314 -197 -42 0
-315 193 0
-315 42 0
315 -193 -42 0
-316 193 0
-316 44 0
316 -193 -44 0
-317 195 0
-317 46 0
317 -195 -46 0
-318 197 0
-318 40 0
318 -197 -40 0
-319 195 0
-319 47 0
319 -195 -47 0
-320 197 0
-320 39 0
320 -197 -39 0
-321 199 0
-321 87 0
321 -199 -87 0
-322 201 0
-322 88 0
322 -201 -88 0
-323 201 0
-323 92 0
323 -201 -92 0
-324 203 0
-324 135 0
324 -203 -135 0
-325 205 0
-325 183 0
325 -205 -183 0
-326 309 310 0
-326 -309 -310 0
326 -309 310 0
326 309 -310 0
-327 326 311 0
-327 -326 -311 0
327 -326 311 0
327 326 -311 0
-328 327 312 0
-328 -327 -312 0
328 -327 312 0
328 327 -312 0
-329 328 313 0
-329 -328 -313 0
329 -328 313 0
329 328 -313 0
-330 329 314 0
-330 -329 -314 0
330 -329 314 0
330 329 -314 0
-331 330 315 0
-331 -330 -315 0
331 -330 315 0
331 330 -315 0
-332 331 316 0
-332 -331 -316 0
332 -331 316 0
332 331 -316 0
-333 332 317 0
-333 -332 -317 0
333 -332 317 0
333 332 -317 0
-334 333 318 0
-334 -333 -318 0
334 -333 318 0
334 333 -318 0
-335 334 319 0
-335 -334 -319 0
335 -334 319 0
335 334 -319 0
-336 335 320 0
-336 -335 -320 0
336 -335 320 0
336 335 -320 0
-337 336 321 0
-337 -336 -321 0
337 -336 321 0
337 336 -321 0
-338 337 322 0
-338 -337 -322 0
338 -337 322 0
338 337 -322 0
-339 338 323 0
-339 -338 -323 0
339 -338 323 0
339 338 -323 0
-340 339 324 0
-340 -339 -324 0
340 -339 324 0
340 339 -324 0
-341 340 325 0
-341 -340 -325 0
341 -340 325 0
341 340 -325 0
-341 0
-342 193 0
-342 40 0
342 -193 -40 0
-343 193 0
-343 46 0
343 -193 -46 0
-344 195 0
-344 39 0
344 -195 -39 0
-345 197 0
-345 47 0
345 -197 -47 0
-346 195 0
-346 42 0
346 -195 -42 0
-347 197 0
-347 44 0
347 -197 -44 0
-348 199 0
-348 88 0
348 -199 -88 0
-349 201 0
-349 87 0
349 -201 -87 0
-350 201 0
-350 90 0
350 -201 -90 0
-351 203 0
-351 136 0
351 -203 -136 0
-352 205 0
-352 184 0
352 -205 -184 0
-353 342 343 0
-353 -342 -343 0
353 -342 343 0
353 342 -343 0
-354 353 344 0
-354 -353 -344 0
354 -353 344 0
354 353 -344 0
-355 354 345 0
-355 -354 -345 0
355 -354 345 0
355 354 -345 0
-356 355 346 0
-356 -355 -346 0
356 -355 346 0
356 355 -346 0
-357 356 347 0
-357 -356 -347 0
357 -356 347 0
357 356 -347 0
-358 357 343 0
-358 -357 -343 0
358 -357 343 0
358 357 -343 0
-359 358 342 0
-359 -358 -342 0
359 -358 342 0
359 358 -342 0
-360 359 346 0
-360 -359 -346 0
360 -359 346 0
360 359 -346 0
-361 360 347 0
-361 -360 -347 0
361 -360 347 0
361 360 -347 0
-362 361 344 0
-362 -361 -344 0
362 -361 344 0
362 361 -344 0
-363 362 345 0
-363 -362 -345 0
363 -362 345 0
363 362 -345 0
-364 363 348 0
-364 -363 -348 0
364 -363 348 0
364 363 -348 0
-365 364 349 0
-365 -364 -349 0
365 -364 349 0
365 364 -349 0
-366 365 350 0
-366 -365 -350 0
366 -365 350 0
366 365 -350 0
-367 366 351 0
-367 -366 -351 0
367 -366 351 0
367 366 -351 0
-368 367 352 0
-368 -367 -352 0
368 -367 352 0
368 367 -352 0
-368 0
-369 193 0
-369 43 0
369 -193 -43 0
-370 195 0
-370 48 0
370 -195 -48 0
-371 197 0
-371 38 0
371 -197 -38 0
-372 199 0
-372 91 0
372 -199 -91 0
-373 201 0
-373 96 0
373 -201 -96 0
-374 203 0
-374 139 0
374 -203 -139 0
-375 205 0
-375 187 0
375 -205 -187 0
-376 369 369 0
-376 -369 -369 0
376 -369 369 0
376 369 -369 0
-377 376 370 0
-377 -376 -370 0
377 -376 370 0
377 376 -370 0
-378 377 371 0
-378 -377 -371 0
378 -377 371 0
378 377 -371 0
-379 378 370 0
-379 -378 -370 0
379 -378 370 0
379 378 -370 0
-380 379 371 0
-380 -379 -371 0
380 -379 371 0
380 379 -371 0
-381 380 369 0
-381 -380 -369 0
381 -380 369 0
381 380 -369 0
-382 381 369 0
-382 -381 -369 0
382 -381 369 0
382 381 -369 0
-383 382 370 0
-383 -382 -370 0
383 -382 370 0
383 382 -370 0
-384 383 371 0
-384 -383 -371 0
384 -383 371 0
384 383 -371 0
-385 384 370 0
-385 -384 -370 0
385 -384 370 0
385 384 -370 0
-386 385 371 0
-386 -385 -371 0
386 -385 371 0
386 385 -371 0
-387 386 372 0
-387 -386 -372 0
387 -386 372 0
387 386 -372 0
-388 387 373 0
-388 -387 -373 0
388 -387 373 0
388 387 -373 0
-389 388 373 0
-389 -388 -373 0
389 -388 373 0
389 388 -373 0
-390 389 374 0
-390 -389 -374 0
390 -389 374 0
390 389 -374 0
-391 390 375 0
-391 -390 -375 0
391 -390 375 0
391 390 -375 0
-391 0
-392 1 0
-392 18 0
392 -1 -18 0
-393 392 0
-393 33 0
393 -392 -33 0
-394 1 0
-394 20 0
394 -1 -20 0
-395 394 0
-395 33 0
395 -394 -33 0
-396 2 0
-396 22 0
396 -2 -22 0
-397 396 0
-397 33 0
397 -396 -33 0
-398 3 0
-398 28 0
398 -3 -28 0
-399 398 0
-399 33 0
399 -398 -33 0
-400 2 0
-400 23 0
400 -2 -23 0
-401 400 0
-401 33 0
401 -400 -33 0
-402 3 0
-402 27 0
402 -3 -27 0
-403 402 0
-403 33 0
403 -402 -33 0
-404 17 0
-404 5 0
404 -17 -5 0
-405 404 0
-405 33 0
405 -404 -33 0
-406 17 0
-406 13 0
406 -17 -13 0
-407 406 0
-407 33 0
407 -406 -33 0
-408 21 0
-408 6 0
408 -21 -6 0
-409 408 0
-409 33 0
409 -408 -33 0
-410 25 0
-410 15 0
410 -25 -15 0
-411 410 0
-411 33 0
411 -410 -33 0
-412 21 0
-412 10 0
412 -21 -10 0
-413 412 0
-413 33 0
413 -412 -33 0
-414 25 0
-414 11 0
414 -25 -11 0
-415 414 0
-415 33 0
415 -414 -33 0
-416 49 0
-416 66 0
416 -49 -66 0
-417 416 0
-417 81 0
417 -416 -81 0
-418 50 0
-418 70 0
418 -50 -70 0
-419 418 0
-419 81 0
419 -418 -81 0
-420 50 0
-420 71 0
420 -50 -71 0
-421 420 0
-421 81 0
421 -420 -81 0
-422 97 0
-422 114 0
422 -97 -114 0
-423 422 0
-423 129 0
423 -422 -129 0
-424 145 0
-424 162 0
424 -145 -162 0
-425 424 0
-425 177 0
425 -424 -177 0
-426 393 395 0
-426 -393 -395 0
426 -393 395 0
426 393 -395 0
-427 426 397 0
-427 -426 -397 0
427 -426 397 0
427 426 -397 0
-428 427 399 0
-428 -427 -399 0
428 -427 399 0
428 427 -399 0
-429 428 401 0
-429 -428 -401 0
429 -428 401 0
429 428 -401 0
-430 429 403 0
-430 -429 -403 0
430 -429 403 0
430 429 -403 0
-431 430 405 0
-431 -430 -405 0
431 -430 405 0
431 430 -405 0
-432 431 407 0
-432 -431 -407 0
432 -431 407 0
432 431 -407 0
-433 432 409 0
-433 -432 -409 0
433 -432 409 0
433 432 -409 0
-434 433 411 0
-434 -433 -411 0
434 -433 411 0
434 433 -411 0
-435 434 413 0
-435 -434 -413 0
435 -434 413 0
435 434 -413 0
-436 435 415 0
-436 -435 -415 0
436 -435 415 0
436 435 -415 0
-437 436 417 0
-437 -436 -417 0
437 -436 417 0
437 436 -417 0
-438 437 419 0
-438 -437 -419 0
438 -437 419 0
438 437 -419 0
-439 438 421 0
-439 -438 -421 0
439 -438 421 0
439 438 -421 0
-440 439 423 0
-440 -439 -423 0
440 -439 423 0
440 439 -423 0
-441 440 425 0
-441 -440 -425 0
441 -440 425 0
441 440 -425 0
-441 0
-442 392 0
-442 34 0
442 -392 -34 0
-443 394 0
-443 36 0
443 -394 -36 0
-444 396 0
-444 34 0
444 -396 -34 0
-445 398 0
-445 36 0
445 -398 -36 0
-446 400 0
-446 35 0
446 -400 -35 0
-447 402 0
-447 35 0
447 -402 -35 0
-448 404 0
-448 37 0
448 -404 -37 0
-449 406 0
-449 45 0
449 -406 -45 0
-450 408 0
-450 37 0
450 -408 -37 0
-451 410 0
-451 45 0
451 -410 -45 0
-452 412 0
-452 41 0
452 -412 -41 0
-453 414 0
-453 41 0
453 -414 -41 0
-454 416 0
-454 82 0
454 -416 -82 0
-455 418 0
-455 82 0
455 -418 -82 0
-456 420 0
-456 83 0
456 -420 -83 0
-457 422 0
-457 130 0
457 -422 -130 0
-458 424 0
-458 178 0
458 -424 -178 0
-459 442 443 0
-459 -442 -443 0
459 -442 443 0
459 442 -443 0
-460 459 444 0
-460 -459 -444 0
460 -459 444 0
460 459 -444 0
-461 460 445 0
-461 -460 -445 0
461 -460 445 0
461 460 -445 0
-462 461 446 0
-462 -461 -446 0
462 -461 446 0
462 461 -446 0
-463 462 447 0
-463 -462 -447 0
463 -462 447 0
463 462 -447 0
-464 463 448 0
-464 -463 -448 0
464 -463 448 0
464 463 -448 0
-465 464 449 0
-465 -464 -449 0
465 -464 449 0
465 464 -449 0
-466 465 450 0
-466 -465 -450 0
466 -465 450 0
466 465 -450 0
-467 466 451 0
-467 -466 -451 0
467 -466 451 0
467 466 -451 0
-468 467 452 0
-468 -467 -452 0
468 -467 452 0
468 467 -452 0
-469 468 453 0
-469 -468 -453 0
469 -468 453 0
469 468 -453 0
-470 469 454 0
-470 -469 -454 0
470 -469 454 0
470 469 -454 0
-471 470 455 0
-471 -470 -455 0
471 -470 455 0
471 470 -455 0
-472 471 456 0
-472 -471 -456 0
472 -471 456 0
472 471 -456 0
-473 472 457 0
-473 -472 -457 0
473 -472 457 0
473 472 -457 0
-474 473 458 0
-474 -473 -458 0
474 -473 458 0
474 473 -458 0
-474 0
-475 392 0
-475 35 0
475 -392 -35 0
-476 394 0
-476 35 0
476 -394 -35 0
-477 396 0
-477 36 0
477 -396 -36 0
-478 398 0
-478 34 0
478 -398 -34 0
-479 400 0
-479 36 0
479 -400 -36 0
-480 402 0
-480 34 0
480 -402 -34 0
-481 404 0
-481 41 0
481 -404 -41 0
-482 406 0
-482 41 0
482 -406 -41 0
-483 408 0
-483 45 0
483 -408 -45 0
-484 410 0
-484 37 0
484 -410 -37 0
-485 412 0
-485 45 0
485 -412 -45 0
-486 414 0
-486 37 0
486 -414 -37 0
-487 416 0
-487 83 0
487 -416 -83 0
-488 418 0
-488 84 0
488 -418 -84 0
-489 420 0
-489 84 0
489 -420 -84 0
-490 422 0
-490 131 0
490 -422 -131 0
-491 424 0
-491 179 0
491 -424 -179 0
-492 475 476 0
-492 -475 -476 0
492 -475 476 0
492 475 -476 0
-493 492 477 0
-493 -492 -477 0
493 -492 477 0
493 492 -477 0
-494 493 478 0
-494 -493 -478 0
494 -493 478 0
494 493 -478 0
-495 494 479 0
-495 -494 -479 0
495 -494 479 0
495 494 -479 0
-496 495 480 0
-496 -495 -480 0
496 -495 480 0
496 495 -480 0
-497 496 481 0
-497 -496 -481 0
497 -496 481 0
497 496 -481 0
-498 497 482 0
-498 -497 -482 0
498 -497 482 0
498 497 -482 0
-499 498 483 0
-499 -498 -483 0
499 -498 483 0
499 498 -483 0
-500 499 484 0
-500 -499 -484 0
500 -499 484 0
500 499 -484 0
-501 500 485 0
-501 -500 -485 0
501 -500 485 0
501 500 -485 0
-502 501 486 0
-502 -501 -486 0
502 -501 486 0
502 501 -486 0
-503 502 487 0
-503 -502 -487 0
503 -502 487 0
503 502 -487 0
-504 503 488 0
-504 -503 -488 0
504 -503 488 0
504 503 -488 0
-505 504 489 0
-505 -504 -489 0
505 -504 489 0
505 504 -489 0
-506 505 490 0
-506 -505 -490 0
506 -505 490 0
506 505 -490 0
-507 506 491 0
-507 -506 -491 0
507 -506 491 0
507 506 -491 0
507 0
-508 392 0
-508 36 0
508 -392 -36 0
-509 394 0
-509 34 0
509 -394 -34 0
-510 396 0
-510 35 0
510 -396 -35 0
-511 398 0
-511 35 0
511 -398 -35 0
-512 400 0
-512 34 0
512 -400 -34 0
-513 402 0
-513 36 0
513 -402 -36 0
-514 404 0
-514 45 0
514 -404 -45 0
-515 406 0
-515 37 0
515 -406 -37 0
-516 408 0
-516 41 0
516 -408 -41 0
-517 410 0
-517 41 0
517 -410 -41 0
-518 412 0
-518 37 0
518 -412 -37 0
-519 414 0
-519 45 0
519 -414 -45 0
-520 416 0
-520 84 0
520 -416 -84 0
-521 418 0
-521 83 0
521 -418 -83 0
-522 420 0
-522 82 0
522 -420 -82 0
-523 422 0
-523 132 0
523 -422 -132 0
-524 424 0
-524 180 0
524 -424 -180 0
-525 508 509 0
-525 -508 -509 0
525 -508 509 0
525 508 -509 0
-526 525 510 0
-526 -525 -510 0
526 -525 510 0
526 525 -510 0
-527 526 511 0
-527 -526 -511 0
527 -526 511 0
527 526 -511 0
-528 527 512 0
-528 -527 -512 0
528 -527 512 0
528 527 -512 0
-529 528 513 0
-529 -528 -513 0
529 -528 513 0
529 528 -513 0
-530 529 514 0
-530 -529 -514 0
530 -529 514 0
530 529 -514 0
-531 530 515 0
-531 -530 -515 0
531 -530 515 0
531 530 -515 0
-532 531 516 0
-532 -531 -516 0
532 -531 516 0
532 531 -516 0
-533 532 517 0
-533 -532 -517 0
533 -532 517 0
533 532 -517 0
-534 533 518 0
-534 -533 -518 0
534 -533 518 0
534 533 -518 0
-535 534 519 0
-535 -534 -519 0
535 -534 519 0
535 534 -519 0
-536 535 520 0
-536 -535 -520 0
536 -535 520 0
536 535 -520 0
-537 536 521 0
-537 -536 -521 0
537 -536 521 0
537 536 -521 0
-538 537 522 0
-538 -537 -522 0
538 -537 522 0
538 537 -522 0
-539 538 523 0
-539 -538 -523 0
539 -538 523 0
539 538 -523 0
-540 539 524 0
-540 -539 -524 0
540 -539 524 0
540 539 -524 0
-540 0
-541 392 0
-541 37 0
541 -392 -37 0
-542 394 0
-542 45 0
542 -394 -45 0
-543 396 0
-543 37 0
543 -396 -37 0
-544 398 0
-544 45 0
544 -398 -45 0
-545 400 0
-545 41 0
545 -400 -41 0
-546 402 0
-546 41 0
546 -402 -41 0
-547 404 0
-547 34 0
547 -404 -34 0
-548 406 0
-548 36 0
548 -406 -36 0
-549 408 0
-549 34 0
549 -408 -34 0
-550 410 0
-550 36 0
550 -410 -36 0
-551 412 0
-551 35 0
551 -412 -35 0
-552 414 0
-552 35 0
552 -414 -35 0
-553 416 0
-553 85 0
553 -416 -85 0
-554 418 0
-554 85 0
554 -418 -85 0
-555 420 0
-555 89 0
555 -420 -89 0
-556 422 0
-556 133 0
556 -422 -133 0
-557 424 0
-557 181 0
557 -424 -181 0
-558 541 542 0
-558 -541 -542 0
558 -541 542 0
558 541 -542 0
-559 558 543 0
-559 -558 -543 0
559 -558 543 0
559 558 -543 0
-560 559 544 0
-560 -559 -544 0
560 -559 544 0
560 559 -544 0
-561 560 545 0
-561 -560 -545 0
561 -560 545 0
561 560 -545 0
-562 561 546 0
-562 -561 -546 0
562 -561 546 0
562 561 -546 0
-563 562 547 0
-563 -562 -547 0
563 -562 547 0
563 562 -547 0
-564 563 548 0
-564 -563 -548 0
564 -563 548 0
564 563 -548 0
-565 564 549 0
-565 -564 -549 0
565 -564 549 0
565 564 -549 0
-566 565 550 0
-566 -565 -550 0
566 -565 550 0
566 565 -550 0
-567 566 551 0
-567 -566 -551 0
567 -566 551 0
567 566 -551 0
-568 567 552 0
-568 -567 -552 0
568 -567 552 0
568 567 -552 0
-569 568 553 0
-569 -568 -553 0
569 -568 553 0
569 568 -553 0
-570 569 554 0
-570 -569 -554 0
570 -569 554 0
570 569 -554 0
-571 570 555 0
-571 -570 -555 0
571 -570 555 0
571 570 -555 0
-572 571 556 0
-572 -571 -556 0
572 -571 556 0
572 571 -556 0
-573 572 557 0
-573 -572 -557 0
573 -572 557 0
573 572 -557 0
573 0
-574 392 0
-574 38 0
574 -392 -38 0
-575 394 0
-575 48 0
575 -394 -48 0
-576 396 0
-576 38 0
576 -396 -38 0
-577 398 0
-577 48 0
577 -398 -48 0
-578 400 0
-578 43 0
578 -400 -43 0
-579 402 0
-579 43 0
579 -402 -43 0
-580 404 0
-580 38 0
580 -404 -38 0
-581 406 0
-581 48 0
581 -406 -48 0
-582 408 0
-582 38 0
582 -408 -38 0
-583 410 0
-583 48 0
583 -410 -48 0
-584 412 0
-584 43 0
584 -412 -43 0
-585 414 0
-585 43 0
585 -414 -43 0
-586 416 0
-586 86 0
586 -416 -86 0
-587 418 0
-587 86 0
587 -418 -86 0
-588 420 0
-588 91 0
588 -420 -91 0
-589 422 0
-589 134 0
589 -422 -134 0
-590 424 0
-590 182 0
590 -424 -182 0
-591 574 575 0
-591 -574 -575 0
591 -574 575 0
591 574 -575 0
-592 591 576 0
-592 -591 -576 0
592 -591 576 0
592 591 -576 0
-593 592 577 0
-593 -592 -577 0
593 -592 577 0
593 592 -577 0
-594 593 578 0
-594 -593 -578 0
594 -593 578 0
594 593 -578 0
-595 594 579 0
-595 -594 -579 0
595 -594 579 0
595 594 -579 0
-596 595 580 0
-596 -595 -580 0
596 -595 580 0
596 595 -580 0
-597 596 581 0
-597 -596 -581 0
597 -596 581 0
597 596 -581 0
-598 597 582 0
-598 -597 -582 0
598 -597 582 0
598 597 -582 0
-599 598 583 0
-599 -598 -583 0
599 -598 583 0
599 598 -583 0
-600 599 584 0
-600 -599 -584 0
600 -599 584 0
600 599 -584 0
-601 600 585 0
-601 -600 -585 0
601 -600 585 0
601 600 -585 0
-602 601 586 0
-602 -601 -586 0
602 -601 586 0
602 601 -586 0
-603 602 587 0
-603 -602 -587 0
603 -602 587 0
603 602 -587 0
-604 603 588 0
-604 -603 -588 0
604 -603 588 0
604 603 -588 0
-605 604 589 0
-605 -604 -589 0
605 -604 589 0
605 604 -589 0
-606 605 590 0
-606 -605 -590 0
606 -605 590 0
606 605 -590 0
-606 0
-607 392 0
-607 39 0
607 -392 -39 0
-608 394 0
-608 47 0
608 -394 -47 0
-609 396 0
-609 40 0
609 -396 -40 0
-610 398 0
-610 46 0
610 -398 -46 0
-611 400 0
-611 44 0
611 -400 -44 0
-612 402 0
-612 42 0
612 -402 -42 0
-613 404 0
-613 42 0
613 -404 -42 0
-614 406 0
-614 44 0
614 -406 -44 0
-615 408 0
-615 46 0
615 -408 -46 0
-616 410 0
-616 40 0
616 -410 -40 0
-617 412 0
-617 47 0
617 -412 -47 0
-618 414 0
-618 39 0
618 -414 -39 0
-619 416 0
-619 87 0
619 -416 -87 0
-620 418 0
-620 88 0
620 -418 -88 0
-621 420 0
-621 92 0
621 -420 -92 0
-622 422 0
-622 135 0
622 -422 -135 0
-623 424 0
-623 183 0
623 -424 -183 0
-624 607 608 0
-624 -607 -608 0
624 -607 608 0
624 607 -608 0
-625 624 609 0
-625 -624 -609 0
625 -624 609 0
625 624 -609 0
-626 625 610 0
-626 -625 -610 0
626 -625 610 0
626 625 -610 0
-627 626 611 0
-627 -626 -611 0
627 -626 611 0
627 626 -611 0
-628 627 612 0
-628 -627 -612 0
628 -627 612 0
628 627 -612 0
-629 628 613 0
-629 -628 -613 0
629 -628 613 0
629 628 -613 0
-630 629 614 0
-630 -629 -614 0
630 -629 614 0
630 629 -614 0
-631 630 615 0
-631 -630 -615 0
631 -630 615 0
631 630 -615 0
-632 631 616 0
-632 -631 -616 0
632 -631 616 0
632 631 -616 0
-633 632 617 0
-633 -632 -617 0
633 -632 617 0
633 632 -617 0
-634 633 618 0
-634 -633 -618 0
634 -633 618 0
634 633 -618 0
-635 634 619 0
-635 -634 -619 0
635 -634 619 0
635 634 -619 0
-636 635 620 0
-636 -635 -620 0
636 -635 620 0
636 635 -620 0
-637 636 621 0
-637 -636 -621 0
637 -636 621 0
637 636 -621 0
-638 637 622 0
-638 -637 -622 0
638 -637 622 0
638 637 -622 0
-639 638 623 0
-639 -638 -623 0
639 -638 623 0
639 638 -623 0
-639 0
-640 392 0
-640 40 0
640 -392 -40 0
-641 394 0
-641 46 0
641 -394 -46 0
-642 396 0
-642 39 0
642 -396 -39 0
-643 398 0
-643 47 0
643 -398 -47 0
-644 400 0
-644 42 0
644 -400 -42 0
-645 402 0
-645 44 0
645 -402 -44 0
-646 404 0
-646 46 0
646 -404 -46 0
-647 406 0
-647 40 0
647 -406 -40 0
-648 408 0
-648 42 0
648 -408 -42 0
-649 410 0
-649 44 0
649 -410 -44 0
-650 412 0
-650 39 0
650 -412 -39 0
-651 414 0
-651 47 0
651 -414 -47 0
-652 416 0
-652 88 0
652 -416 -88 0
-653 418 0
-653 87 0
653 -418 -87 0
-654 420 0
-654 90 0
654 -420 -90 0
-655 422 0
-655 136 0
655 -422 -136 0
-656 424 0
-656 184 0
656 -424 -184 0
-657 640 641 0
-657 -640 -641 0
657 -640 641 0
657 640 -641 0
-658 657 642 0
-658 -657 -642 0
658 -657 642 0
658 657 -642 0
-659 658 643 0
-659 -658 -643 0
659 -658 643 0
659 658 -643 0
-660 659 644 0
-660 -659 -644 0
660 -659 644 0
660 659 -644 0
-661 660 645 0
-661 -660 -645 0
661 -660 645 0
661 660 -645 0
-662 661 646 0
-662 -661 -646 0
662 -661 646 0
662 661 -646 0
-663 662 647 0
-663 -662 -647 0
663 -662 647 0
663 662 -647 0
-664 663 648 0
-664 -663 -648 0
664 -663 648 0
664 663 -648 0
-665 664 649 0
-665 -664 -649 0
665 -664 649 0
665 664 -649 0
-666 665 650 0
-666 -665 -650 0
666 -665 650 0
666 665 -650 0
-667 666 651 0
-667 -666 -651 0
667 -666 651 0
667 666 -651 0
-668 667 652 0
-668 -667 -652 0
668 -667 652 0
668 667 -652 0
-669 668 653 0
-669 -668 -653 0
669 -668 653 0
669 668 -653 0
-670 669 654 0
-670 -669 -654 0
670 -669 654 0
670 669 -654 0
-671 670 655 0
-671 -670 -655 0
671 -670 655 0
671 670 -655 0
-672 671 656 0
-672 -671 -656 0
672 -671 656 0
672 671 -656 0
-672 0
-673 392 0
-673 41 0
673 -392 -41 0
-674 394 0
-674 41 0
674 -394 -41 0
-675 396 0
-675 45 0
675 -396 -45 0
-676 398 0
-676 37 0
676 -398 -37 0
-677 400 0
-677 45 0
677 -400 -45 0
-678 402 0
-678 37 0
678 -402 -37 0
-679 404 0
-679 35 0
679 -404 -35 0
-680 406 0
-680 35 0
680 -406 -35 0
-681 408 0
-681 36 0
681 -408 -36 0
-682 410 0
-682 34 0
682 -410 -34 0
-683 412 0
-683 36 0
683 -412 -36 0
-684 414 0
-684 34 0
684 -414 -34 0
-685 416 0
-685 89 0
685 -416 -89 0
-686 418 0
-686 93 0
686 -418 -93 0
-687 420 0
-687 93 0
687 -420 -93 0
-688 422 0
-688 137 0
688 -422 -137 0
-689 424 0
-689 185 0
689 -424 -185 0
-690 673 674 0
-690 -673 -674 0
690 -673 674 0
690 673 -674 0
-691 690 675 0
-691 -690 -675 0
691 -690 675 0
691 690 -675 0
-692 691 676 0
-692 -691 -676 0
692 -691 676 0
692 691 -676 0
-693 692 677 0
-693 -692 -677 0
693 -692 677 0
693 692 -677 0
-694 693 678 0
-694 -693 -678 0
694 -693 678 0
694 693 -678 0
-695 694 679 0
-695 -694 -679 0
695 -694 679 0
695 694 -679 0
-696 695 680 0
-696 -695 -680 0
696 -695 680 0
696 695 -680 0
-697 696 681 0
-697 -696 -681 0
697 -696 681 0
697 696 -681 0
-698 697 682 0
-698 -697 -682 0
698 -697 682 0
698 697 -682 0
-699 698 683 0
-699 -698 -683 0
699 -698 683 0
699 698 -683 0
-700 699 684 0
-700 -699 -684 0
700 -699 684 0
700 699 -684 0
-701 700 685 0
-701 -700 -685 0
701 -700 685 0
701 700 -685 0
-702 701 686 0
-702 -701 -686 0
702 -701 686 0
702 701 -686 0
-703 702 687 0
-703 -702 -687 0
703 -702 687 0
703 702 -687 0
-704 703 688 0
-704 -703 -688 0
704 -703 688 0
704 703 -688 0
-705 704 689 0
-705 -704 -689 0
705 -704 689 0
705 704 -689 0
-705 0
-706 392 0
-706 42 0
706 -392 -42 0
-707 394 0
-707 44 0
707 -394 -44 0
-708 396 0
-708 46 0
708 -396 -46 0
-709 398 0
-709 40 0
709 -398 -40 0
-710 400 0
-710 47 0
710 -400 -47 0
-711 402 0
-711 39 0
711 -402 -39 0
-712 404 0
-712 39 0
712 -404 -39 0
-713 406 0
-713 47 0
713 -406 -47 0
-714 408 0
-714 40 0
714 -408 -40 0
-715 410 0
-715 46 0
715 -410 -46 0
-716 412 0
-716 44 0
716 -412 -44 0
-717 414 0
-717 42 0
717 -414 -42 0
-718 416 0
-718 90 0
718 -416 -90 0
-719 418 0
-719 94 0
719 -418 -94 0
-720 420 0
-720 95 0
720 -420 -95 0
-721 422 0
-721 138 0
721 -422 -138 0
-722 424 0
-722 186 0
722 -424 -186 0
-723 706 707 0
-723 -706 -707 0
723 -706 707 0
723 706 -707 0
-724 723 708 0
-724 -723 -708 0
724 -723 708 0
724 723 -708 0
-725 724 709 0
-725 -724 -709 0
725 -724 709 0
725 724 -709 0
-726 725 710 0
-726 -725 -710 0
726 -725 710 0
726 725 -710 0
-727 726 711 0
-727 -726 -711 0
727 -726 711 0
727 726 -711 0
-728 727 712 0
-728 -727 -712 0
728 -727 712 0
728 727 -712 0
-729 728 713 0
-729 -728 -713 0
729 -728 713 0
729 728 -713 0
-730 729 714 0
-730 -729 -714 0
730 -729 714 0
730 729 -714 0
-731 730 715 0
-731 -730 -715 0
731 -730 715 0
731 730 -715 0
-732 731 716 0
-732 -731 -716 0
732 -731 716 0
732 731 -716 0
-733 732 717 0
-733 -732 -717 0
733 -732 717 0
733 732 -717 0
-734 733 718 0
-734 -733 -718 0
734 -733 718 0
734 733 -718 0
-735 734 719 0
-735 -734 -719 0
735 -734 719 0
735 734 -719 0
-736 735 720 0
-736 -735 -720 0
736 -735 720 0
736 735 -720 0
-737 736 721 0
-737 -736 -721 0
737 -736 721 0
737 736 -721 0
-738 737 722 0
-738 -737 -722 0
738 -737 722 0
738 737 -722 0
-738 0
-739 392 0
-739 43 0
739 -392 -43 0
-740 394 0
-740 43 0
740 -394 -43 0
-741 396 0
-741 48 0
741 -396 -48 0
-742 398 0
-742 38 0
742 -398 -38 0
-743 400 0
-743 48 0
743 -400 -48 0
-744 402 0
-744 38 0
744 -402 -38 0
-745 404 0
-745 43 0
745 -404 -43 0
-746 406 0
-746 43 0
746 -406 -43 0
-747 408 0
-747 48 0
747 -408 -48 0
-748 410 0
-748 38 0
748 -410 -38 0
-749 412 0
-749 48 0
749 -412 -48 0
-750 414 0
-750 38 0
750 -414 -38 0
-751 416 0
-751 91 0
751 -416 -91 0
-752 418 0
-752 96 0
752 -418 -96 0
-753 420 0
-753 96 0
753 -420 -96 0
-754 422 0
-754 139 0
754 -422 -139 0
-755 424 0
-755 187 0
755 -424 -187 0
-756 739 740 0
-756 -739 -740 0
756 -739 740 0
756 739 -740 0
-757 756 741 0
-757 -756 -741 0
757 -756 741 0
757 756 -741 0
-758 757 742 0
-758 -757 -742 0
758 -757 742 0
758 757 -742 0
-759 758 743 0
-759 -758 -743 0
759 -758 743 0
759 758 -743 0
-760 759 744 0
-760 -759 -744 0
760 -759 744 0
760 759 -744 0
-761 760 745 0
-761 -760 -745 0
761 -760 745 0
761 760 -745 0
-762 761 746 0
-762 -761 -746 0
762 -761 746 0
762 761 -746 0
-763 762 747 0
-763 -762 -747 0
763 -762 747 0
763 762 -747 0
-764 763 748 0
-764 -763 -748 0
764 -763 748 0
764 763 -748 0
-765 764 749 0
-765 -764 -749 0
765 -764 749 0
765 764 -749 0
-766 765 750 0
-766 -765 -750 0
766 -765 750 0
766 765 -750 0
-767 766 751 0
-767 -766 -751 0
767 -766 751 0
767 766 -751 0
-768 767 752 0
-768 -767 -752 0
768 -767 752 0
768 767 -752 0
-769 768 753 0
-769 -768 -753 0
769 -768 753 0
769 768 -753 0
-770 769 754 0
-770 -769 -754 0
770 -769 754 0
770 769 -754 0
-771 770 755 0
-771 -770 -755 0
771 -770 755 0
771 770 -755 0
-771 0
-772 392 0
-772 44 0
772 -392 -44 0
-773 394 0
-773 42 0
773 -394 -42 0
-774 396 0
-774 47 0
774 -396 -47 0
-775 398 0
-775 39 0
775 -398 -39 0
-776 400 0
-776 46 0
776 -400 -46 0
-777 402 0
-777 40 0
777 -402 -40 0
-778 404 0
-778 47 0
778 -404 -47 0
-779 406 0
-779 39 0
779 -406 -39 0
-780 408 0
-780 44 0
780 -408 -44 0
-781 410 0
-781 42 0
781 -410 -42 0
-782 412 0
-782 40 0
782 -412 -40 0
-783 414 0
-783 46 0
783 -414 -46 0
-784 416 0
-784 92 0
784 -416 -92 0
-785 418 0
-785 95 0
785 -418 -95 0
-786 420 0
-786 94 0
786 -420 -94 0
-787 422 0
-787 140 0
787 -422 -140 0
-788 424 0
-788 188 0
788 -424 -188 0
-789 772 773 0
-789 -772 -773 0
789 -772 773 0
789 772 -773 0
-790 789 774 0
-790 -789 -774 0
790 -789 774 0
790 789 -774 0
-791 790 775 0
-791 -790 -775 0
791 -790 775 0
791 790 -775 0
-792 791 776 0
-792 -791 -776 0
792 -791 776 0
792 791 -776 0
-793 792 777 0
-793 -792 -777 0
793 -792 777 0
793 792 -777 0
-794 793 778 0
-794 -793 -778 0
794 -793 778 0
794 793 -778 0
-795 794 779 0
-795 -794 -779 0
795 -794 779 0
795 794 -779 0
-796 795 780 0
-796 -795 -780 0
796 -795 780 0
796 795 -780 0
-797 796 781 0
-797 -796 -781 0
797 -796 781 0
797 796 -781 0
-798 797 782 0
-798 -797 -782 0
798 -797 782 0
798 797 -782 0
-799 798 783 0
-799 -798 -783 0
799 -798 783 0
799 798 -783 0
-800 799 784 0
-800 -799 -784 0
800 -799 784 0
800 799 -784 0
-801 800 785 0
-801 -800 -785 0
801 -800 785 0
801 800 -785 0
-802 801 786 0
-802 -801 -786 0
802 -801 786 0
802 801 -786 0
-803 802 787 0
-803 -802 -787 0
803 -802 787 0
803 802 -787 0
-804 803 788 0
-804 -803 -788 0
804 -803 788 0
804 803 -788 0
-804 0
-805 392 0
-805 45 0
805 -392 -45 0
-806 394 0
-806 37 0
806 -394 -37 0
-807 396 0
-807 41 0
807 -396 -41 0
-808 398 0
-808 41 0
808 -398 -41 0
-809 400 0
-809 37 0
809 -400 -37 0
-810 402 0
-810 45 0
810 -402 -45 0
-811 404 0
-811 36 0
811 -404 -36 0
-812 406 0
-812 34 0
812 -406 -34 0
-813 408 0
-813 35 0
813 -408 -35 0
-814 410 0
-814 35 0
814 -410 -35 0
-815 412 0
-815 34 0
815 -412 -34 0
-816 414 0
-816 36 0
816 -414 -36 0
-817 416 0
-817 93 0
817 -416 -93 0
-818 418 0
-818 89 0
818 -418 -89 0
-819 420 0
-819 85 0
819 -420 -85 0
-820 422 0
-820 141 0
820 -422 -141 0
-821 424 0
-821 189 0
821 -424 -189 0
-822 805 806 0
-822 -805 -806 0
822 -805 806 0
822 805 -806 0
-823 822 807 0
-823 -822 -807 0
823 -822 807 0
823 822 -807 0
-824 823 808 0
-824 -823 -808 0
824 -823 808 0
824 823 -808 0
-825 824 809 0
-825 -824 -809 0
825 -824 809 0
825 824 -809 0
-826 825 810 0
-826 -825 -810 0
826 -825 810 0
826 825 -810 0
-827 826 811 0
-827 -826 -811 0
827 -826 811 0
827 826 -811 0
-828 827 812 0
-828 -827 -812 0
828 -827 812 0
828 827 -812 0
-829 828 813 0
-829 -828 -813 0
829 -828 813 0
829 828 -813 0
-830 829 814 0
-830 -829 -814 0
830 -829 814 0
830 829 -814 0
-831 830 815 0
-831 -830 -815 0
831 -830 815 0
831 830 -815 0
-832 831 816 0
-832 -831 -816 0
832 -831 816 0
832 831 -816 0
-833 832 817 0
-833 -832 -817 0
833 -832 817 0
833 832 -817 0
-834 833 818 0
-834 -833 -818 0
834 -833 818 0
834 833 -818 0
-835 834 819 0
-835 -834 -819 0
835 -834 819 0
835 834 -819 0
-836 835 820 0
-836 -835 -820 0
836 -835 820 0
836 835 -820 0
-837 836 821 0
-837 -836 -821 0
837 -836 821 0
837 836 -821 0
-837 0
-838 392 0
-838 46 0
838 -392 -46 0
-839 394 0
-839 40 0
839 -394 -40 0
-840 396 0
-840 42 0
840 -396 -42 0
-841 398 0
-841 44 0
841 -398 -44 0
-842 400 0
-842 39 0
842 -400 -39 0
-843 402 0
-843 47 0
843 -402 -47 0
-844 404 0
-844 40 0
844 -404 -40 0
-845 406 0
-845 46 0
845 -406 -46 0
-846 408 0
-846 39 0
846 -408 -39 0
-847 410 0
-847 47 0
847 -410 -47 0
-848 412 0
-848 42 0
848 -412 -42 0
-849 414 0
-849 44 0
849 -414 -44 0
-850 416 0
-850 94 0
850 -416 -94 0
-851 418 0
-851 90 0
851 -418 -90 0
-852 420 0
-852 87 0
852 -420 -87 0
-853 422 0
-853 142 0
853 -422 -142 0
-854 424 0
-854 190 0
854 -424 -190 0
-855 838 839 0
-855 -838 -839 0
855 -838 839 0
855 838 -839 0
-856 855 840 0
-856 -855 -840 0
856 -855 840 0
856 855 -840 0
-857 856 841 0
-857 -856 -841 0
857 -856 841 0
857 856 -841 0
-858 857 842 0
-858 -857 -842 0
858 -857 842 0
858 857 -842 0
-859 858 843 0
-859 -858 -843 0
859 -858 843 0
859 858 -843 0
-860 859 844 0
-860 -859 -844 0
860 -859 844 0
860 859 -844 0
-861 860 845 0
-861 -860 -845 0
861 -860 845 0
861 860 -845 0
-862 861 846 0
-862 -861 -846 0
862 -861 846 0
862 861 -846 0
-863 862 847 0
-863 -862 -847 0
863 -862 847 0
863 862 -847 0
-864 863 848 0
-864 -863 -848 0
864 -863 848 0
864 863 -848 0
-865 864 849 0
-865 -864 -849 0
865 -864 849 0
865 864 -849 0
-866 865 850 0
-866 -865 -850 0
866 -865 850 0
866 865 -850 0
-867 866 851 0
-867 -866 -851 0
867 -866 851 0
867 866 -851 0
-868 867 852 0
-868 -867 -852 0
868 -867 852 0
868 867 -852 0
-869 868 853 0
-869 -868 -853 0
869 -868 853 0
869 868 -853 0
-870 869 854 0
-870 -869 -854 0
870 -869 854 0
870 869 -854 0
-870 0
-871 392 0
-871 47 0
871 -392 -47 0
-872 394 0
-872 39 0
872 -394 -39 0
-873 396 0
-873 44 0
873 -396 -44 0
-874 398 0
-874 42 0
874 -398 -42 0
-875 400 0
-875 40 0
875 -400 -40 0
-876 402 0
-876 46 0
876 -402 -46 0
-877 404 0
-877 44 0
877 -404 -44 0
-878 406 0
-878 42 0
878 -406 -42 0
-879 408 0
-879 47 0
879 -408 -47 0
-880 410 0
-880 39 0
880 -410 -39 0
-881 412 0
-881 46 0
881 -412 -46 0
-882 414 0
-882 40 0
882 -414 -40 0
-883 416 0
-883 95 0
883 -416 -95 0
-884 418 0
-884 92 0
884 -418 -92 0
-885 420 0
-885 88 0
885 -420 -88 0
-886 422 0
-886 143 0
886 -422 -143 0
-887 424 0
-887 191 0
887 -424 -191 0
-888 871 872 0
-888 -871 -872 0
888 -871 872 0
888 871 -872 0
-889 888 873 0
-889 -888 -873 0
889 -888 873 0
889 888 -873 0
-890 889 874 0
-890 -889 -874 0
890 -889 874 0
890 889 -874 0
-891 890 875 0
-891 -890 -875 0
891 -890 875 0
891 890 -875 0
-892 891 876 0
-892 -891 -876 0
892 -891 876 0
892 891 -876 0
-893 892 877 0
-893 -892 -877 0
893 -892 877 0
893 892 -877 0
-894 893 878 0
-894 -893 -878 0
894 -893 878 0
894 893 -878 0
-895 894 879 0
-895 -894 -879 0
895 -894 879 0
895 894 -879 0
-896 895 880 0
-896 -895 -880 0
896 -895 880 0
896 895 -880 0
-897 896 881 0
-897 -896 -881 0
897 -896 881 0
897 896 -881 0
-898 897 882 0
-898 -897 -882 0
898 -897 882 0
898 897 -882 0
-899 898 883 0
-899 -898 -883 0
899 -898 883 0
899 898 -883 0
-900 899 884 0
-900 -899 -884 0
900 -899 884 0
900 899 -884 0
-901 900 885 0
-901 -900 -885 0
901 -900 885 0
901 900 -885 0
-902 901 886 0
-902 -901 -886 0
902 -901 886 0
902 901 -886 0
-903 902 887 0
-903 -902 -887 0
903 -902 887 0
903 902 -887 0
-903 0
-904 392 0
-904 48 0
904 -392 -48 0
-905 394 0
-905 38 0
905 -394 -38 0
-906 396 0
-906 43 0
906 -396 -43 0
-907 398 0
-907 43 0
907 -398 -43 0
-908 400 0
-908 38 0
908 -400 -38 0
-909 402 0
-909 48 0
909 -402 -48 0
-910 404 0
-910 48 0
910 -404 -48 0
-911 406 0
-911 38 0
911 -406 -38 0
-912 408 0
-912 43 0
912 -408 -43 0
-913 410 0
-913 43 0
913 -410 -43 0
-914 412 0
-914 38 0
914 -412 -38 0
-915 414 0
-915 48 0
915 -414 -48 0
-916 416 0
-916 96 0
916 -416 -96 0
-917 418 0
-917 91 0
917 -418 -91 0
-918 420 0
-918 86 0
918 -420 -86 0
-919 422 0
-919 144 0
919 -422 -144 0
-920 424 0
-920 192 0
920 -424 -192 0
-921 904 905 0
-921 -904 -905 0
921 -904 905 0
921 904 -905 0
-922 921 906 0
-922 -921 -906 0
922 -921 906 0
922 921 -906 0
-923 922 907 0
-923 -922 -907 0
923 -922 907 0
923 922 -907 0
-924 923 908 0
-924 -923 -908 0
924 -923 908 0
924 923 -908 0
-925 924 909 0
-925 -924 -909 0
925 -924 909 0
925 924 -909 0
-926 925 910 0
-926 -925 -910 0
926 -925 910 0
926 925 -910 0
-927 926 911 0
-927 -926 -911 0
927 -926 911 0
927 926 -911 0
-928 927 912 0
-928 -927 -912 0
928 -927 912 0
928 927 -912 0
-929 928 913 0
-929 -928 -913 0
929 -928 913 0
929 928 -913 0
-930 929 914 0
-930 -929 -914 0
930 -929 914 0
930 929 -914 0
-931 930 915 0
-931 -930 -915 0
931 -930 915 0
931 930 -915 0
-932 931 916 0
-932 -931 -916 0
932 -931 916 0
932 931 -916 0
-933 932 917 0
-933 -932 -917 0
933 -932 917 0
933 932 -917 0
-934 933 918 0
-934 -933 -918 0
934 -933 918 0
934 933 -918 0
-935 934 919 0
-935 -934 -919 0
935 -934 919 0
935 934 -919 0
-936 935 920 0
-936 -935 -920 0
936 -935 920 0
936 935 -920 0
-936 0
-937 1 0
-937 19 0
937 -1 -19 0
-938 937 0
-938 33 0
938 -937 -33 0
-939 2 0
-939 24 0
939 -2 -24 0
-940 939 0
-940 33 0
940 -939 -33 0
-941 3 0
-941 26 0
941 -3 -26 0
-942 941 0
-942 33 0
942 -941 -33 0
-943 17 0
-943 9 0
943 -17 -9 0
-944 943 0
-944 33 0
944 -943 -33 0
-945 21 0
-945 14 0
945 -21 -14 0
-946 945 0
-946 33 0
946 -945 -33 0
-947 25 0
-947 7 0
947 -25 -7 0
-948 947 0
-948 33 0
948 -947 -33 0
-949 49 0
-949 67 0
949 -49 -67 0
-950 949 0
-950 81 0
950 -949 -81 0
-951 50 0
-951 72 0
951 -50 -72 0
-952 951 0
-952 81 0
952 -951 -81 0
-953 97 0
-953 115 0
953 -97 -115 0
-954 953 0
-954 129 0
954 -953 -129 0
-955 145 0
-955 163 0
955 -145 -163 0
-956 955 0
-956 177 0
956 -955 -177 0
-957 938 938 0
-957 -938 -938 0
957 -938 938 0
957 938 -938 0
-958 957 940 0
-958 -957 -940 0
958 -957 940 0
958 957 -940 0
-959 958 942 0
-959 -958 -942 0
959 -958 942 0
959 958 -942 0
-960 959 940 0
-960 -959 -940 0
960 -959 940 0
960 959 -940 0
-961 960 942 0
-961 -960 -942 0
961 -960 942 0
961 960 -942 0
-962 961 944 0
-962 -961 -944 0
962 -961 944 0
962 961 -944 0
-963 962 944 0
-963 -962 -944 0
963 -962 944 0
963 962 -944 0
-964 963 946 0
-964 -963 -946 0
964 -963 946 0
964 963 -946 0
-965 964 948 0
-965 -964 -948 0
965 -964 948 0
965 964 -948 0
-966 965 946 0
-966 -965 -946 0
966 -965 946 0
966 965 -946 0
-967 966 948 0
-967 -966 -948 0
967 -966 948 0
967 966 -948 0
-968 967 950 0
-968 -967 -950 0
968 -967 950 0
968 967 -950 0
-969 968 952 0
-969 -968 -952 0
969 -968 952 0
969 968 -952 0
-970 969 952 0
-970 -969 -952 0
970 -969 952 0
970 969 -952 0
-971 970 954 0
-971 -970 -954 0
971 -970 954 0
971 970 -954 0
-972 971 956 0
-972 -971 -956 0
972 -971 956 0
972 971 -956 0
-972 0
-973 937 0
-973 34 0
973 -937 -34 0
-974 937 0
-974 36 0
974 -937 -36 0
-975 939 0
-975 34 0
975 -939 -34 0
-976 941 0
-976 36 0
976 -941 -36 0
-977 939 0
-977 35 0
977 -939 -35 0
-978 941 0
-978 35 0
978 -941 -35 0
-979 943 0
-979 37 0
979 -943 -37 0
-980 943 0
-980 45 0
980 -943 -45 0
-981 945 0
-981 37 0
981 -945 -37 0
-982 947 0
-982 45 0
982 -947 -45 0
-983 945 0
-983 41 0
983 -945 -41 0
-984 947 0
-984 41 0
984 -947 -41 0
-985 949 0
-985 82 0
985 -949 -82 0
-986 951 0
-986 82 0
986 -951 -82 0
-987 951 0
-987 83 0
987 -951 -83 0
-988 953 0
-988 130 0
988 -953 -130 0
-989 955 0
-989 178 0
989 -955 -178 0
-990 973 974 0
-990 -973 -974 0
990 -973 974 0
990 973 -974 0
-991 990 975 0
-991 -990 -975 0
991 -990 975 0
991 990 -975 0
-992 991 976 0
-992 -991 -976 0
992 -991 976 0
992 991 -976 0
-993 992 977 0
-993 -992 -977 0
993 -992 977 0
993 992 -977 0
-994 993 978 0
-994 -993 -978 0
994 -993 978 0
994 993 -978 0
-995 994 979 0
-995 -994 -979 0
995 -994 979 0
995 994 -979 0
-996 995 980 0
-996 -995 -980 0
996 -995 980 0
996 995 -980 0
-997 996 981 0
-997 -996 -981 0
997 -996 981 0
997 996 -981 0
-998 997 982 0
-998 -997 -982 0
998 -997 982 0
998 997 -982 0
-999 998 983 0
-999 -998 -983 0
999 -998 983 0
999 998 -983 0
-1000 999 984 0
-1000 -999 -984 0
1000 -999 984 0
1000 999 -984 0
-1001 1000 985 0
-1001 -1000 -985 0
1001 -1000 985 0
1001 1000 -985 0
-1002 1001 986 0
-1002 -1001 -986 0
1002 -1001 986 0
1002 1001 -986 0
-1003 1002 987 0
-1003 -1002 -987 0
1003 -1002 987 0
1003 1002 -987 0
-1004 1003 988 0
-1004 -1003 -988 0
1004 -1003 988 0
1004 1003 -988 0
-1005 1004 989 0
-1005 -1004 -989 0
1005 -1004 989 0
1005 1004 -989 0
-1005 0
-1006 937 0
-1006 35 0
1006 -937 -35 0
-1007 939 0
-1007 36 0
1007 -939 -36 0
-1008 941 0
-1008 34 0
1008 -941 -34 0
-1009 943 0
-1009 41 0
1009 -943 -41 0
-1010 945 0
-1010 45 0
1010 -945 -45 0
-1011 947 0
-1011 37 0
1011 -947 -37 0
-1012 949 0
-1012 83 0
1012 -949 -83 0
-1013 951 0
-1013 84 0
1013 -951 -84 0
-1014 953 0
-1014 131 0
1014 -953 -131 0
-1015 955 0
-1015 179 0
1015 -955 -179 0
-1016 1006 1006 0
-1016 -1006 -1006 0
1016 -1006 1006 0
1016 1006 -1006 0
-1017 1016 1007 0
-1017 -1016 -1007 0
1017 -1016 1007 0
1017 1016 -1007 0
-1018 1017 1008 0
-1018 -1017 -1008 0
1018 -1017 1008 0
1018 1017 -1008 0
-1019 1018 1007 0
-1019 -1018 -1007 0
1019 -1018 1007 0
1019 1018 -1007 0
-1020 1019 1008 0
-1020 -1019 -1008 0
1020 -1019 1008 0
1020 1019 -1008 0
-1021 1020 1009 0
-1021 -1020 -1009 0
1021 -1020 1009 0
1021 1020 -1009 0
-1022 1021 1009 0
-1022 -1021 -1009 0
1022 -1021 1009 0
1022 1021 -1009 0
-1023 1022 1010 0
-1023 -1022 -1010 0
1023 -1022 1010 0
1023 1022 -1010 0
-1024 1023 1011 0
-1024 -1023 -1011 0
1024 -1023 1011 0
1024 1023 -1011 0
-1025 1024 1010 0
-1025 -1024 -1010 0
1025 -1024 1010 0
1025 1024 -1010 0
-1026 1025 1011 0
-1026 -1025 -1011 0
1026 -1025 1011 0
1026 1025 -1011 0
-1027 1026 1012 0
-1027 -1026 -1012 0
1027 -1026 1012 0
1027 1026 -1012 0
-1028 1027 1013 0
-1028 -1027 -1013 0
1028 -1027 1013 0
1028 1027 -1013 0
-1029 1028 1013 0
-1029 -1028 -1013 0
1029 -1028 1013 0
1029 1028 -1013 0
-1030 1029 1014 0
-1030 -1029 -1014 0
1030 -1029 1014 0
1030 1029 -1014 0
-1031 1030 1015 0
-1031 -1030 -1015 0
1031 -1030 1015 0
1031 1030 -1015 0
-1031 0
-1032 937 0
-1032 37 0
1032 -937 -37 0
-1033 937 0
-1033 45 0
1033 -937 -45 0
-1034 939 0
-1034 37 0
1034 -939 -37 0
-1035 941 0
-1035 45 0
1035 -941 -45 0
-1036 939 0
-1036 41 0
1036 -939 -41 0
-1037 941 0
-1037 41 0
1037 -941 -41 0
-1038 943 0
-1038 34 0
1038 -943 -34 0
-1039 943 0
-1039 36 0
1039 -943 -36 0
-1040 945 0
-1040 34 0
1040 -945 -34 0
-1041 947 0
-1041 36 0
1041 -947 -36 0
-1042 945 0
-1042 35 0
1042 -945 -35 0
-1043 947 0
-1043 35 0
1043 -947 -35 0
-1044 949 0
-1044 85 0
1044 -949 -85 0
-1045 951 0
-1045 85 0
1045 -951 -85 0
-1046 951 0
-1046 89 0
1046 -951 -89 0
-1047 953 0
-1047 133 0
1047 -953 -133 0
-1048 955 0
-1048 181 0
1048 -955 -181 0
-1049 1032 1033 0
-1049 -1032 -1033 0
1049 -1032 1033 0
1049 1032 -1033 0
-1050 1049 1034 0
-1050 -1049 -1034 0
1050 -1049 1034 0
1050 1049 -1034 0
-1051 1050 1035 0
-1051 -1050 -1035 0
1051 -1050 1035 0
1051 1050 -1035 0
-1052 1051 1036 0
-1052 -1051 -1036 0
1052 -1051 1036 0
1052 1051 -1036 0
-1053 1052 1037 0
-1053 -1052 -1037 0
1053 -1052 1037 0
1053 1052 -1037 0
-1054 1053 1038 0
-1054 -1053 -1038 0
1054 -1053 1038 0
1054 1053 -1038 0
-1055 1054 1039 0
-1055 -1054 -1039 0
1055 -1054 1039 0
1055 1054 -1039 0
-1056 1055 1040 0
-1056 -1055 -1040 0
1056 -1055 1040 0
1056 1055 -1040 0
-1057 1056 1041 0
-1057 -1056 -1041 0
1057 -1056 1041 0
1057 1056 -1041 0
-1058 1057 1042 0
-1058 -1057 -1042 0
1058 -1057 1042 0
1058 1057 -1042 0
-1059 1058 1043 0
-1059 -1058 -1043 0
1059 -1058 1043 0
1059 1058 -1043 0
-1060 1059 1044 0
-1060 -1059 -1044 0
1060 -1059 1044 0
1060 1059 -1044 0
-1061 1060 1045 0
-1061 -1060 -1045 0
1061 -1060 1045 0
1061 1060 -1045 0
-1062 1061 1046 0
-1062 -1061 -1046 0
1062 -1061 1046 0
1062 1061 -1046 0
-1063 1062 1047 0
-1063 -1062 -1047 0
1063 -1062 1047 0
1063 1062 -1047 0
-1064 1063 1048 0
-1064 -1063 -1048 0
1064 -1063 1048 0
1064 1063 -1048 0
-1064 0
-1065 937 0
-1065 38 0
1065 -937 -38 0
-1066 937 0
-1066 48 0
1066 -937 -48 0
-1067 939 0
-1067 38 0
1067 -939 -38 0
-1068 941 0
-1068 48 0
1068 -941 -48 0
-1069 939 0
-1069 43 0
1069 -939 -43 0
-1070 941 0
-1070 43 0
1070 -941 -43 0
-1071 943 0
-1071 38 0
1071 -943 -38 0
-1072 943 0
-1072 48 0
1072 -943 -48 0
-1073 945 0
-1073 38 0
1073 -945 -38 0
-1074 947 0
-1074 48 0
1074 -947 -48 0
-1075 945 0
-1075 43 0
1075 -945 -43 0
-1076 947 0
-1076 43 0
1076 -947 -43 0
-1077 949 0
-1077 86 0
1077 -949 -86 0
-1078 951 0
-1078 86 0
1078 -951 -86 0
-1079 951 0
-1079 91 0
1079 -951 -91 0
-1080 953 0
-1080 134 0
1080 -953 -134 0
-1081 955 0
-1081 182 0
1081 -955 -182 0
-1082 1065 1066 0
-1082 -1065 -1066 0
1082 -1065 1066 0
1082 1065 -1066 0
-1083 1082 1067 0
-1083 -1082 -1067 0
1083 -1082 1067 0
1083 1082 -1067 0
-1084 1083 1068 0
-1084 -1083 -1068 0
1084 -1083 1068 0
1084 1083 -1068 0
-1085 1084 1069 0
-1085 -1084 -1069 0
1085 -1084 1069 0
1085 1084 -1069 0
-1086 1085 1070 0
-1086 -1085 -1070 0
1086 -1085 1070 0
1086 1085 -1070 0
-1087 1086 1071 0
-1087 -1086 -1071 0
1087 -1086 1071 0
1087 1086 -1071 0
-1088 1087 1072 0
-1088 -1087 -1072 0
1088 -1087 1072 0
1088 1087 -1072 0
-1089 1088 1073 0
-1089 -1088 -1073 0
1089 -1088 1073 0
1089 1088 -1073 0
-1090 1089 1074 0
-1090 -1089 -1074 0
1090 -1089 1074 0
1090 1089 -1074 0
-1091 1090 1075 0
-1091 -1090 -1075 0
1091 -1090 1075 0
1091 1090 -1075 0
-1092 1091 1076 0
-1092 -1091 -1076 0
1092 -1091 1076 0
1092 1091 -1076 0
-1093 1092 1077 0
-1093 -1092 -1077 0
1093 -1092 1077 0
1093 1092 -1077 0
-1094 1093 1078 0
-1094 -1093 -1078 0
1094 -1093 1078 0
1094 1093 -1078 0
-1095 1094 1079 0
-1095 -1094 -1079 0
1095 -1094 1079 0
1095 1094 -1079 0
-1096 1095 1080 0
-1096 -1095 -1080 0
1096 -1095 1080 0
1096 1095 -1080 0
-1097 1096 1081 0
-1097 -1096 -1081 0
1097 -1096 1081 0
1097 1096 -1081 0
-1097 0
-1098 937 0
-1098 39 0
1098 -937 -39 0
-1099 937 0
-1099 47 0
1099 -937 -47 0
-1100 939 0
-1100 40 0
1100 -939 -40 0
-1101 941 0
-1101 46 0
1101 -941 -46 0
-1102 939 0
-1102 44 0
1102 -939 -44 0
-1103 941 0
-1103 42 0
1103 -941 -42 0
-1104 943 0
-1104 42 0
1104 -943 -42 0
-1105 943 0
-1105 44 0
1105 -943 -44 0
-1106 945 0
-1106 46 0
1106 -945 -46 0
-1107 947 0
-1107 40 0
1107 -947 -40 0
-1108 945 0
-1108 47 0
1108 -945 -47 0
-1109 947 0
-1109 39 0
1109 -947 -39 0
-1110 949 0
-1110 87 0
1110 -949 -87 0
-1111 951 0
-1111 88 0
1111 -951 -88 0
-1112 951 0
-1112 92 0
1112 -951 -92 0
-1113 953 0
-1113 135 0
1113 -953 -135 0
-1114 955 0
-1114 183 0
1114 -955 -183 0
-1115 1098 1099 0
-1115 -1098 -1099 0
1115 -1098 1099 0
1115 1098 -1099 0
-1116 1115 1100 0
-1116 -1115 -1100 0
1116 -1115 1100 0
1116 1115 -1100 0
-1117 1116 1101 0
-1117 -1116 -1101 0
1117 -1116 1101 0
1117 1116 -1101 0
-1118 1117 1102 0
-1118 -1117 -1102 0
1118 -1117 1102 0
1118 1117 -1102 0
-1119 1118 1103 0
-1119 -1118 -1103 0
1119 -1118 1103 0
1119 1118 -1103 0
-1120 1119 1104 0
-1120 -1119 -1104 0
1120 -1119 1104 0
1120 1119 -1104 0
-1121 1120 1105 0
-1121 -1120 -1105 0
1121 -1120 1105 0
1121 1120 -1105 0
-1122 1121 1106 0
-1122 -1121 -1106 0
1122 -1121 1106 0
1122 1121 -1106 0
-1123 1122 1107 0
-1123 -1122 -1107 0
1123 -1122 1107 0
1123 1122 -1107 0
-1124 1123 1108 0
-1124 -1123 -1108 0
1124 -1123 1108 0
1124 1123 -1108 0
-1125 1124 1109 0
-1125 -1124 -1109 0
1125 -1124 1109 0
1125 1124 -1109 0
-1126 1125 1110 0
-1126 -1125 -1110 0
1126 -1125 1110 0
1126 1125 -1110 0
-1127 1126 1111 0
-1127 -1126 -1111 0
1127 -1126 1111 0
1127 1126 -1111 0
-1128 1127 1112 0
-1128 -1127 -1112 0
1128 -1127 1112 0
1128 1127 -1112 0
-1129 1128 1113 0
-1129 -1128 -1113 0
1129 -1128 1113 0
1129 1128 -1113 0
-1130 1129 1114 0
-1130 -1129 -1114 0
1130 -1129 1114 0
1130 1129 -1114 0
-1130 0
-1131 937 0
-1131 40 0
1131 -937 -40 0
-1132 937 0
-1132 46 0
1132 -937 -46 0
-1133 939 0
-1133 39 0
1133 -939 -39 0
-1134 941 0
-1134 47 0
1134 -941 -47 0
-1135 939 0
-1135 42 0
1135 -939 -42 0
-1136 941 0
-1136 44 0
1136 -941 -44 0
-1137 943 0
-1137 46 0
1137 -943 -46 0
-1138 943 0
-1138 40 0
1138 -943 -40 0
-1139 945 0
-1139 42 0
1139 -945 -42 0
-1140 947 0
-1140 44 0
1140 -947 -44 0
-1141 945 0
-1141 39 0
1141 -945 -39 0
-1142 947 0
-1142 47 0
1142 -947 -47 0
-1143 949 0
-1143 88 0
1143 -949 -88 0
-1144 951 0
-1144 87 0
1144 -951 -87 0
-1145 951 0
-1145 90 0
1145 -951 -90 0
-1146 953 0
-1146 136 0
1146 -953 -136 0
-1147 955 0
-1147 184 0
1147 -955 -184 0
-1148 1131 1132 0
-1148 -1131 -1132 0
1148 -1131 1132 0
1148 1131 -1132 0
-1149 1148 1133 0
-1149 -1148 -1133 0
1149 -1148 1133 0
1149 1148 -1133 0
-1150 1149 1134 0
-1150 -1149 -1134 0
1150 -1149 1134 0
1150 1149 -1134 0
-1151 1150 1135 0
-1151 -1150 -1135 0
1151 -1150 1135 0
1151 1150 -1135 0
-1152 1151 1136 0
-1152 -1151 -1136 0
1152 -1151 1136 0
1152 1151 -1136 0
-1153 1152 1137 0
-1153 -1152 -1137 0
1153 -1152 1137 0
1153 1152 -1137 0
-1154 1153 1138 0
-1154 -1153 -1138 0
1154 -1153 1138 0
1154 1153 -1138 0
-1155 1154 1139 0
-1155 -1154 -1139 0
1155 -1154 1139 0
1155 1154 -1139 0
-1156 1155 1140 0
-1156 -1155 -1140 0
1156 -1155 1140 0
1156 1155 -1140 0
-1157 1156 1141 0
-1157 -1156 -1141 0
1157 -1156 1141 0
1157 1156 -1141 0
-1158 1157 1142 0
-1158 -1157 -1142 0
1158 -1157 1142 0
1158 1157 -1142 0
-1159 1158 1143 0
-1159 -1158 -1143 0
1159 -1158 1143 0
1159 1158 -1143 0
-1160 1159 1144 0
-1160 -1159 -1144 0
1160 -1159 1144 0
1160 1159 -1144 0
-1161 1160 1145 0
-1161 -1160 -1145 0
1161 -1160 1145 0
1161 1160 -1145 0
-1162 1161 1146 0
-1162 -1161 -1146 0
1162 -1161 1146 0
1162 1161 -1146 0
-1163 1162 1147 0
-1163 -1162 -1147 0
1163 -1162 1147 0
1163 1162 -1147 0
-1163 0
-1164 937 0
-1164 41 0
1164 -937 -41 0
-1165 939 0
-1165 45 0
1165 -939 -45 0
-1166 941 0
-1166 37 0
1166 -941 -37 0
-1167 943 0
-1167 35 0
1167 -943 -35 0
-1168 945 0
-1168 36 0
1168 -945 -36 0
-1169 947 0
-1169 34 0
1169 -947 -34 0
-1170 949 0
-1170 89 0
1170 -949 -89 0
-1171 951 0
-1171 93 0
1171 -951 -93 0
-1172 953 0
-1172 137 0
1172 -953 -137 0
-1173 955 0
-1173 185 0
1173 -955 -185 0
-1174 1164 1164 0
-1174 -1164 -1164 0
1174 -1164 1164 0
1174 1164 -1164 0
-1175 1174 1165 0
-1175 -1174 -1165 0
1175 -1174 1165 0
1175 1174 -1165 0
-1176 1175 1166 0
-1176 -1175 -1166 0
1176 -1175 1166 0
1176 1175 -1166 0
-1177 1176 1165 0
-1177 -1176 -1165 0
1177 -1176 1165 0
1177 1176 -1165 0
-1178 1177 1166 0
-1178 -1177 -1166 0
1178 -1177 1166 0
1178 1177 -1166 0
-1179 1178 1167 0
-1179 -1178 -1167 0
1179 -1178 1167 0
1179 1178 -1167 0
-1180 1179 1167 0
-1180 -1179 -1167 0
1180 -1179 1167 0
1180 1179 -1167 0
-1181 1180 1168 0
-1181 -1180 -1168 0
1181 -1180 1168 0
1181 1180 -1168 0
-1182 1181 1169 0
-1182 -1181 -1169 0
1182 -1181 1169 0
1182 1181 -1169 0
-1183 1182 1168 0
-1183 -1182 -1168 0
1183 -1182 1168 0
1183 1182 -1168 0
-1184 1183 1169 0
-1184 -1183 -1169 0
1184 -1183 1169 0
1184 1183 -1169 0
-1185 1184 1170 0
-1185 -1184 -1170 0
1185 -1184 1170 0
1185 1184 -1170 0
-1186 1185 1171 0
-1186 -1185 -1171 0
1186 -1185 1171 0
1186 1185 -1171 0
-1187 1186 1171 0
-1187 -1186 -1171 0
1187 -1186 1171 0
1187 1186 -1171 0
-1188 1187 1172 0
-1188 -1187 -1172 0
1188 -1187 1172 0
1188 1187 -1172 0
-1189 1188 1173 0
-1189 -1188 -1173 0
1189 -1188 1173 0
1189 1188 -1173 0
-1189 0
-1190 937 0
-1190 42 0
1190 -937 -42 0
-1191 937 0
-1191 44 0
1191 -937 -44 0
-1192 939 0
-1192 46 0
1192 -939 -46 0
-1193 941 0
-1193 40 0
1193 -941 -40 0
-1194 939 0
-1194 47 0
1194 -939 -47 0
-1195 941 0
-1195 39 0
1195 -941 -39 0
-1196 943 0
-1196 39 0
1196 -943 -39 0
-1197 943 0
-1197 47 0
1197 -943 -47 0
-1198 945 0
-1198 40 0
1198 -945 -40 0
-1199 947 0
-1199 46 0
1199 -947 -46 0
-1200 945 0
-1200 44 0
1200 -945 -44 0
-1201 947 0
-1201 42 0
1201 -947 -42 0
-1202 949 0
-1202 90 0
1202 -949 -90 0
-1203 951 0
-1203 94 0
1203 -951 -94 0
-1204 951 0
-1204 95 0
1204 -951 -95 0
-1205 953 0
-1205 138 0
1205 -953 -138 0
-1206 955 0
-1206 186 0
1206 -955 -186 0
-1207 1190 1191 0
-1207 -1190 -1191 0
1207 -1190 1191 0
1207 1190 -1191 0
-1208 1207 1192 0
-1208 -1207 -1192 0
1208 -1207 1192 0
1208 1207 -1192 0
-1209 1208 1193 0
-1209 -1208 -1193 0
1209 -1208 1193 0
1209 1208 -1193 0
-1210 1209 1194 0
-1210 -1209 -1194 0
1210 -1209 1194 0
1210 1209 -1194 0
-1211 1210 1195 0
-1211 -1210 -1195 0
1211 -1210 1195 0
1211 1210 -1195 0
-1212 1211 1196 0
-1212 -1211 -1196 0
1212 -1211 1196 0
1212 1211 -1196 0
-1213 1212 1197 0
-1213 -1212 -1197 0
1213 -1212 1197 0
1213 1212 -1197 0
-1214 1213 1198 0
-1214 -1213 -1198 0
1214 -1213 1198 0
1214 1213 -1198 0
-1215 1214 1199 0
-1215 -1214 -1199 0
1215 -1214 1199 0
1215 1214 -1199 0
-1216 1215 1200 0
-1216 -1215 -1200 0
1216 -1215 1200 0
1216 1215 -1200 0
-1217 1216 1201 0
-1217 -1216 -1201 0
1217 -1216 1201 0
1217 1216 -1201 0
-1218 1217 1202 0
-1218 -1217 -1202 0
1218 -1217 1202 0
1218 1217 -1202 0
-1219 1218 1203 0
-1219 -1218 -1203 0
1219 -1218 1203 0
1219 1218 -1203 0
-1220 1219 1204 0
-1220 -1219 -1204 0
1220 -1219 1204 0
1220 1219 -1204 0
-1221 1220 1205 0
-1221 -1220 -1205 0
1221 -1220 1205 0
1221 1220 -1205 0
-1222 1221 1206 0
-1222 -1221 -1206 0
1222 -1221 1206 0
1222 1221 -1206 0
-1222 0
-1223 937 0
-1223 43 0
1223 -937 -43 0
-1224 939 0
-1224 48 0
1224 -939 -48 0
-1225 941 0
-1225 38 0
1225 -941 -38 0
-1226 943 0
-1226 43 0
1226 -943 -43 0
-1227 945 0
-1227 48 0
1227 -945 -48 0
-1228 947 0
-1228 38 0
1228 -947 -38 0
-1229 949 0
-1229 91 0
1229 -949 -91 0
-1230 951 0
-1230 96 0
1230 -951 -96 0
-1231 953 0
-1231 139 0
1231 -953 -139 0
-1232 955 0
-1232 187 0
1232 -955 -187 0
-1233 1223 1223 0
-1233 -1223 -1223 0
1233 -1223 1223 0
1233 1223 -1223 0
-1234 1233 1224 0
-1234 -1233 -1224 0
1234 -1233 1224 0
1234 1233 -1224 0
-1235 1234 1225 0
-1235 -1234 -1225 0
1235 -1234 1225 0
1235 1234 -1225 0
-1236 1235 1224 0
-1236 -1235 -1224 0
1236 -1235 1224 0
1236 1235 -1224 0
-1237 1236 1225 0
-1237 -1236 -1225 0
1237 -1236 1225 0
1237 1236 -1225 0
-1238 1237 1226 0
-1238 -1237 -1226 0
1238 -1237 1226 0
1238 1237 -1226 0
-1239 1238 1226 0
-1239 -1238 -1226 0
1239 -1238 1226 0
1239 1238 -1226 0
-1240 1239 1227 0
-1240 -1239 -1227 0
1240 -1239 1227 0
1240 1239 -1227 0
-1241 1240 1228 0
-1241 -1240 -1228 0
1241 -1240 1228 0
1241 1240 -1228 0
-1242 1241 1227 0
-1242 -1241 -1227 0
1242 -1241 1227 0
1242 1241 -1227 0
-1243 1242 1228 0
-1243 -1242 -1228 0
1243 -1242 1228 0
1243 1242 -1228 0
-1244 1243 1229 0
-1244 -1243 -1229 0
1244 -1243 1229 0
1244 1243 -1229 0
-1245 1244 1230 0
-1245 -1244 -1230 0
1245 -1244 1230 0
1245 1244 -1230 0
-1246 1245 1230 0
-1246 -1245 -1230 0
1246 -1245 1230 0
1246 1245 -1230 0
-1247 1246 1231 0
-1247 -1246 -1231 0
1247 -1246 1231 0
1247 1246 -1231 0
-1248 1247 1232 0
-1248 -1247 -1232 0
1248 -1247 1232 0
1248 1247 -1232 0
-1248 0
-1249 1 0
-1249 21 0
1249 -1 -21 0
-1250 1249 0
-1250 33 0
1250 -1249 -33 0
-1251 1 0
-1251 25 0
1251 -1 -25 0
-1252 1251 0
-1252 33 0
1252 -1251 -33 0
-1253 2 0
-1253 17 0
1253 -2 -17 0
-1254 1253 0
-1254 33 0
1254 -1253 -33 0
-1255 3 0
-1255 17 0
1255 -3 -17 0
-1256 1255 0
-1256 33 0
1256 -1255 -33 0
-1257 2 0
-1257 25 0
1257 -2 -25 0
-1258 1257 0
-1258 33 0
1258 -1257 -33 0
-1259 3 0
-1259 21 0
1259 -3 -21 0
-1260 1259 0
-1260 33 0
1260 -1259 -33 0
-1261 49 0
-1261 69 0
1261 -49 -69 0
-1262 1261 0
-1262 81 0
1262 -1261 -81 0
-1263 50 0
-1263 65 0
1263 -50 -65 0
-1264 1263 0
-1264 81 0
1264 -1263 -81 0
-1265 50 0
-1265 73 0
1265 -50 -73 0
-1266 1265 0
-1266 81 0
1266 -1265 -81 0
-1267 97 0
-1267 117 0
1267 -97 -117 0
-1268 1267 0
-1268 129 0
1268 -1267 -129 0
-1269 145 0
-1269 165 0
1269 -145 -165 0
-1270 1269 0
-1270 177 0
1270 -1269 -177 0
-1271 1250 1252 0
-1271 -1250 -1252 0
1271 -1250 1252 0
1271 1250 -1252 0
-1272 1271 1254 0
-1272 -1271 -1254 0
1272 -1271 1254 0
1272 1271 -1254 0
-1273 1272 1256 0
-1273 -1272 -1256 0
1273 -1272 1256 0
1273 1272 -1256 0
-1274 1273 1258 0
-1274 -1273 -1258 0
1274 -1273 1258 0
1274 1273 -1258 0
-1275 1274 1260 0
-1275 -1274 -1260 0
1275 -1274 1260 0
1275 1274 -1260 0
-1276 1275 1254 0
-1276 -1275 -1254 0
1276 -1275 1254 0
1276 1275 -1254 0
-1277 1276 1256 0
-1277 -1276 -1256 0
1277 -1276 1256 0
1277 1276 -1256 0
-1278 1277 1250 0
-1278 -1277 -1250 0
1278 -1277 1250 0
1278 1277 -1250 0
-1279 1278 1252 0
-1279 -1278 -1252 0
1279 -1278 1252 0
1279 1278 -1252 0
-1280 1279 1260 0
-1280 -1279 -1260 0
1280 -1279 1260 0
1280 1279 -1260 0
-1281 1280 1258 0
-1281 -1280 -1258 0
1281 -1280 1258 0
1281 1280 -1258 0
-1282 1281 1262 0
-1282 -1281 -1262 0
1282 -1281 1262 0
1282 1281 -1262 0
-1283 1282 1264 0
-1283 -1282 -1264 0
1283 -1282 1264 0
1283 1282 -1264 0
-1284 1283 1266 0
-1284 -1283 -1266 0
1284 -1283 1266 0
1284 1283 -1266 0
-1285 1284 1268 0
-1285 -1284 -1268 0
1285 -1284 1268 0
1285 1284 -1268 0
-1286 1285 1270 0
-1286 -1285 -1270 0
1286 -1285 1270 0
1286 1285 -1270 0
-1286 0
-1287 1249 0
-1287 34 0
1287 -1249 -34 0
-1288 1251 0
-1288 36 0
1288 -1251 -36 0
-1289 1253 0
-1289 34 0
1289 -1253 -34 0
-1290 1255 0
-1290 36 0
1290 -1255 -36 0
-1291 1257 0
-1291 35 0
1291 -1257 -35 0
-1292 1259 0
-1292 35 0
1292 -1259 -35 0
-1293 1253 0
-1293 37 0
1293 -1253 -37 0
-1294 1255 0
-1294 45 0
1294 -1255 -45 0
-1295 1249 0
-1295 37 0
1295 -1249 -37 0
-1296 1251 0
-1296 45 0
1296 -1251 -45 0
-1297 1259 0
-1297 41 0
1297 -1259 -41 0
-1298 1257 0
-1298 41 0
1298 -1257 -41 0
-1299 1261 0
-1299 82 0
1299 -1261 -82 0
-1300 1263 0
-1300 82 0
1300 -1263 -82 0
-1301 1265 0
-1301 83 0
1301 -1265 -83 0
-1302 1267 0
-1302 130 0
1302 -1267 -130 0
-1303 1269 0
-1303 178 0
1303 -1269 -178 0
-1304 1287 1288 0
-1304 -1287 -1288 0
1304 -1287 1288 0
1304 1287 -1288 0
-1305 1304 1289 0
-1305 -1304 -1289 0
1305 -1304 1289 0
1305 1304 -1289 0
-1306 1305 1290 0
-1306 -1305 -1290 0
1306 -1305 1290 0
1306 1305 -1290 0
-1307 1306 1291 0
-1307 -1306 -1291 0
1307 -1306 1291 0
1307 1306 -1291 0
-1308 1307 1292 0
-1308 -1307 -1292 0
1308 -1307 1292 0
1308 1307 -1292 0
-1309 1308 1293 0
-1309 -1308 -1293 0
1309 -1308 1293 0
1309 1308 -1293 0
-1310 1309 1294 0
-1310 -1309 -1294 0
1310 -1309 1294 0
1310 1309 -1294 0
-1311 1310 1295 0
-1311 -1310 -1295 0
1311 -1310 1295 0
1311 1310 -1295 0
-1312 1311 1296 0
-1312 -1311 -1296 0
1312 -1311 1296 0
1312 1311 -1296 0
-1313 1312 1297 0
-1313 -1312 -1297 0
1313 -1312 1297 0
1313 1312 -1297 0
-1314 1313 1298 0
-1314 -1313 -1298 0
1314 -1313 1298 0
1314 1313 -1298 0
-1315 1314 1299 0
-1315 -1314 -1299 0
1315 -1314 1299 0
1315 1314 -1299 0
-1316 1315 1300 0
-1316 -1315 -1300 0
1316 -1315 1300 0
1316 1315 -1300 0
-1317 1316 1301 0
-1317 -1316 -1301 0
1317 -1316 1301 0
1317 1316 -1301 0
-1318 1317 1302 0
-1318 -1317 -1302 0
1318 -1317 1302 0
1318 1317 -1302 0
-1319 1318 1303 0
-1319 -1318 -1303 0
1319 -1318 1303 0
1319 1318 -1303 0
-1319 0
-1320 1249 0
-1320 35 0
1320 -1249 -35 0
-1321 1251 0
-1321 35 0
1321 -1251 -35 0
-1322 1253 0
-1322 36 0
1322 -1253 -36 0
-1323 1255 0
-1323 34 0
1323 -1255 -34 0
-1324 1257 0
-1324 36 0
1324 -1257 -36 0
-1325 1259 0
-1325 34 0
1325 -1259 -34 0
-1326 1253 0
-1326 41 0
1326 -1253 -41 0
-1327 1255 0
-1327 41 0
1327 -1255 -41 0
-1328 1249 0
-1328 45 0
1328 -1249 -45 0
-1329 1251 0
-1329 37 0
1329 -1251 -37 0
-1330 1259 0
-1330 45 0
1330 -1259 -45 0
-1331 1257 0
-1331 37 0
1331 -1257 -37 0
-1332 1261 0
-1332 83 0
1332 -1261 -83 0
-1333 1263 0
-1333 84 0
1333 -1263 -84 0
-1334 1265 0
-1334 84 0
1334 -1265 -84 0
-1335 1267 0
-1335 131 0
1335 -1267 -131 0
-1336 1269 0
-1336 179 0
1336 -1269 -179 0
-1337 1320 1321 0
-1337 -1320 -1321 0
1337 -1320 1321 0
1337 1320 -1321 0
-1338 1337 1322 0
-1338 -1337 -1322 0
1338 -1337 1322 0
1338 1337 -1322 0
-1339 1338 1323 0
-1339 -1338 -1323 0
1339 -1338 1323 0
1339 1338 -1323 0
-1340 1339 1324 0
-1340 -1339 -1324 0
1340 -1339 1324 0
1340 1339 -1324 0
-1341 1340 1325 0
-1341 -1340 -1325 0
1341 -1340 1325 0
1341 1340 -1325 0
-1342 1341 1326 0
-1342 -1341 -1326 0
1342 -1341 1326 0
1342 1341 -1326 0
-1343 1342 1327 0
-1343 -1342 -1327 0
1343 -1342 1327 0
1343 1342 -1327 0
-1344 1343 1328 0
-1344 -1343 -1328 0
1344 -1343 1328 0
1344 1343 -1328 0
-1345 1344 1329 0
-1345 -1344 -1329 0
1345 -1344 1329 0
1345 1344 -1329 0
-1346 1345 1330 0
-1346 -1345 -1330 0
1346 -1345 1330 0
1346 1345 -1330 0
-1347 1346 1331 0
-1347 -1346 -1331 0
1347 -1346 1331 0
1347 1346 -1331 0
-1348 1347 1332 0
-1348 -1347 -1332 0
1348 -1347 1332 0
1348 1347 -1332 0
-1349 1348 1333 0
-1349 -1348 -1333 0
1349 -1348 1333 0
1349 1348 -1333 0
-1350 1349 1334 0
-1350 -1349 -1334 0
1350 -1349 1334 0
1350 1349 -1334 0
-1351 1350 1335 0
-1351 -1350 -1335 0
1351 -1350 1335 0
1351 1350 -1335 0
-1352 1351 1336 0
-1352 -1351 -1336 0
1352 -1351 1336 0
1352 1351 -1336 0
1352 0
-1353 1249 0
-1353 36 0
1353 -1249 -36 0
-1354 1251 0
-1354 34 0
1354 -1251 -34 0
-1355 1253 0
-1355 35 0
1355 -1253 -35 0
-1356 1255 0
-1356 35 0
1356 -1255 -35 0
-1357 1257 0
-1357 34 0
1357 -1257 -34 0
-1358 1259 0
-1358 36 0
1358 -1259 -36 0
-1359 1253 0
-1359 45 0
1359 -1253 -45 0
-1360 1255 0
-1360 37 0
1360 -1255 -37 0
-1361 1249 0
-1361 41 0
1361 -1249 -41 0
-1362 1251 0
-1362 41 0
1362 -1251 -41 0
-1363 1259 0
-1363 37 0
1363 -1259 -37 0
-1364 1257 0
-1364 45 0
1364 -1257 -45 0
-1365 1261 0
-1365 84 0
1365 -1261 -84 0
-1366 1263 0
-1366 83 0
1366 -1263 -83 0
-1367 1265 0
-1367 82 0
1367 -1265 -82 0
-1368 1267 0
-1368 132 0
1368 -1267 -132 0
-1369 1269 0
-1369 180 0
1369 -1269 -180 0
-1370 1353 1354 0
-1370 -1353 -1354 0
1370 -1353 1354 0
1370 1353 -1354 0
-1371 1370 1355 0
-1371 -1370 -1355 0
1371 -1370 1355 0
1371 1370 -1355 0
-1372 1371 1356 0
-1372 -1371 -1356 0
1372 -1371 1356 0
1372 1371 -1356 0
-1373 1372 1357 0
-1373 -1372 -1357 0
1373 -1372 1357 0
1373 1372 -1357 0
-1374 1373 1358 0
-1374 -1373 -1358 0
1374 -1373 1358 0
1374 1373 -1358 0
-1375 1374 1359 0
-1375 -1374 -1359 0
1375 -1374 1359 0
1375 1374 -1359 0
-1376 1375 1360 0
-1376 -1375 -1360 0
1376 -1375 1360 0
1376 1375 -1360 0
-1377 1376 1361 0
-1377 -1376 -1361 0
1377 -1376 1361 0
1377 1376 -1361 0
-1378 1377 1362 0
-1378 -1377 -1362 0
1378 -1377 1362 0
1378 1377 -1362 0
-1379 1378 1363 0
-1379 -1378 -1363 0
1379 -1378 1363 0
1379 1378 -1363 0
-1380 1379 1364 0
-1380 -1379 -1364 0
1380 -1379 1364 0
1380 1379 -1364 0
-1381 1380 1365 0
-1381 -1380 -1365 0
1381 -1380 1365 0
1381 1380 -1365 0
-1382 1381 1366 0
-1382 -1381 -1366 0
1382 -1381 1366 0
1382 1381 -1366 0
-1383 1382 1367 0
-1383 -1382 -1367 0
1383 -1382 1367 0
1383 1382 -1367 0
-1384 1383 1368 0
-1384 -1383 -1368 0
1384 -1383 1368 0
1384 1383 -1368 0
-1385 1384 1369 0
-1385 -1384 -1369 0
1385 -1384 1369 0
1385 1384 -1369 0
-1385 0
-1386 1249 0
-1386 38 0
1386 -1249 -38 0
-1387 1251 0
-1387 48 0
1387 -1251 -48 0
-1388 1253 0
-1388 38 0
1388 -1253 -38 0
-1389 1255 0
-1389 48 0
1389 -1255 -48 0
-1390 1257 0
-1390 43 0
1390 -1257 -43 0
-1391 1259 0
-1391 43 0
1391 -1259 -43 0
-1392 1261 0
-1392 86 0
1392 -1261 -86 0
-1393 1263 0
-1393 86 0
1393 -1263 -86 0
-1394 1265 0
-1394 91 0
1394 -1265 -91 0
-1395 1267 0
-1395 134 0
1395 -1267 -134 0
-1396 1269 0
-1396 182 0
1396 -1269 -182 0
-1397 1386 1387 0
-1397 -1386 -1387 0
1397 -1386 1387 0
1397 1386 -1387 0
-1398 1397 1388 0
-1398 -1397 -1388 0
1398 -1397 1388 0
1398 1397 -1388 0
-1399 1398 1389 0
-1399 -1398 -1389 0
1399 -1398 1389 0
1399 1398 -1389 0
-1400 1399 1390 0
-1400 -1399 -1390 0
1400 -1399 1390 0
1400 1399 -1390 0
-1401 1400 1391 0
-1401 -1400 -1391 0
1401 -1400 1391 0
1401 1400 -1391 0
-1402 1401 1388 0
-1402 -1401 -1388 0
1402 -1401 1388 0
1402 1401 -1388 0
-1403 1402 1389 0
-1403 -1402 -1389 0
1403 -1402 1389 0
1403 1402 -1389 0
-1404 1403 1386 0
-1404 -1403 -1386 0
1404 -1403 1386 0
1404 1403 -1386 0
-1405 1404 1387 0
-1405 -1404 -1387 0
1405 -1404 1387 0
1405 1404 -1387 0
-1406 1405 1391 0
-1406 -1405 -1391 0
1406 -1405 1391 0
1406 1405 -1391 0
-1407 1406 1390 0
-1407 -1406 -1390 0
1407 -1406 1390 0
1407 1406 -1390 0
-1408 1407 1392 0
-1408 -1407 -1392 0
1408 -1407 1392 0
1408 1407 -1392 0
-1409 1408 1393 0
-1409 -1408 -1393 0
1409 -1408 1393 0
1409 1408 -1393 0
-1410 1409 1394 0
-1410 -1409 -1394 0
1410 -1409 1394 0
1410 1409 -1394 0
-1411 1410 1395 0
-1411 -1410 -1395 0
1411 -1410 1395 0
1411 1410 -1395 0
-1412 1411 1396 0
-1412 -1411 -1396 0
1412 -1411 1396 0
1412 1411 -1396 0
-1412 0
-1413 1249 0
-1413 39 0
1413 -1249 -39 0
-1414 1251 0
-1414 47 0
1414 -1251 -47 0
-1415 1253 0
-1415 40 0
1415 -1253 -40 0
-1416 1255 0
-1416 46 0
1416 -1255 -46 0
-1417 1257 0
-1417 44 0
1417 -1257 -44 0
-1418 1259 0
-1418 42 0
1418 -1259 -42 0
-1419 1253 0
-1419 42 0
1419 -1253 -42 0
-1420 1255 0
-1420 44 0
1420 -1255 -44 0
-1421 1249 0
-1421 46 0
1421 -1249 -46 0
-1422 1251 0
-1422 40 0
1422 -1251 -40 0
-1423 1259 0
-1423 47 0
1423 -1259 -47 0
-1424 1257 0
-1424 39 0
1424 -1257 -39 0
-1425 1261 0
-1425 87 0
1425 -1261 -87 0
-1426 1263 0
-1426 88 0
1426 -1263 -88 0
-1427 1265 0
-1427 92 0
1427 -1265 -92 0
-1428 1267 0
-1428 135 0
1428 -1267 -135 0
-1429 1269 0
-1429 183 0
1429 -1269 -183 0
-1430 1413 1414 0
-1430 -1413 -1414 0
1430 -1413 1414 0
1430 1413 -1414 0
-1431 1430 1415 0
-1431 -1430 -1415 0
1431 -1430 1415 0
1431 1430 -1415 0
-1432 1431 1416 0
-1432 -1431 -1416 0
1432 -1431 1416 0
1432 1431 -1416 0
-1433 1432 1417 0
-1433 -1432 -1417 0
1433 -1432 1417 0
1433 1432 -1417 0
-1434 1433 1418 0
-1434 -1433 -1418 0
1434 -1433 1418 0
1434 1433 -1418 0
-1435 1434 1419 0
-1435 -1434 -1419 0
1435 -1434 1419 0
1435 1434 -1419 0
-1436 1435 1420 0
-1436 -1435 -1420 0
1436 -1435 1420 0
1436 1435 -1420 0
-1437 1436 1421 0
-1437 -1436 -1421 0
1437 -1436 1421 0
1437 1436 -1421 0
-1438 1437 1422 0
-1438 -1437 -1422 0
1438 -1437 1422 0
1438 1437 -1422 0
-1439 1438 1423 0
-1439 -1438 -1423 0
1439 -1438 1423 0
1439 1438 -1423 0
-1440 1439 1424 0
-1440 -1439 -1424 0
1440 -1439 1424 0
1440 1439 -1424 0
-1441 1440 1425 0
-1441 -1440 -1425 0
1441 -1440 1425 0
1441 1440 -1425 0
-1442 1441 1426 0
-1442 -1441 -1426 0
1442 -1441 1426 0
1442 1441 -1426 0
-1443 1442 1427 0
-1443 -1442 -1427 0
1443 -1442 1427 0
1443 1442 -1427 0
-1444 1443 1428 0
-1444 -1443 -1428 0
1444 -1443 1428 0
1444 1443 -1428 0
-1445 1444 1429 0
-1445 -1444 -1429 0
1445 -1444 1429 0
1445 1444 -1429 0
-1445 0
-1446 1249 0
-1446 40 0
1446 -1249 -40 0
-1447 1251 0
-1447 46 0
1447 -1251 -46 0
-1448 1253 0
-1448 39 0
1448 -1253 -39 0
-1449 1255 0
-1449 47 0
1449 -1255 -47 0
-1450 1257 0
-1450 42 0
1450 -1257 -42 0
-1451 1259 0
-1451 44 0
1451 -1259 -44 0
-1452 1253 0
-1452 46 0
1452 -1253 -46 0
-1453 1255 0
-1453 40 0
1453 -1255 -40 0
-1454 1249 0
-1454 42 0
1454 -1249 -42 0
-1455 1251 0
-1455 44 0
1455 -1251 -44 0
-1456 1259 0
-1456 39 0
1456 -1259 -39 0
-1457 1257 0
-1457 47 0
1457 -1257 -47 0
-1458 1261 0
-1458 88 0
1458 -1261 -88 0
-1459 1263 0
-1459 87 0
1459 -1263 -87 0
-1460 1265 0
-1460 90 0
1460 -1265 -90 0
-1461 1267 0
-1461 136 0
1461 -1267 -136 0
-1462 1269 0
-1462 184 0
1462 -1269 -184 0
-1463 1446 1447 0
-1463 -1446 -1447 0
1463 -1446 1447 0
1463 1446 -1447 0
-1464 1463 1448 0
-1464 -1463 -1448 0
1464 -1463 1448 0
1464 1463 -1448 0
-1465 1464 1449 0
-1465 -1464 -1449 0
1465 -1464 1449 0
1465 1464 -1449 0
-1466 1465 1450 0
-1466 -1465 -1450 0
1466 -1465 1450 0
1466 1465 -1450 0
-1467 1466 1451 0
-1467 -1466 -1451 0
1467 -1466 1451 0
1467 1466 -1451 0
-1468 1467 1452 0
-1468 -1467 -1452 0
1468 -1467 1452 0
1468 1467 -1452 0
-1469 1468 1453 0
-1469 -1468 -1453 0
1469 -1468 1453 0
1469 1468 -1453 0
-1470 1469 1454 0
-1470 -1469 -1454 0
1470 -1469 1454 0
1470 1469 -1454 0
-1471 1470 1455 0
-1471 -1470 -1455 0
1471 -1470 1455 0
1471 1470 -1455 0
-1472 1471 1456 0
-1472 -1471 -1456 0
1472 -1471 1456 0
1472 1471 -1456 0
-1473 1472 1457 0
-1473 -1472 -1457 0
1473 -1472 1457 0
1473 1472 -1457 0
-1474 1473 1458 0
-1474 -1473 -1458 0
1474 -1473 1458 0
1474 1473 -1458 0
-1475 1474 1459 0
-1475 -1474 -1459 0
1475 -1474 1459 0
1475 1474 -1459 0
-1476 1475 1460 0
-1476 -1475 -1460 0
1476 -1475 1460 0
1476 1475 -1460 0
-1477 1476 1461 0
-1477 -1476 -1461 0
1477 -1476 1461 0
1477 1476 -1461 0
-1478 1477 1462 0
-1478 -1477 -1462 0
1478 -1477 1462 0
1478 1477 -1462 0
-1478 0
-1479 1249 0
-1479 43 0
1479 -1249 -43 0
-1480 1251 0
-1480 43 0
1480 -1251 -43 0
-1481 1253 0
-1481 48 0
1481 -1253 -48 0
-1482 1255 0
-1482 38 0
1482 -1255 -38 0
-1483 1257 0
-1483 48 0
1483 -1257 -48 0
-1484 1259 0
-1484 38 0
1484 -1259 -38 0
-1485 1253 0
-1485 43 0
1485 -1253 -43 0
-1486 1255 0
-1486 43 0
1486 -1255 -43 0
-1487 1249 0
-1487 48 0
1487 -1249 -48 0
-1488 1251 0
-1488 38 0
1488 -1251 -38 0
-1489 1259 0
-1489 48 0
1489 -1259 -48 0
-1490 1257 0
-1490 38 0
1490 -1257 -38 0
-1491 1261 0
-1491 91 0
1491 -1261 -91 0
-1492 1263 0
-1492 96 0
1492 -1263 -96 0
-1493 1265 0
-1493 96 0
1493 -1265 -96 0
-1494 1267 0
-1494 139 0
1494 -1267 -139 0
-1495 1269 0
-1495 187 0
1495 -1269 -187 0
-1496 1479 1480 0
-1496 -1479 -1480 0
1496 -1479 1480 0
1496 1479 -1480 0
-1497 1496 1481 0
-1497 -1496 -1481 0
1497 -1496 1481 0
1497 1496 -1481 0
-1498 1497 1482 0
-1498 -1497 -1482 0
1498 -1497 1482 0
1498 1497 -1482 0
-1499 1498 1483 0
-1499 -1498 -1483 0
1499 -1498 1483 0
1499 1498 -1483 0
-1500 1499 1484 0
-1500 -1499 -1484 0
1500 -1499 1484 0
1500 1499 -1484 0
-1501 1500 1485 0
-1501 -1500 -1485 0
1501 -1500 1485 0
1501 1500 -1485 0
-1502 1501 1486 0
-1502 -1501 -1486 0
1502 -1501 1486 0
1502 1501 -1486 0
-1503 1502 1487 0
-1503 -1502 -1487 0
1503 -1502 1487 0
1503 1502 -1487 0
-1504 1503 1488 0
-1504 -1503 -1488 0
1504 -1503 1488 0
1504 1503 -1488 0
-1505 1504 1489 0
-1505 -1504 -1489 0
1505 -1504 1489 0
1505 1504 -1489 0
-1506 1505 1490 0
-1506 -1505 -1490 0
1506 -1505 1490 0
1506 1505 -1490 0
-1507 1506 1491 0
-1507 -1506 -1491 0
1507 -1506 1491 0
1507 1506 -1491 0
-1508 1507 1492 0
-1508 -1507 -1492 0
1508 -1507 1492 0
1508 1507 -1492 0
-1509 1508 1493 0
-1509 -1508 -1493 0
1509 -1508 1493 0
1509 1508 -1493 0
-1510 1509 1494 0
-1510 -1509 -1494 0
1510 -1509 1494 0
1510 1509 -1494 0
-1511 1510 1495 0
-1511 -1510 -1495 0
1511 -1510 1495 0
1511 1510 -1495 0
-1511 0
-1512 1249 0
-1512 44 0
1512 -1249 -44 0
-1513 1251 0
-1513 42 0
1513 -1251 -42 0
-1514 1253 0
-1514 47 0
1514 -1253 -47 0
-1515 1255 0
-1515 39 0
1515 -1255 -39 0
-1516 1257 0
-1516 46 0
1516 -1257 -46 0
-1517 1259 0
-1517 40 0
1517 -1259 -40 0
-1518 1261 0
-1518 92 0
1518 -1261 -92 0
-1519 1263 0
-1519 95 0
1519 -1263 -95 0
-1520 1265 0
-1520 94 0
1520 -1265 -94 0
-1521 1267 0
-1521 140 0
1521 -1267 -140 0
-1522 1269 0
-1522 188 0
1522 -1269 -188 0
-1523 1512 1513 0
-1523 -1512 -1513 0
1523 -1512 1513 0
1523 1512 -1513 0
-1524 1523 1514 0
-1524 -1523 -1514 0
1524 -1523 1514 0
1524 1523 -1514 0
-1525 1524 1515 0
-1525 -1524 -1515 0
1525 -1524 1515 0
1525 1524 -1515 0
-1526 1525 1516 0
-1526 -1525 -1516 0
1526 -1525 1516 0
1526 1525 -1516 0
-1527 1526 1517 0
-1527 -1526 -1517 0
1527 -1526 1517 0
1527 1526 -1517 0
-1528 1527 1514 0
-1528 -1527 -1514 0
1528 -1527 1514 0
1528 1527 -1514 0
-1529 1528 1515 0
-1529 -1528 -1515 0
1529 -1528 1515 0
1529 1528 -1515 0
-1530 1529 1512 0
-1530 -1529 -1512 0
1530 -1529 1512 0
1530 1529 -1512 0
-1531 1530 1513 0
-1531 -1530 -1513 0
1531 -1530 1513 0
1531 1530 -1513 0
-1532 1531 1517 0
-1532 -1531 -1517 0
1532 -1531 1517 0
1532 1531 -1517 0
-1533 1532 1516 0
-1533 -1532 -1516 0
1533 -1532 1516 0
1533 1532 -1516 0
-1534 1533 1518 0
-1534 -1533 -1518 0
1534 -1533 1518 0
1534 1533 -1518 0
-1535 1534 1519 0
-1535 -1534 -1519 0
1535 -1534 1519 0
1535 1534 -1519 0
-1536 1535 1520 0
-1536 -1535 -1520 0
1536 -1535 1520 0
1536 1535 -1520 0
-1537 1536 1521 0
-1537 -1536 -1521 0
1537 -1536 1521 0
1537 1536 -1521 0
-1538 1537 1522 0
-1538 -1537 -1522 0
1538 -1537 1522 0
1538 1537 -1522 0
-1538 0
-1539 1249 0
-1539 47 0
1539 -1249 -47 0
-1540 1251 0
-1540 39 0
1540 -1251 -39 0
-1541 1253 0
-1541 44 0
1541 -1253 -44 0
-1542 1255 0
-1542 42 0
1542 -1255 -42 0
-1543 1257 0
-1543 40 0
1543 -1257 -40 0
-1544 1259 0
-1544 46 0
1544 -1259 -46 0
-1545 1261 0
-1545 95 0
1545 -1261 -95 0
-1546 1263 0
-1546 92 0
1546 -1263 -92 0
-1547 1265 0
-1547 88 0
1547 -1265 -88 0
-1548 1267 0
-1548 143 0
1548 -1267 -143 0
-1549 1269 0
-1549 191 0
1549 -1269 -191 0
-1550 1539 1540 0
-1550 -1539 -1540 0
1550 -1539 1540 0
1550 1539 -1540 0
-1551 1550 1541 0
-1551 -1550 -1541 0
1551 -1550 1541 0
1551 1550 -1541 0
-1552 1551 1542 0
-1552 -1551 -1542 0
1552 -1551 1542 0
1552 1551 -1542 0
-1553 1552 1543 0
-1553 -1552 -1543 0
1553 -1552 1543 0
1553 1552 -1543 0
-1554 1553 1544 0
-1554 -1553 -1544 0
1554 -1553 1544 0
1554 1553 -1544 0
-1555 1554 1541 0
-1555 -1554 -1541 0
1555 -1554 1541 0
1555 1554 -1541 0
-1556 1555 1542 0
-1556 -1555 -1542 0
1556 -1555 1542 0
1556 1555 -1542 0
-1557 1556 1539 0
-1557 -1556 -1539 0
1557 -1556 1539 0
1557 1556 -1539 0
-1558 1557 1540 0
-1558 -1557 -1540 0
1558 -1557 1540 0
1558 1557 -1540 0
-1559 1558 1544 0
-1559 -1558 -1544 0
1559 -1558 1544 0
1559 1558 -1544 0
-1560 1559 1543 0
-1560 -1559 -1543 0
1560 -1559 1543 0
1560 1559 -1543 0
-1561 1560 1545 0
-1561 -1560 -1545 0
1561 -1560 1545 0
1561 1560 -1545 0
-1562 1561 1546 0
-1562 -1561 -1546 0
1562 -1561 1546 0
1562 1561 -1546 0
-1563 1562 1547 0
-1563 -1562 -1547 0
1563 -1562 1547 0
1563 1562 -1547 0
-1564 1563 1548 0
-1564 -1563 -1548 0
1564 -1563 1548 0
1564 1563 -1548 0
-1565 1564 1549 0
-1565 -1564 -1549 0
1565 -1564 1549 0
1565 1564 -1549 0
-1565 0
-1566 1 0
-1566 22 0
1566 -1 -22 0
-1567 1566 0
-1567 33 0
1567 -1566 -33 0
-1568 1 0
-1568 28 0
1568 -1 -28 0
-1569 1568 0
-1569 33 0
1569 -1568 -33 0
-1570 2 0
-1570 18 0
1570 -2 -18 0
-1571 1570 0
-1571 33 0
1571 -1570 -33 0
-1572 3 0
-1572 20 0
1572 -3 -20 0
-1573 1572 0
-1573 33 0
1573 -1572 -33 0
-1574 2 0
-1574 27 0
1574 -2 -27 0
-1575 1574 0
-1575 33 0
1575 -1574 -33 0
-1576 3 0
-1576 23 0
1576 -3 -23 0
-1577 1576 0
-1577 33 0
1577 -1576 -33 0
-1578 17 0
-1578 6 0
1578 -17 -6 0
-1579 1578 0
-1579 33 0
1579 -1578 -33 0
-1580 17 0
-1580 15 0
1580 -17 -15 0
-1581 1580 0
-1581 33 0
1581 -1580 -33 0
-1582 21 0
-1582 5 0
1582 -21 -5 0
-1583 1582 0
-1583 33 0
1583 -1582 -33 0
-1584 25 0
-1584 13 0
1584 -25 -13 0
-1585 1584 0
-1585 33 0
1585 -1584 -33 0
-1586 21 0
-1586 11 0
1586 -21 -11 0
-1587 1586 0
-1587 33 0
1587 -1586 -33 0
-1588 25 0
-1588 10 0
1588 -25 -10 0
-1589 1588 0
-1589 33 0
1589 -1588 -33 0
-1590 49 0
-1590 70 0
1590 -49 -70 0
-1591 1590 0
-1591 81 0
1591 -1590 -81 0
-1592 50 0
-1592 66 0
1592 -50 -66 0
-1593 1592 0
-1593 81 0
1593 -1592 -81 0
-1594 50 0
-1594 75 0
1594 -50 -75 0
-1595 1594 0
-1595 81 0
1595 -1594 -81 0
-1596 97 0
-1596 118 0
1596 -97 -118 0
-1597 1596 0
-1597 129 0
1597 -1596 -129 0
-1598 145 0
-1598 166 0
1598 -145 -166 0
-1599 1598 0
-1599 177 0
1599 -1598 -177 0
-1600 1567 1569 0
-1600 -1567 -1569 0
1600 -1567 1569 0
1600 1567 -1569 0
-1601 1600 1571 0
-1601 -1600 -1571 0
1601 -1600 1571 0
1601 1600 -1571 0
-1602 1601 1573 0
-1602 -1601 -1573 0
1602 -1601 1573 0
1602 1601 -1573 0
-1603 1602 1575 0
-1603 -1602 -1575 0
1603 -1602 1575 0
1603 1602 -1575 0
-1604 1603 1577 0
-1604 -1603 -1577 0
1604 -1603 1577 0
1604 1603 -1577 0
-1605 1604 1579 0
-1605 -1604 -1579 0
1605 -1604 1579 0
1605 1604 -1579 0
-1606 1605 1581 0
-1606 -1605 -1581 0
1606 -1605 1581 0
1606 1605 -1581 0
-1607 1606 1583 0
-1607 -1606 -1583 0
1607 -1606 1583 0
1607 1606 -1583 0
-1608 1607 1585 0
-1608 -1607 -1585 0
1608 -1607 1585 0
1608 1607 -1585 0
-1609 1608 1587 0
-1609 -1608 -1587 0
1609 -1608 1587 0
1609 1608 -1587 0
-1610 1609 1589 0
-1610 -1609 -1589 0
1610 -1609 1589 0
1610 1609 -1589 0
-1611 1610 1591 0
-1611 -1610 -1591 0
1611 -1610 1591 0
1611 1610 -1591 0
-1612 1611 1593 0
-1612 -1611 -1593 0
1612 -1611 1593 0
1612 1611 -1593 0
-1613 1612 1595 0
-1613 -1612 -1595 0
1613 -1612 1595 0
1613 1612 -1595 0
-1614 1613 1597 0
-1614 -1613 -1597 0
1614 -1613 1597 0
1614 1613 -1597 0
-1615 1614 1599 0
-1615 -1614 -1599 0
1615 -1614 1599 0
1615 1614 -1599 0
-1615 0
-1616 1566 0
-1616 34 0
1616 -1566 -34 0
-1617 1568 0
-1617 36 0
1617 -1568 -36 0
-1618 1570 0
-1618 34 0
1618 -1570 -34 0
-1619 1572 0
-1619 36 0
1619 -1572 -36 0
-1620 1574 0
-1620 35 0
1620 -1574 -35 0
-1621 1576 0
-1621 35 0
1621 -1576 -35 0
-1622 1578 0
-1622 37 0
1622 -1578 -37 0
-1623 1580 0
-1623 45 0
1623 -1580 -45 0
-1624 1582 0
-1624 37 0
1624 -1582 -37 0
-1625 1584 0
-1625 45 0
1625 -1584 -45 0
-1626 1586 0
-1626 41 0
1626 -1586 -41 0
-1627 1588 0
-1627 41 0
1627 -1588 -41 0
-1628 1590 0
-1628 82 0
1628 -1590 -82 0
-1629 1592 0
-1629 82 0
1629 -1592 -82 0
-1630 1594 0
-1630 83 0
1630 -1594 -83 0
-1631 1596 0
-1631 130 0
1631 -1596 -130 0
-1632 1598 0
-1632 178 0
1632 -1598 -178 0
-1633 1616 1617 0
-1633 -1616 -1617 0
1633 -1616 1617 0
1633 1616 -1617 0
-1634 1633 1618 0
-1634 -1633 -1618 0
1634 -1633 1618 0
1634 1633 -1618 0
-1635 1634 1619 0
-1635 -1634 -1619 0
1635 -1634 1619 0
1635 1634 -1619 0
-1636 1635 1620 0
-1636 -1635 -1620 0
1636 -1635 1620 0
1636 1635 -1620 0
-1637 1636 1621 0
-1637 -1636 -1621 0
1637 -1636 1621 0
1637 1636 -1621 0
-1638 1637 1622 0
-1638 -1637 -1622 0
1638 -1637 1622 0
1638 1637 -1622 0
-1639 1638 1623 0
-1639 -1638 -1623 0
1639 -1638 1623 0
1639 1638 -1623 0
-1640 1639 1624 0
-1640 -1639 -1624 0
1640 -1639 1624 0
1640 1639 -1624 0
-1641 1640 1625 0
-1641 -1640 -1625 0
1641 -1640 1625 0
1641 1640 -1625 0
-1642 1641 1626 0
-1642 -1641 -1626 0
1642 -1641 1626 0
1642 1641 -1626 0
-1643 1642 1627 0
-1643 -1642 -1627 0
1643 -1642 1627 0
1643 1642 -1627 0
-1644 1643 1628 0
-1644 -1643 -1628 0
1644 -1643 1628 0
1644 1643 -1628 0
-1645 1644 1629 0
-1645 -1644 -1629 0
1645 -1644 1629 0
1645 1644 -1629 0
-1646 1645 1630 0
-1646 -1645 -1630 0
1646 -1645 1630 0
1646 1645 -1630 0
-1647 1646 1631 0
-1647 -1646 -1631 0
1647 -1646 1631 0
1647 1646 -1631 0
-1648 1647 1632 0
-1648 -1647 -1632 0
1648 -1647 1632 0
1648 1647 -1632 0
-1648 0
-1649 1566 0
-1649 35 0
1649 -1566 -35 0
-1650 1568 0
-1650 35 0
1650 -1568 -35 0
-1651 1570 0
-1651 36 0
1651 -1570 -36 0
-1652 1572 0
-1652 34 0
1652 -1572 -34 0
-1653 1574 0
-1653 36 0
1653 -1574 -36 0
-1654 1576 0
-1654 34 0
1654 -1576 -34 0
-1655 1578 0
-1655 41 0
1655 -1578 -41 0
-1656 1580 0
-1656 41 0
1656 -1580 -41 0
-1657 1582 0
-1657 45 0
1657 -1582 -45 0
-1658 1584 0
-1658 37 0
1658 -1584 -37 0
-1659 1586 0
-1659 45 0
1659 -1586 -45 0
-1660 1588 0
-1660 37 0
1660 -1588 -37 0
-1661 1590 0
-1661 83 0
1661 -1590 -83 0
-1662 1592 0
-1662 84 0
1662 -1592 -84 0
-1663 1594 0
-1663 84 0
1663 -1594 -84 0
-1664 1596 0
-1664 131 0
1664 -1596 -131 0
-1665 1598 0
-1665 179 0
1665 -1598 -179 0
-1666 1649 1650 0
-1666 -1649 -1650 0
1666 -1649 1650 0
1666 1649 -1650 0
-1667 1666 1651 0
-1667 -1666 -1651 0
1667 -1666 1651 0
1667 1666 -1651 0
-1668 1667 1652 0
-1668 -1667 -1652 0
1668 -1667 1652 0
1668 1667 -1652 0
-1669 1668 1653 0
-1669 -1668 -1653 0
1669 -1668 1653 0
1669 1668 -1653 0
-1670 1669 1654 0
-1670 -1669 -1654 0
1670 -1669 1654 0
1670 1669 -1654 0
-1671 1670 1655 0
-1671 -1670 -1655 0
1671 -1670 1655 0
1671 1670 -1655 0
-1672 1671 1656 0
-1672 -1671 -1656 0
1672 -1671 1656 0
1672 1671 -1656 0
-1673 1672 1657 0
-1673 -1672 -1657 0
1673 -1672 1657 0
1673 1672 -1657 0
-1674 1673 1658 0
-1674 -1673 -1658 0
1674 -1673 1658 0
1674 1673 -1658 0
-1675 1674 1659 0
-1675 -1674 -1659 0
1675 -1674 1659 0
1675 1674 -1659 0
-1676 1675 1660 0
-1676 -1675 -1660 0
1676 -1675 1660 0
1676 1675 -1660 0
-1677 1676 1661 0
-1677 -1676 -1661 0
1677 -1676 1661 0
1677 1676 -1661 0
-1678 1677 1662 0
-1678 -1677 -1662 0
1678 -1677 1662 0
1678 1677 -1662 0
-1679 1678 1663 0
-1679 -1678 -1663 0
1679 -1678 1663 0
1679 1678 -1663 0
-1680 1679 1664 0
-1680 -1679 -1664 0
1680 -1679 1664 0
1680 1679 -1664 0
-1681 1680 1665 0
-1681 -1680 -1665 0
1681 -1680 1665 0
1681 1680 -1665 0
-1681 0
-1682 1566 0
-1682 36 0
1682 -1566 -36 0
-1683 1568 0
-1683 34 0
1683 -1568 -34 0
-1684 1570 0
-1684 35 0
1684 -1570 -35 0
-1685 1572 0
-1685 35 0
1685 -1572 -35 0
-1686 1574 0
-1686 34 0
1686 -1574 -34 0
-1687 1576 0
-1687 36 0
1687 -1576 -36 0
-1688 1578 0
-1688 45 0
1688 -1578 -45 0
-1689 1580 0
-1689 37 0
1689 -1580 -37 0
-1690 1582 0
-1690 41 0
1690 -1582 -41 0
-1691 1584 0
-1691 41 0
1691 -1584 -41 0
-1692 1586 0
-1692 37 0
1692 -1586 -37 0
-1693 1588 0
-1693 45 0
1693 -1588 -45 0
-1694 1590 0
-1694 84 0
1694 -1590 -84 0
-1695 1592 0
-1695 83 0
1695 -1592 -83 0
-1696 1594 0
-1696 82 0
1696 -1594 -82 0
-1697 1596 0
-1697 132 0
1697 -1596 -132 0
-1698 1598 0
-1698 180 0
1698 -1598 -180 0
-1699 1682 1683 0
-1699 -1682 -1683 0
1699 -1682 1683 0
1699 1682 -1683 0
-1700 1699 1684 0
-1700 -1699 -1684 0
1700 -1699 1684 0
1700 1699 -1684 0
-1701 1700 1685 0
-1701 -1700 -1685 0
1701 -1700 1685 0
1701 1700 -1685 0
-1702 1701 1686 0
-1702 -1701 -1686 0
1702 -1701 1686 0
1702 1701 -1686 0
-1703 1702 1687 0
-1703 -1702 -1687 0
1703 -1702 1687 0
1703 1702 -1687 0
-1704 1703 1688 0
-1704 -1703 -1688 0
1704 -1703 1688 0
1704 1703 -1688 0
-1705 1704 1689 0
-1705 -1704 -1689 0
1705 -1704 1689 0
1705 1704 -1689 0
-1706 1705 1690 0
-1706 -1705 -1690 0
1706 -1705 1690 0
1706 1705 -1690 0
-1707 1706 1691 0
-1707 -1706 -1691 0
1707 -1706 1691 0
1707 1706 -1691 0
-1708 1707 1692 0
-1708 -1707 -1692 0
1708 -1707 1692 0
1708 1707 -1692 0
-1709 1708 1693 0
-1709 -1708 -1693 0
1709 -1708 1693 0
1709 1708 -1693 0
-1710 1709 1694 0
-1710 -1709 -1694 0
1710 -1709 1694 0
1710 1709 -1694 0
-1711 1710 1695 0
-1711 -1710 -1695 0
1711 -1710 1695 0
1711 1710 -1695 0
-1712 1711 1696 0
-1712 -1711 -1696 0
1712 -1711 1696 0
1712 1711 -1696 0
-1713 1712 1697 0
-1713 -1712 -1697 0
1713 -1712 1697 0
1713 1712 -1697 0
-1714 1713 1698 0
-1714 -1713 -1698 0
1714 -1713 1698 0
1714 1713 -1698 0
-1714 0
-1715 1566 0
-1715 37 0
1715 -1566 -37 0
-1716 1568 0
-1716 45 0
1716 -1568 -45 0
-1717 1570 0
-1717 37 0
1717 -1570 -37 0
-1718 1572 0
-1718 45 0
1718 -1572 -45 0
-1719 1574 0
-1719 41 0
1719 -1574 -41 0
-1720 1576 0
-1720 41 0
1720 -1576 -41 0
-1721 1578 0
-1721 34 0
1721 -1578 -34 0
-1722 1580 0
-1722 36 0
1722 -1580 -36 0
-1723 1582 0
-1723 34 0
1723 -1582 -34 0
-1724 1584 0
-1724 36 0
1724 -1584 -36 0
-1725 1586 0
-1725 35 0
1725 -1586 -35 0
-1726 1588 0
-1726 35 0
1726 -1588 -35 0
-1727 1590 0
-1727 85 0
1727 -1590 -85 0
-1728 1592 0
-1728 85 0
1728 -1592 -85 0
-1729 1594 0
-1729 89 0
1729 -1594 -89 0
-1730 1596 0
-1730 133 0
1730 -1596 -133 0
-1731 1598 0
-1731 181 0
1731 -1598 -181 0
-1732 1715 1716 0
-1732 -1715 -1716 0
1732 -1715 1716 0
1732 1715 -1716 0
-1733 1732 1717 0
-1733 -1732 -1717 0
1733 -1732 1717 0
1733 1732 -1717 0
-1734 1733 1718 0
-1734 -1733 -1718 0
1734 -1733 1718 0
1734 1733 -1718 0
-1735 1734 1719 0
-1735 -1734 -1719 0
1735 -1734 1719 0
1735 1734 -1719 0
-1736 1735 1720 0
-1736 -1735 -1720 0
1736 -1735 1720 0
1736 1735 -1720 0
-1737 1736 1721 0
-1737 -1736 -1721 0
1737 -1736 1721 0
1737 1736 -1721 0
-1738 1737 1722 0
-1738 -1737 -1722 0
1738 -1737 1722 0
1738 1737 -1722 0
-1739 1738 1723 0
-1739 -1738 -1723 0
1739 -1738 1723 0
1739 1738 -1723 0
-1740 1739 1724 0
-1740 -1739 -1724 0
1740 -1739 1724 0
1740 1739 -1724 0
-1741 1740 1725 0
-1741 -1740 -1725 0
1741 -1740 1725 0
1741 1740 -1725 0
-1742 1741 1726 0
-1742 -1741 -1726 0
1742 -1741 1726 0
1742 1741 -1726 0
-1743 1742 1727 0
-1743 -1742 -1727 0
1743 -1742 1727 0
1743 1742 -1727 0
-1744 1743 1728 0
-1744 -1743 -1728 0
1744 -1743 1728 0
1744 1743 -1728 0
-1745 1744 1729 0
-1745 -1744 -1729 0
1745 -1744 1729 0
1745 1744 -1729 0
-1746 1745 1730 0
-1746 -1745 -1730 0
1746 -1745 1730 0
1746 1745 -1730 0
-1747 1746 1731 0
-1747 -1746 -1731 0
1747 -1746 1731 0
1747 1746 -1731 0
-1747 0
-1748 1566 0
-1748 38 0
1748 -1566 -38 0
-1749 1568 0
-1749 48 0
1749 -1568 -48 0
-1750 1570 0
-1750 38 0
1750 -1570 -38 0
-1751 1572 0
-1751 48 0
1751 -1572 -48 0
-1752 1574 0
-1752 43 0
1752 -1574 -43 0
-1753 1576 0
-1753 43 0
1753 -1576 -43 0
-1754 1578 0
-1754 38 0
1754 -1578 -38 0
-1755 1580 0
-1755 48 0
1755 -1580 -48 0
-1756 1582 0
-1756 38 0
1756 -1582 -38 0
-1757 1584 0
-1757 48 0
1757 -1584 -48 0
-1758 1586 0
-1758 43 0
1758 -1586 -43 0
-1759 1588 0
-1759 43 0
1759 -1588 -43 0
-1760 1590 0
-1760 86 0
1760 -1590 -86 0
-1761 1592 0
-1761 86 0
1761 -1592 -86 0
-1762 1594 0
-1762 91 0
1762 -1594 -91 0
-1763 1596 0
-1763 134 0
1763 -1596 -134 0
-1764 1598 0
-1764 182 0
1764 -1598 -182 0
-1765 1748 1749 0
-1765 -1748 -1749 0
1765 -1748 1749 0
1765 1748 -1749 0
-1766 1765 1750 0
-1766 -1765 -1750 0
1766 -1765 1750 0
1766 1765 -1750 0
-1767 1766 1751 0
-1767 -1766 -1751 0
1767 -1766 1751 0
1767 1766 -1751 0
-1768 1767 1752 0
-1768 -1767 -1752 0
1768 -1767 1752 0
1768 1767 -1752 0
-1769 1768 1753 0
-1769 -1768 -1753 0
1769 -1768 1753 0
1769 1768 -1753 0
-1770 1769 1754 0
-1770 -1769 -1754 0
1770 -1769 1754 0
1770 1769 -1754 0
-1771 1770 1755 0
-1771 -1770 -1755 0
1771 -1770 1755 0
1771 1770 -1755 0
-1772 1771 1756 0
-1772 -1771 -1756 0
1772 -1771 1756 0
1772 1771 -1756 0
-1773 1772 1757 0
-1773 -1772 -1757 0
1773 -1772 1757 0
1773 1772 -1757 0
-1774 1773 1758 0
-1774 -1773 -1758 0
1774 -1773 1758 0
1774 1773 -1758 0
-1775 1774 1759 0
-1775 -1774 -1759 0
1775 -1774 1759 0
1775 1774 -1759 0
-1776 1775 1760 0
-1776 -1775 -1760 0
1776 -1775 1760 0
1776 1775 -1760 0
-1777 1776 1761 0
-1777 -1776 -1761 0
1777 -1776 1761 0
1777 1776 -1761 0
-1778 1777 1762 0
-1778 -1777 -1762 0
1778 -1777 1762 0
1778 1777 -1762 0
-1779 1778 1763 0
-1779 -1778 -1763 0
1779 -1778 1763 0
1779 1778 -1763 0
-1780 1779 1764 0
-1780 -1779 -1764 0
1780 -1779 1764 0
1780 1779 -1764 0
-1780 0
-1781 1566 0
-1781 39 0
1781 -1566 -39 0
-1782 1568 0
-1782 47 0
1782 -1568 -47 0
-1783 1570 0
-1783 40 0
1783 -1570 -40 0
-1784 1572 0
-1784 46 0
1784 -1572 -46 0
-1785 1574 0
-1785 44 0
1785 -1574 -44 0
-1786 1576 0
-1786 42 0
1786 -1576 -42 0
-1787 1578 0
-1787 42 0
1787 -1578 -42 0
-1788 1580 0
-1788 44 0
1788 -1580 -44 0
-1789 1582 0
-1789 46 0
1789 -1582 -46 0
-1790 1584 0
-1790 40 0
1790 -1584 -40 0
-1791 1586 0
-1791 47 0
1791 -1586 -47 0
-1792 1588 0
-1792 39 0
1792 -1588 -39 0
-1793 1590 0
-1793 87 0
1793 -1590 -87 0
-1794 1592 0
-1794 88 0
1794 -1592 -88 0
-1795 1594 0
-1795 92 0
1795 -1594 -92 0
-1796 1596 0
-1796 135 0
1796 -1596 -135 0
-1797 1598 0
-1797 183 0
1797 -1598 -183 0
-1798 1781 1782 0
-1798 -1781 -1782 0
1798 -1781 1782 0
1798 1781 -1782 0
-1799 1798 1783 0
-1799 -1798 -1783 0
1799 -1798 1783 0
1799 1798 -1783 0
-1800 1799 1784 0
-1800 -1799 -1784 0
1800 -1799 1784 0
1800 1799 -1784 0
-1801 1800 1785 0
-1801 -1800 -1785 0
1801 -1800 1785 0
1801 1800 -1785 0
-1802 1801 1786 0
-1802 -1801 -1786 0
1802 -1801 1786 0
1802 1801 -1786 0
-1803 1802 1787 0
-1803 -1802 -1787 0
1803 -1802 1787 0
1803 1802 -1787 0
-1804 1803 1788 0
-1804 -1803 -1788 0
1804 -1803 1788 0
1804 1803 -1788 0
-1805 1804 1789 0
-1805 -1804 -1789 0
1805 -1804 1789 0
1805 1804 -1789 0
-1806 1805 1790 0
-1806 -1805 -1790 0
1806 -1805 1790 0
1806 1805 -1790 0
-1807 1806 1791 0
-1807 -1806 -1791 0
1807 -1806 1791 0
1807 1806 -1791 0
-1808 1807 1792 0
-1808 -1807 -1792 0
1808 -1807 1792 0
1808 1807 -1792 0
-1809 1808 1793 0
-1809 -1808 -1793 0
1809 -1808 1793 0
1809 1808 -1793 0
-1810 1809 1794 0
-1810 -1809 -1794 0
1810 -1809 1794 0
1810 1809 -1794 0
-1811 1810 1795 0
-1811 -1810 -1795 0
1811 -1810 1795 0
1811 1810 -1795 0
-1812 1811 1796 0
-1812 -1811 -1796 0
1812 -1811 1796 0
1812 1811 -1796 0
-1813 1812 1797 0
-1813 -1812 -1797 0
1813 -1812 1797 0
1813 1812 -1797 0
-1813 0
-1814 1566 0
-1814 40 0
1814 -1566 -40 0
-1815 1568 0
-1815 46 0
1815 -1568 -46 0
-1816 1570 0
-1816 39 0
1816 -1570 -39 0
-1817 1572 0
-1817 47 0
1817 -1572 -47 0
-1818 1574 0
-1818 42 0
1818 -1574 -42 0
-1819 1576 0
-1819 44 0
1819 -1576 -44 0
-1820 1578 0
-1820 46 0
1820 -1578 -46 0
-1821 1580 0
-1821 40 0
1821 -1580 -40 0
-1822 1582 0
-1822 42 0
1822 -1582 -42 0
-1823 1584 0
-1823 44 0
1823 -1584 -44 0
-1824 1586 0
-1824 39 0
1824 -1586 -39 0
-1825 1588 0
-1825 47 0
1825 -1588 -47 0
-1826 1590 0
-1826 88 0
1826 -1590 -88 0
-1827 1592 0
-1827 87 0
1827 -1592 -87 0
-1828 1594 0
-1828 90 0
1828 -1594 -90 0
-1829 1596 0
-1829 136 0
1829 -1596 -136 0
-1830 1598 0
-1830 184 0
1830 -1598 -184 0
-1831 1814 1815 0
-1831 -1814 -1815 0
1831 -1814 1815 0
1831 1814 -1815 0
-1832 1831 1816 0
-1832 -1831 -1816 0
1832 -1831 1816 0
1832 1831 -1816 0
-1833 1832 1817 0
-1833 -1832 -1817 0
1833 -1832 1817 0
1833 1832 -1817 0
-1834 1833 1818 0
-1834 -1833 -1818 0
1834 -1833 1818 0
1834 1833 -1818 0
-1835 1834 1819 0
-1835 -1834 -1819 0
1835 -1834 1819 0
1835 1834 -1819 0
-1836 1835 1820 0
-1836 -1835 -1820 0
1836 -1835 1820 0
1836 1835 -1820 0
-1837 1836 1821 0
-1837 -1836 -1821 0
1837 -1836 1821 0
1837 1836 -1821 0
-1838 1837 1822 0
-1838 -1837 -1822 0
1838 -1837 1822 0
1838 1837 -1822 0
-1839 1838 1823 0
-1839 -1838 -1823 0
1839 -1838 1823 0
1839 1838 -1823 0
-1840 1839 1824 0
-1840 -1839 -1824 0
1840 -1839 1824 0
1840 1839 -1824 0
-1841 1840 1825 0
-1841 -1840 -1825 0
1841 -1840 1825 0
1841 1840 -1825 0
-1842 1841 1826 0
-1842 -1841 -1826 0
1842 -1841 1826 0
1842 1841 -1826 0
-1843 1842 1827 0
-1843 -1842 -1827 0
1843 -1842 1827 0
1843 1842 -1827 0
-1844 1843 1828 0
-1844 -1843 -1828 0
1844 -1843 1828 0
1844 1843 -1828 0
-1845 1844 1829 0
-1845 -1844 -1829 0
1845 -1844 1829 0
1845 1844 -1829 0
-1846 1845 1830 0
-1846 -1845 -1830 0
1846 -1845 1830 0
1846 1845 -1830 0
-1846 0
-1847 1566 0
-1847 41 0
1847 -1566 -41 0
-1848 1568 0
-1848 41 0
1848 -1568 -41 0
-1849 1570 0
-1849 45 0
1849 -1570 -45 0
-1850 1572 0
-1850 37 0
1850 -1572 -37 0
-1851 1574 0
-1851 45 0
1851 -1574 -45 0
-1852 1576 0
-1852 37 0
1852 -1576 -37 0
-1853 1578 0
-1853 35 0
1853 -1578 -35 0
-1854 1580 0
-1854 35 0
1854 -1580 -35 0
-1855 1582 0
-1855 36 0
1855 -1582 -36 0
-1856 1584 0
-1856 34 0
1856 -1584 -34 0
-1857 1586 0
-1857 36 0
1857 -1586 -36 0
-1858 1588 0
-1858 34 0
1858 -1588 -34 0
-1859 1590 0
-1859 89 0
1859 -1590 -89 0
-1860 1592 0
-1860 93 0
1860 -1592 -93 0
-1861 1594 0
-1861 93 0
1861 -1594 -93 0
-1862 1596 0
-1862 137 0
1862 -1596 -137 0
-1863 1598 0
-1863 185 0
1863 -1598 -185 0
-1864 1847 1848 0
-1864 -1847 -1848 0
1864 -1847 1848 0
1864 1847 -1848 0
-1865 1864 1849 0
-1865 -1864 -1849 0
1865 -1864 1849 0
1865 1864 -1849 0
-1866 1865 1850 0
-1866 -1865 -1850 0
1866 -1865 1850 0
1866 1865 -1850 0
-1867 1866 1851 0
-1867 -1866 -1851 0
1867 -1866 1851 0
1867 1866 -1851 0
-1868 1867 1852 0
-1868 -1867 -1852 0
1868 -1867 1852 0
1868 1867 -1852 0
-1869 1868 1853 0
-1869 -1868 -1853 0
1869 -1868 1853 0
1869 1868 -1853 0
-1870 1869 1854 0
-1870 -1869 -1854 0
1870 -1869 1854 0
1870 1869 -1854 0
-1871 1870 1855 0
-1871 -1870 -1855 0
1871 -1870 1855 0
1871 1870 -1855 0
-1872 1871 1856 0
-1872 -1871 -1856 0
1872 -1871 1856 0
1872 1871 -1856 0
-1873 1872 1857 0
-1873 -1872 -1857 0
1873 -1872 1857 0
1873 1872 -1857 0
-1874 1873 1858 0
-1874 -1873 -1858 0
1874 -1873 1858 0
1874 1873 -1858 0
-1875 1874 1859 0
-1875 -1874 -1859 0
1875 -1874 1859 0
1875 1874 -1859 0
-1876 1875 1860 0
-1876 -1875 -1860 0
1876 -1875 1860 0
1876 1875 -1860 0
-1877 1876 1861 0
-1877 -1876 -1861 0
1877 -1876 1861 0
1877 1876 -1861 0
-1878 1877 1862 0
-1878 -1877 -1862 0
1878 -1877 1862 0
1878 1877 -1862 0
-1879 1878 1863 0
-1879 -1878 -1863 0
1879 -1878 1863 0
1879 1878 -1863 0
-1879 0
-1880 1566 0
-1880 42 0
1880 -1566 -42 0
-1881 1568 0
-1881 44 0
1881 -1568 -44 0
-1882 1570 0
-1882 46 0
1882 -1570 -46 0
-1883 1572 0
-1883 40 0
1883 -1572 -40 0
-1884 1574 0
-1884 47 0
1884 -1574 -47 0
-1885 1576 0
-1885 39 0
1885 -1576 -39 0
-1886 1578 0
-1886 39 0
1886 -1578 -39 0
-1887 1580 0
-1887 47 0
1887 -1580 -47 0
-1888 1582 0
-1888 40 0
1888 -1582 -40 0
-1889 1584 0
-1889 46 0
1889 -1584 -46 0
-1890 1586 0
-1890 44 0
1890 -1586 -44 0
-1891 1588 0
-1891 42 0
1891 -1588 -42 0
-1892 1590 0
-1892 90 0
1892 -1590 -90 0
-1893 1592 0
-1893 94 0
1893 -1592 -94 0
-1894 1594 0
-1894 95 0
1894 -1594 -95 0
-1895 1596 0
-1895 138 0
1895 -1596 -138 0
-1896 1598 0
-1896 186 0
1896 -1598 -186 0
-1897 1880 1881 0
-1897 -1880 -1881 0
1897 -1880 1881 0
1897 1880 -1881 0
-1898 1897 1882 0
-1898 -1897 -1882 0
1898 -1897 1882 0
1898 1897 -1882 0
-1899 1898 1883 0
-1899 -1898 -1883 0
1899 -1898 1883 0
1899 1898 -1883 0
-1900 1899 1884 0
-1900 -1899 -1884 0
1900 -1899 1884 0
1900 1899 -1884 0
-1901 1900 1885 0
-1901 -1900 -1885 0
1901 -1900 1885 0
1901 1900 -1885 0
-1902 1901 1886 0
-1902 -1901 -1886 0
1902 -1901 1886 0
1902 1901 -1886 0
-1903 1902 1887 0
-1903 -1902 -1887 0
1903 -1902 1887 0
1903 1902 -1887 0
-1904 1903 1888 0
-1904 -1903 -1888 0
1904 -1903 1888 0
1904 1903 -1888 0
-1905 1904 1889 0
-1905 -1904 -1889 0
1905 -1904 1889 0
1905 1904 -1889 0
-1906 1905 1890 0
-1906 -1905 -1890 0
1906 -1905 1890 0
1906 1905 -1890 0
-1907 1906 1891 0
-1907 -1906 -1891 0
1907 -1906 1891 0
1907 1906 -1891 0
-1908 1907 1892 0
-1908 -1907 -1892 0
1908 -1907 1892 0
1908 1907 -1892 0
-1909 1908 1893 0
-1909 -1908 -1893 0
1909 -1908 1893 0
1909 1908 -1893 0
-1910 1909 1894 0
-1910 -1909 -1894 0
1910 -1909 1894 0
1910 1909 -1894 0
-1911 1910 1895 0
-1911 -1910 -1895 0
1911 -1910 1895 0
1911 1910 -1895 0
-1912 1911 1896 0
-1912 -1911 -1896 0
1912 -1911 1896 0
1912 1911 -1896 0
-1912 0
-1913 1566 0
-1913 43 0
1913 -1566 -43 0
-1914 1568 0
-1914 43 0
1914 -1568 -43 0
-1915 1570 0
-1915 48 0
1915 -1570 -48 0
-1916 1572 0
-1916 38 0
1916 -1572 -38 0
-1917 1574 0
-1917 48 0
1917 -1574 -48 0
-1918 1576 0
-1918 38 0
1918 -1576 -38 0
-1919 1578 0
-1919 43 0
1919 -1578 -43 0
-1920 1580 0
-1920 43 0
1920 -1580 -43 0
-1921 1582 0
-1921 48 0
1921 -1582 -48 0
-1922 1584 0
-1922 38 0
1922 -1584 -38 0
-1923 1586 0
-1923 48 0
1923 -1586 -48 0
-1924 1588 0
-1924 38 0
1924 -1588 -38 0
-1925 1590 0
-1925 91 0
1925 -1590 -91 0
-1926 1592 0
-1926 96 0
1926 -1592 -96 0
-1927 1594 0
-1927 96 0
1927 -1594 -96 0
-1928 1596 0
-1928 139 0
1928 -1596 -139 0
-1929 1598 0
-1929 187 0
1929 -1598 -187 0
-1930 1913 1914 0
-1930 -1913 -1914 0
1930 -1913 1914 0
1930 1913 -1914 0
-1931 1930 1915 0
-1931 -1930 -1915 0
1931 -1930 1915 0
1931 1930 -1915 0
-1932 1931 1916 0
-1932 -1931 -1916 0
1932 -1931 1916 0
1932 1931 -1916 0
-1933 1932 1917 0
-1933 -1932 -1917 0
1933 -1932 1917 0
1933 1932 -1917 0
-1934 1933 1918 0
-1934 -1933 -1918 0
1934 -1933 1918 0
1934 1933 -1918 0
-1935 1934 1919 0
-1935 -1934 -1919 0
1935 -1934 1919 0
1935 1934 -1919 0
-1936 1935 1920 0
-1936 -1935 -1920 0
1936 -1935 1920 0
1936 1935 -1920 0
-1937 1936 1921 0
-1937 -1936 -1921 0
1937 -1936 1921 0
1937 1936 -1921 0
-1938 1937 1922 0
-1938 -1937 -1922 0
1938 -1937 1922 0
1938 1937 -1922 0
-1939 1938 1923 0
-1939 -1938 -1923 0
1939 -1938 1923 0
1939 1938 -1923 0
-1940 1939 1924 0
-1940 -1939 -1924 0
1940 -1939 1924 0
1940 1939 -1924 0
-1941 1940 1925 0
-1941 -1940 -1925 0
1941 -1940 1925 0
1941 1940 -1925 0
-1942 1941 1926 0
-1942 -1941 -1926 0
1942 -1941 1926 0
1942 1941 -1926 0
-1943 1942 1927 0
-1943 -1942 -1927 0
1943 -1942 1927 0
1943 1942 -1927 0
-1944 1943 1928 0
-1944 -1943 -1928 0
1944 -1943 1928 0
1944 1943 -1928 0
-1945 1944 1929 0
-1945 -1944 -1929 0
1945 -1944 1929 0
1945 1944 -1929 0
-1945 0
-1946 1566 0
-1946 44 0
1946 -1566 -44 0
-1947 1568 0
-1947 42 0
1947 -1568 -42 0
-1948 1570 0
-1948 47 0
1948 -1570 -47 0
-1949 1572 0
-1949 39 0
1949 -1572 -39 0
-1950 1574 0
-1950 46 0
1950 -1574 -46 0
-1951 1576 0
-1951 40 0
1951 -1576 -40 0
-1952 1578 0
-1952 47 0
1952 -1578 -47 0
-1953 1580 0
-1953 39 0
1953 -1580 -39 0
-1954 1582 0
-1954 44 0
1954 -1582 -44 0
-1955 1584 0
-1955 42 0
1955 -1584 -42 0
-1956 1586 0
-1956 40 0
1956 -1586 -40 0
-1957 1588 0
-1957 46 0
1957 -1588 -46 0
-1958 1590 0
-1958 92 0
1958 -1590 -92 0
-1959 1592 0
-1959 95 0
1959 -1592 -95 0
-1960 1594 0
-1960 94 0
1960 -1594 -94 0
-1961 1596 0
-1961 140 0
1961 -1596 -140 0
-1962 1598 0
-1962 188 0
1962 -1598 -188 0
-1963 1946 1947 0
-1963 -1946 -1947 0
1963 -1946 1947 0
1963 1946 -1947 0
-1964 1963 1948 0
-1964 -1963 -1948 0
1964 -1963 1948 0
1964 1963 -1948 0
-1965 1964 1949 0
-1965 -1964 -1949 0
1965 -1964 1949 0
1965 1964 -1949 0
-1966 1965 1950 0
-1966 -1965 -1950 0
1966 -1965 1950 0
1966 1965 -1950 0
-1967 1966 1951 0
-1967 -1966 -1951 0
1967 -1966 1951 0
1967 1966 -1951 0
-1968 1967 1952 0
-1968 -1967 -1952 0
1968 -1967 1952 0
1968 1967 -1952 0
-1969 1968 1953 0
-1969 -1968 -1953 0
1969 -1968 1953 0
1969 1968 -1953 0
-1970 1969 1954 0
-1970 -1969 -1954 0
1970 -1969 1954 0
1970 1969 -1954 0
-1971 1970 1955 0
-1971 -1970 -1955 0
1971 -1970 1955 0
1971 1970 -1955 0
-1972 1971 1956 0
-1972 -1971 -1956 0
1972 -1971 1956 0
1972 1971 -1956 0
-1973 1972 1957 0
-1973 -1972 -1957 0
1973 -1972 1957 0
1973 1972 -1957 0
-1974 1973 1958 0
-1974 -1973 -1958 0
1974 -1973 1958 0
1974 1973 -1958 0
-1975 1974 1959 0
-1975 -1974 -1959 0
1975 -1974 1959 0
1975 1974 -1959 0
-1976 1975 1960 0
-1976 -1975 -1960 0
1976 -1975 1960 0
1976 1975 -1960 0
-1977 1976 1961 0
-1977 -1976 -1961 0
1977 -1976 1961 0
1977 1976 -1961 0
-1978 1977 1962 0
-1978 -1977 -1962 0
1978 -1977 1962 0
1978 1977 -1962 0
-1978 0
-1979 1566 0
-1979 45 0
1979 -1566 -45 0
-1980 1568 0
-1980 37 0
1980 -1568 -37 0
-1981 1570 0
-1981 41 0
1981 -1570 -41 0
-1982 1572 0
-1982 41 0
1982 -1572 -41 0
-1983 1574 0
-1983 37 0
1983 -1574 -37 0
-1984 1576 0
-1984 45 0
1984 -1576 -45 0
-1985 1578 0
-1985 36 0
1985 -1578 -36 0
-1986 1580 0
-1986 34 0
1986 -1580 -34 0
-1987 1582 0
-1987 35 0
1987 -1582 -35 0
-1988 1584 0
-1988 35 0
1988 -1584 -35 0
-1989 1586 0
-1989 34 0
1989 -1586 -34 0
-1990 1588 0
-1990 36 0
1990 -1588 -36 0
-1991 1590 0
-1991 93 0
1991 -1590 -93 0
-1992 1592 0
-1992 89 0
1992 -1592 -89 0
-1993 1594 0
-1993 85 0
1993 -1594 -85 0
-1994 1596 0
-1994 141 0
1994 -1596 -141 0
-1995 1598 0
-1995 189 0
1995 -1598 -189 0
-1996 1979 1980 0
-1996 -1979 -1980 0
1996 -1979 1980 0
1996 1979 -1980 0
-1997 1996 1981 0
-1997 -1996 -1981 0
1997 -1996 1981 0
1997 1996 -1981 0
-1998 1997 1982 0
-1998 -1997 -1982 0
1998 -1997 1982 0
1998 1997 -1982 0
-1999 1998 1983 0
-1999 -1998 -1983 0
1999 -1998 1983 0
1999 1998 -1983 0
-2000 1999 1984 0
-2000 -1999 -1984 0
2000 -1999 1984 0
2000 1999 -1984 0
-2001 2000 1985 0
-2001 -2000 -1985 0
2001 -2000 1985 0
2001 2000 -1985 0
-2002 2001 1986 0
-2002 -2001 -1986 0
2002 -2001 1986 0
2002 2001 -1986 0
-2003 2002 1987 0
-2003 -2002 -1987 0
2003 -2002 1987 0
2003 2002 -1987 0
-2004 2003 1988 0
-2004 -2003 -1988 0
2004 -2003 1988 0
2004 2003 -1988 0
-2005 2004 1989 0
-2005 -2004 -1989 0
2005 -2004 1989 0
2005 2004 -1989 0
-2006 2005 1990 0
-2006 -2005 -1990 0
2006 -2005 1990 0
2006 2005 -1990 0
-2007 2006 1991 0
-2007 -2006 -1991 0
2007 -2006 1991 0
2007 2006 -1991 0
-2008 2007 1992 0
-2008 -2007 -1992 0
2008 -2007 1992 0
2008 2007 -1992 0
-2009 2008 1993 0
-2009 -2008 -1993 0
2009 -2008 1993 0
2009 2008 -1993 0
-2010 2009 1994 0
-2010 -2009 -1994 0
2010 -2009 1994 0
2010 2009 -1994 0
-2011 2010 1995 0
-2011 -2010 -1995 0
2011 -2010 1995 0
2011 2010 -1995 0
-2011 0
-2012 1566 0
-2012 46 0
2012 -1566 -46 0
-2013 1568 0
-2013 40 0
2013 -1568 -40 0
-2014 1570 0
-2014 42 0
2014 -1570 -42 0
-2015 1572 0
-2015 44 0
2015 -1572 -44 0
-2016 1574 0
-2016 39 0
2016 -1574 -39 0
-2017 1576 0
-2017 47 0
2017 -1576 -47 0
-2018 1578 0
-2018 40 0
2018 -1578 -40 0
-2019 1580 0
-2019 46 0
2019 -1580 -46 0
-2020 1582 0
-2020 39 0
2020 -1582 -39 0
-2021 1584 0
-2021 47 0
2021 -1584 -47 0
-2022 1586 0
-2022 42 0
2022 -1586 -42 0
-2023 1588 0
-2023 44 0
2023 -1588 -44 0
-2024 1590 0
-2024 94 0
2024 -1590 -94 0
-2025 1592 0
-2025 90 0
2025 -1592 -90 0
-2026 1594 0
-2026 87 0
2026 -1594 -87 0
-2027 1596 0
-2027 142 0
2027 -1596 -142 0
-2028 1598 0
-2028 190 0
2028 -1598 -190 0
-2029 2012 2013 0
-2029 -2012 -2013 0
2029 -2012 2013 0
2029 2012 -2013 0
-2030 2029 2014 0
-2030 -2029 -2014 0
2030 -2029 2014 0
2030 2029 -2014 0
-2031 2030 2015 0
-2031 -2030 -2015 0
2031 -2030 2015 0
2031 2030 -2015 0
-2032 2031 2016 0
-2032 -2031 -2016 0
2032 -2031 2016 0
2032 2031 -2016 0
-2033 2032 2017 0
-2033 -2032 -2017 0
2033 -2032 2017 0
2033 2032 -2017 0
-2034 2033 2018 0
-2034 -2033 -2018 0
2034 -2033 2018 0
2034 2033 -2018 0
-2035 2034 2019 0
-2035 -2034 -2019 0
2035 -2034 2019 0
2035 2034 -2019 0
-2036 2035 2020 0
-2036 -2035 -2020 0
2036 -2035 2020 0
2036 2035 -2020 0
-2037 2036 2021 0
-2037 -2036 -2021 0
2037 -2036 2021 0
2037 2036 -2021 0
-2038 2037 2022 0
-2038 -2037 -2022 0
2038 -2037 2022 0
2038 2037 -2022 0
-2039 2038 2023 0
-2039 -2038 -2023 0
2039 -2038 2023 0
2039 2038 -2023 0
-2040 2039 2024 0
-2040 -2039 -2024 0
2040 -2039 2024 0
2040 2039 -2024 0
-2041 2040 2025 0
-2041 -2040 -2025 0
2041 -2040 2025 0
2041 2040 -2025 0
-2042 2041 2026 0
-2042 -2041 -2026 0
2042 -2041 2026 0
2042 2041 -2026 0
-2043 2042 2027 0
-2043 -2042 -2027 0
2043 -2042 2027 0
2043 2042 -2027 0
-2044 2043 2028 0
-2044 -2043 -2028 0
2044 -2043 2028 0
2044 2043 -2028 0
-2044 0
-2045 1566 0
-2045 47 0
2045 -1566 -47 0
-2046 1568 0
-2046 39 0
2046 -1568 -39 0
-2047 1570 0
-2047 44 0
2047 -1570 -44 0
-2048 1572 0
-2048 42 0
2048 -1572 -42 0
-2049 1574 0
-2049 40 0
2049 -1574 -40 0
-2050 1576 0
-2050 46 0
2050 -1576 -46 0
-2051 1578 0
-2051 44 0
2051 -1578 -44 0
-2052 1580 0
-2052 42 0
2052 -1580 -42 0
-2053 1582 0
-2053 47 0
2053 -1582 -47 0
-2054 1584 0
-2054 39 0
2054 -1584 -39 0
-2055 1586 0
-2055 46 0
2055 -1586 -46 0
-2056 1588 0
-2056 40 0
2056 -1588 -40 0
-2057 1590 0
-2057 95 0
2057 -1590 -95 0
-2058 1592 0
-2058 92 0
2058 -1592 -92 0
-2059 1594 0
-2059 88 0
2059 -1594 -88 0
-2060 1596 0
-2060 143 0
2060 -1596 -143 0
-2061 1598 0
-2061 191 0
2061 -1598 -191 0
-2062 2045 2046 0
-2062 -2045 -2046 0
2062 -2045 2046 0
2062 2045 -2046 0
-2063 2062 2047 0
-2063 -2062 -2047 0
2063 -2062 2047 0
2063 2062 -2047 0
-2064 2063 2048 0
-2064 -2063 -2048 0
2064 -2063 2048 0
2064 2063 -2048 0
-2065 2064 2049 0
-2065 -2064 -2049 0
2065 -2064 2049 0
2065 2064 -2049 0
-2066 2065 2050 0
-2066 -2065 -2050 0
2066 -2065 2050 0
2066 2065 -2050 0
-2067 2066 2051 0
-2067 -2066 -2051 0
2067 -2066 2051 0
2067 2066 -2051 0
-2068 2067 2052 0
-2068 -2067 -2052 0
2068 -2067 2052 0
2068 2067 -2052 0
-2069 2068 2053 0
-2069 -2068 -2053 0
2069 -2068 2053 0
2069 2068 -2053 0
-2070 2069 2054 0
-2070 -2069 -2054 0
2070 -2069 2054 0
2070 2069 -2054 0
-2071 2070 2055 0
-2071 -2070 -2055 0
2071 -2070 2055 0
2071 2070 -2055 0
-2072 2071 2056 0
-2072 -2071 -2056 0
2072 -2071 2056 0
2072 2071 -2056 0
-2073 2072 2057 0
-2073 -2072 -2057 0
2073 -2072 2057 0
2073 2072 -2057 0
-2074 2073 2058 0
-2074 -2073 -2058 0
2074 -2073 2058 0
2074 2073 -2058 0
-2075 2074 2059 0
-2075 -2074 -2059 0
2075 -2074 2059 0
2075 2074 -2059 0
-2076 2075 2060 0
-2076 -2075 -2060 0
2076 -2075 2060 0
2076 2075 -2060 0
-2077 2076 2061 0
-2077 -2076 -2061 0
2077 -2076 2061 0
2077 2076 -2061 0
-2077 0
-2078 1566 0
-2078 48 0
2078 -1566 -48 0
-2079 1568 0
-2079 38 0
2079 -1568 -38 0
-2080 1570 0
-2080 43 0
2080 -1570 -43 0
-2081 1572 0
-2081 43 0
2081 -1572 -43 0
-2082 1574 0
-2082 38 0
2082 -1574 -38 0
-2083 1576 0
-2083 48 0
2083 -1576 -48 0
-2084 1578 0
-2084 48 0
2084 -1578 -48 0
-2085 1580 0
-2085 38 0
2085 -1580 -38 0
-2086 1582 0
-2086 43 0
2086 -1582 -43 0
-2087 1584 0
-2087 43 0
2087 -1584 -43 0
-2088 1586 0
-2088 38 0
2088 -1586 -38 0
-2089 1588 0
-2089 48 0
2089 -1588 -48 0
-2090 1590 0
-2090 96 0
2090 -1590 -96 0
-2091 1592 0
-2091 91 0
2091 -1592 -91 0
-2092 1594 0
-2092 86 0
2092 -1594 -86 0
-2093 1596 0
-2093 144 0
2093 -1596 -144 0
-2094 1598 0
-2094 192 0
2094 -1598 -192 0
-2095 2078 2079 0
-2095 -2078 -2079 0
2095 -2078 2079 0
2095 2078 -2079 0
-2096 2095 2080 0
-2096 -2095 -2080 0
2096 -2095 2080 0
2096 2095 -2080 0
-2097 2096 2081 0
-2097 -2096 -2081 0
2097 -2096 2081 0
2097 2096 -2081 0
-2098 2097 2082 0
-2098 -2097 -2082 0
2098 -2097 2082 0
2098 2097 -2082 0
-2099 2098 2083 0
-2099 -2098 -2083 0
2099 -2098 2083 0
2099 2098 -2083 0
-2100 2099 2084 0
-2100 -2099 -2084 0
2100 -2099 2084 0
2100 2099 -2084 0
-2101 2100 2085 0
-2101 -2100 -2085 0
2101 -2100 2085 0
2101 2100 -2085 0
-2102 2101 2086 0
-2102 -2101 -2086 0
2102 -2101 2086 0
2102 2101 -2086 0
-2103 2102 2087 0
-2103 -2102 -2087 0
2103 -2102 2087 0
2103 2102 -2087 0
-2104 2103 2088 0
-2104 -2103 -2088 0
2104 -2103 2088 0
2104 2103 -2088 0
-2105 2104 2089 0
-2105 -2104 -2089 0
2105 -2104 2089 0
2105 2104 -2089 0
-2106 2105 2090 0
-2106 -2105 -2090 0
2106 -2105 2090 0
2106 2105 -2090 0
-2107 2106 2091 0
-2107 -2106 -2091 0
2107 -2106 2091 0
2107 2106 -2091 0
-2108 2107 2092 0
-2108 -2107 -2092 0
2108 -2107 2092 0
2108 2107 -2092 0
-2109 2108 2093 0
-2109 -2108 -2093 0
2109 -2108 2093 0
2109 2108 -2093 0
-2110 2109 2094 0
-2110 -2109 -2094 0
2110 -2109 2094 0
2110 2109 -2094 0
-2110 0
-2111 1 0
-2111 23 0
2111 -1 -23 0
-2112 2111 0
-2112 33 0
2112 -2111 -33 0
-2113 1 0
-2113 27 0
2113 -1 -27 0
-2114 2113 0
-2114 33 0
2114 -2113 -33 0
-2115 2 0
-2115 20 0
2115 -2 -20 0
-2116 2115 0
-2116 33 0
2116 -2115 -33 0
-2117 3 0
-2117 18 0
2117 -3 -18 0
-2118 2117 0
-2118 33 0
2118 -2117 -33 0
-2119 2 0
-2119 28 0
2119 -2 -28 0
-2120 2119 0
-2120 33 0
2120 -2119 -33 0
-2121 3 0
-2121 22 0
2121 -3 -22 0
-2122 2121 0
-2122 33 0
2122 -2121 -33 0
-2123 17 0
-2123 10 0
2123 -17 -10 0
-2124 2123 0
-2124 33 0
2124 -2123 -33 0
-2125 17 0
-2125 11 0
2125 -17 -11 0
-2126 2125 0
-2126 33 0
2126 -2125 -33 0
-2127 21 0
-2127 13 0
2127 -21 -13 0
-2128 2127 0
-2128 33 0
2128 -2127 -33 0
-2129 25 0
-2129 5 0
2129 -25 -5 0
-2130 2129 0
-2130 33 0
2130 -2129 -33 0
-2131 21 0
-2131 15 0
2131 -21 -15 0
-2132 2131 0
-2132 33 0
2132 -2131 -33 0
-2133 25 0
-2133 6 0
2133 -25 -6 0
-2134 2133 0
-2134 33 0
2134 -2133 -33 0
-2135 49 0
-2135 71 0
2135 -49 -71 0
-2136 2135 0
-2136 81 0
2136 -2135 -81 0
-2137 50 0
-2137 68 0
2137 -50 -68 0
-2138 2137 0
-2138 81 0
2138 -2137 -81 0
-2139 50 0
-2139 76 0
2139 -50 -76 0
-2140 2139 0
-2140 81 0
2140 -2139 -81 0
-2141 97 0
-2141 119 0
2141 -97 -119 0
-2142 2141 0
-2142 129 0
2142 -2141 -129 0
-2143 145 0
-2143 167 0
2143 -145 -167 0
-2144 2143 0
-2144 177 0
2144 -2143 -177 0
-2145 2112 2114 0
-2145 -2112 -2114 0
2145 -2112 2114 0
2145 2112 -2114 0
-2146 2145 2116 0
-2146 -2145 -2116 0
2146 -2145 2116 0
2146 2145 -2116 0
-2147 2146 2118 0
-2147 -2146 -2118 0
2147 -2146 2118 0
2147 2146 -2118 0
-2148 2147 2120 0
-2148 -2147 -2120 0
2148 -2147 2120 0
2148 2147 -2120 0
-2149 2148 2122 0
-2149 -2148 -2122 0
2149 -2148 2122 0
2149 2148 -2122 0
-2150 2149 2124 0
-2150 -2149 -2124 0
2150 -2149 2124 0
2150 2149 -2124 0
-2151 2150 2126 0
-2151 -2150 -2126 0
2151 -2150 2126 0
2151 2150 -2126 0
-2152 2151 2128 0
-2152 -2151 -2128 0
2152 -2151 2128 0
2152 2151 -2128 0
-2153 2152 2130 0
-2153 -2152 -2130 0
2153 -2152 2130 0
2153 2152 -2130 0
-2154 2153 2132 0
-2154 -2153 -2132 0
2154 -2153 2132 0
2154 2153 -2132 0
-2155 2154 2134 0
-2155 -2154 -2134 0
2155 -2154 2134 0
2155 2154 -2134 0
-2156 2155 2136 0
-2156 -2155 -2136 0
2156 -2155 2136 0
2156 2155 -2136 0
-2157 2156 2138 0
-2157 -2156 -2138 0
2157 -2156 2138 0
2157 2156 -2138 0
-2158 2157 2140 0
-2158 -2157 -2140 0
2158 -2157 2140 0
2158 2157 -2140 0
-2159 2158 2142 0
-2159 -2158 -2142 0
2159 -2158 2142 0
2159 2158 -2142 0
-2160 2159 2144 0
-2160 -2159 -2144 0
2160 -2159 2144 0
2160 2159 -2144 0
-2160 0
-2161 2111 0
-2161 34 0
2161 -2111 -34 0
-2162 2113 0
-2162 36 0
2162 -2113 -36 0
-2163 2115 0
-2163 34 0
2163 -2115 -34 0
-2164 2117 0
-2164 36 0
2164 -2117 -36 0
-2165 2119 0
-2165 35 0
2165 -2119 -35 0
-2166 2121 0
-2166 35 0
2166 -2121 -35 0
-2167 2123 0
-2167 37 0
2167 -2123 -37 0
-2168 2125 0
-2168 45 0
2168 -2125 -45 0
-2169 2127 0
-2169 37 0
2169 -2127 -37 0
-2170 2129 0
-2170 45 0
2170 -2129 -45 0
-2171 2131 0
-2171 41 0
2171 -2131 -41 0
-2172 2133 0
-2172 41 0
2172 -2133 -41 0
-2173 2135 0
-2173 82 0
2173 -2135 -82 0
-2174 2137 0
-2174 82 0
2174 -2137 -82 0
-2175 2139 0
-2175 83 0
2175 -2139 -83 0
-2176 2141 0
-2176 130 0
2176 -2141 -130 0
-2177 2143 0
-2177 178 0
2177 -2143 -178 0
-2178 2161 2162 0
-2178 -2161 -2162 0
2178 -2161 2162 0
2178 2161 -2162 0
-2179 2178 2163 0
-2179 -2178 -2163 0
2179 -2178 2163 0
2179 2178 -2163 0
-2180 2179 2164 0
-2180 -2179 -2164 0
2180 -2179 2164 0
2180 2179 -2164 0
-2181 2180 2165 0
-2181 -2180 -2165 0
2181 -2180 2165 0
2181 2180 -2165 0
-2182 2181 2166 0
-2182 -2181 -2166 0
2182 -2181 2166 0
2182 2181 -2166 0
-2183 2182 2167 0
-2183 -2182 -2167 0
2183 -2182 2167 0
2183 2182 -2167 0
-2184 2183 2168 0
-2184 -2183 -2168 0
2184 -2183 2168 0
2184 2183 -2168 0
-2185 2184 2169 0
-2185 -2184 -2169 0
2185 -2184 2169 0
2185 2184 -2169 0
-2186 2185 2170 0
-2186 -2185 -2170 0
2186 -2185 2170 0
2186 2185 -2170 0
-2187 2186 2171 0
-2187 -2186 -2171 0
2187 -2186 2171 0
2187 2186 -2171 0
-2188 2187 2172 0
-2188 -2187 -2172 0
2188 -2187 2172 0
2188 2187 -2172 0
-2189 2188 2173 0
-2189 -2188 -2173 0
2189 -2188 2173 0
2189 2188 -2173 0
-2190 2189 2174 0
-2190 -2189 -2174 0
2190 -2189 2174 0
2190 2189 -2174 0
-2191 2190 2175 0
-2191 -2190 -2175 0
2191 -2190 2175 0
2191 2190 -2175 0
-2192 2191 2176 0
-2192 -2191 -2176 0
2192 -2191 2176 0
2192 2191 -2176 0
-2193 2192 2177 0
-2193 -2192 -2177 0
2193 -2192 2177 0
2193 2192 -2177 0
-2193 0
-2194 2111 0
-2194 35 0
2194 -2111 -35 0
-2195 2113 0
-2195 35 0
2195 -2113 -35 0
-2196 2115 0
-2196 36 0
2196 -2115 -36 0
-2197 2117 0
-2197 34 0
2197 -2117 -34 0
-2198 2119 0
-2198 36 0
2198 -2119 -36 0
-2199 2121 0
-2199 34 0
2199 -2121 -34 0
-2200 2123 0
-2200 41 0
2200 -2123 -41 0
-2201 2125 0
-2201 41 0
2201 -2125 -41 0
-2202 2127 0
-2202 45 0
2202 -2127 -45 0
-2203 2129 0
-2203 37 0
2203 -2129 -37 0
-2204 2131 0
-2204 45 0
2204 -2131 -45 0
-2205 2133 0
-2205 37 0
2205 -2133 -37 0
-2206 2135 0
-2206 83 0
2206 -2135 -83 0
-2207 2137 0
-2207 84 0
2207 -2137 -84 0
-2208 2139 0
-2208 84 0
2208 -2139 -84 0
-2209 2141 0
-2209 131 0
2209 -2141 -131 0
-2210 2143 0
-2210 179 0
2210 -2143 -179 0
-2211 2194 2195 0
-2211 -2194 -2195 0
2211 -2194 2195 0
2211 2194 -2195 0
-2212 2211 2196 0
-2212 -2211 -2196 0
2212 -2211 2196 0
2212 2211 -2196 0
-2213 2212 2197 0
-2213 -2212 -2197 0
2213 -2212 2197 0
2213 2212 -2197 0
-2214 2213 2198 0
-2214 -2213 -2198 0
2214 -2213 2198 0
2214 2213 -2198 0
-2215 2214 2199 0
-2215 -2214 -2199 0
2215 -2214 2199 0
2215 2214 -2199 0
-2216 2215 2200 0
-2216 -2215 -2200 0
2216 -2215 2200 0
2216 2215 -2200 0
-2217 2216 2201 0
-2217 -2216 -2201 0
2217 -2216 2201 0
2217 2216 -2201 0
-2218 2217 2202 0
-2218 -2217 -2202 0
2218 -2217 2202 0
2218 2217 -2202 0
-2219 2218 2203 0
-2219 -2218 -2203 0
2219 -2218 2203 0
2219 2218 -2203 0
-2220 2219 2204 0
-2220 -2219 -2204 0
2220 -2219 2204 0
2220 2219 -2204 0
-2221 2220 2205 0
-2221 -2220 -2205 0
2221 -2220 2205 0
2221 2220 -2205 0
-2222 2221 2206 0
-2222 -2221 -2206 0
2222 -2221 2206 0
2222 2221 -2206 0
-2223 2222 2207 0
-2223 -2222 -2207 0
2223 -2222 2207 0
2223 2222 -2207 0
-2224 2223 2208 0
-2224 -2223 -2208 0
2224 -2223 2208 0
2224 2223 -2208 0
-2225 2224 2209 0
-2225 -2224 -2209 0
2225 -2224 2209 0
2225 2224 -2209 0
-2226 2225 2210 0
-2226 -2225 -2210 0
2226 -2225 2210 0
2226 2225 -2210 0
-2226 0
-2227 2111 0
-2227 36 0
2227 -2111 -36 0
-2228 2113 0
-2228 34 0
2228 -2113 -34 0
-2229 2115 0
-2229 35 0
2229 -2115 -35 0
-2230 2117 0
-2230 35 0
2230 -2117 -35 0
-2231 2119 0
-2231 34 0
2231 -2119 -34 0
-2232 2121 0
-2232 36 0
2232 -2121 -36 0
-2233 2123 0
-2233 45 0
2233 -2123 -45 0
-2234 2125 0
-2234 37 0
2234 -2125 -37 0
-2235 2127 0
-2235 41 0
2235 -2127 -41 0
-2236 2129 0
-2236 41 0
2236 -2129 -41 0
-2237 2131 0
-2237 37 0
2237 -2131 -37 0
-2238 2133 0
-2238 45 0
2238 -2133 -45 0
-2239 2135 0
-2239 84 0
2239 -2135 -84 0
-2240 2137 0
-2240 83 0
2240 -2137 -83 0
-2241 2139 0
-2241 82 0
2241 -2139 -82 0
-2242 2141 0
-2242 132 0
2242 -2141 -132 0
-2243 2143 0
-2243 180 0
2243 -2143 -180 0
-2244 2227 2228 0
-2244 -2227 -2228 0
2244 -2227 2228 0
2244 2227 -2228 0
-2245 2244 2229 0
-2245 -2244 -2229 0
2245 -2244 2229 0
2245 2244 -2229 0
-2246 2245 2230 0
-2246 -2245 -2230 0
2246 -2245 2230 0
2246 2245 -2230 0
-2247 2246 2231 0
-2247 -2246 -2231 0
2247 -2246 2231 0
2247 2246 -2231 0
-2248 2247 2232 0
-2248 -2247 -2232 0
2248 -2247 2232 0
2248 2247 -2232 0
-2249 2248 2233 0
-2249 -2248 -2233 0
2249 -2248 2233 0
2249 2248 -2233 0
-2250 2249 2234 0
-2250 -2249 -2234 0
2250 -2249 2234 0
2250 2249 -2234 0
-2251 2250 2235 0
-2251 -2250 -2235 0
2251 -2250 2235 0
2251 2250 -2235 0
-2252 2251 2236 0
-2252 -2251 -2236 0
2252 -2251 2236 0
2252 2251 -2236 0
-2253 2252 2237 0
-2253 -2252 -2237 0
2253 -2252 2237 0
2253 2252 -2237 0
-2254 2253 2238 0
-2254 -2253 -2238 0
2254 -2253 2238 0
2254 2253 -2238 0
-2255 2254 2239 0
-2255 -2254 -2239 0
2255 -2254 2239 0
2255 2254 -2239 0
-2256 2255 2240 0
-2256 -2255 -2240 0
2256 -2255 2240 0
2256 2255 -2240 0
-2257 2256 2241 0
-2257 -2256 -2241 0
2257 -2256 2241 0
2257 2256 -2241 0
-2258 2257 2242 0
-2258 -2257 -2242 0
2258 -2257 2242 0
2258 2257 -2242 0
-2259 2258 2243 0
-2259 -2258 -2243 0
2259 -2258 2243 0
2259 2258 -2243 0
-2259 0
-2260 2111 0
-2260 37 0
2260 -2111 -37 0
-2261 2113 0
-2261 45 0
2261 -2113 -45 0
-2262 2115 0
-2262 37 0
2262 -2115 -37 0
-2263 2117 0
-2263 45 0
2263 -2117 -45 0
-2264 2119 0
-2264 41 0
2264 -2119 -41 0
-2265 2121 0
-2265 41 0
2265 -2121 -41 0
-2266 2123 0
-2266 34 0
2266 -2123 -34 0
-2267 2125 0
-2267 36 0
2267 -2125 -36 0
-2268 2127 0
-2268 34 0
2268 -2127 -34 0
-2269 2129 0
-2269 36 0
2269 -2129 -36 0
-2270 2131 0
-2270 35 0
2270 -2131 -35 0
-2271 2133 0
-2271 35 0
2271 -2133 -35 0
-2272 2135 0
-2272 85 0
2272 -2135 -85 0
-2273 2137 0
-2273 85 0
2273 -2137 -85 0
-2274 2139 0
-2274 89 0
2274 -2139 -89 0
-2275 2141 0
-2275 133 0
2275 -2141 -133 0
-2276 2143 0
-2276 181 0
2276 -2143 -181 0
-2277 2260 2261 0
-2277 -2260 -2261 0
2277 -2260 2261 0
2277 2260 -2261 0
-2278 2277 2262 0
-2278 -2277 -2262 0
2278 -2277 2262 0
2278 2277 -2262 0
-2279 2278 2263 0
-2279 -2278 -2263 0
2279 -2278 2263 0
2279 2278 -2263 0
-2280 2279 2264 0
-2280 -2279 -2264 0
2280 -2279 2264 0
2280 2279 -2264 0
-2281 2280 2265 0
-2281 -2280 -2265 0
2281 -2280 2265 0
2281 2280 -2265 0
-2282 2281 2266 0
-2282 -2281 -2266 0
2282 -2281 2266 0
2282 2281 -2266 0
-2283 2282 2267 0
-2283 -2282 -2267 0
2283 -2282 2267 0
2283 2282 -2267 0
-2284 2283 2268 0
-2284 -2283 -2268 0
2284 -2283 2268 0
2284 2283 -2268 0
-2285 2284 2269 0
-2285 -2284 -2269 0
2285 -2284 2269 0
2285 2284 -2269 0
-2286 2285 2270 0
-2286 -2285 -2270 0
2286 -2285 2270 0
2286 2285 -2270 0
-2287 2286 2271 0
-2287 -2286 -2271 0
2287 -2286 2271 0
2287 2286 -2271 0
-2288 2287 2272 0
-2288 -2287 -2272 0
2288 -2287 2272 0
2288 2287 -2272 0
-2289 2288 2273 0
-2289 -2288 -2273 0
2289 -2288 2273 0
2289 2288 -2273 0
-2290 2289 2274 0
-2290 -2289 -2274 0
2290 -2289 2274 0
2290 2289 -2274 0
-2291 2290 2275 0
-2291 -2290 -2275 0
2291 -2290 2275 0
2291 2290 -2275 0
-2292 2291 2276 0
-2292 -2291 -2276 0
2292 -2291 2276 0
2292 2291 -2276 0
-2292 0
-2293 2111 0
-2293 38 0
2293 -2111 -38 0
-2294 2113 0
-2294 48 0
2294 -2113 -48 0
-2295 2115 0
-2295 38 0
2295 -2115 -38 0
-2296 2117 0
-2296 48 0
2296 -2117 -48 0
-2297 2119 0
-2297 43 0
2297 -2119 -43 0
-2298 2121 0
-2298 43 0
2298 -2121 -43 0
-2299 2123 0
-2299 38 0
2299 -2123 -38 0
-2300 2125 0
-2300 48 0
2300 -2125 -48 0
-2301 2127 0
-2301 38 0
2301 -2127 -38 0
-2302 2129 0
-2302 48 0
2302 -2129 -48 0
-2303 2131 0
-2303 43 0
2303 -2131 -43 0
-2304 2133 0
-2304 43 0
2304 -2133 -43 0
-2305 2135 0
-2305 86 0
2305 -2135 -86 0
-2306 2137 0
-2306 86 0
2306 -2137 -86 0
-2307 2139 0
-2307 91 0
2307 -2139 -91 0
-2308 2141 0
-2308 134 0
2308 -2141 -134 0
-2309 2143 0
-2309 182 0
2309 -2143 -182 0
-2310 2293 2294 0
-2310 -2293 -2294 0
2310 -2293 2294 0
2310 2293 -2294 0
-2311 2310 2295 0
-2311 -2310 -2295 0
2311 -2310 2295 0
2311 2310 -2295 0
-2312 2311 2296 0
-2312 -2311 -2296 0
2312 -2311 2296 0
2312 2311 -2296 0
-2313 2312 2297 0
-2313 -2312 -2297 0
2313 -2312 2297 0
2313 2312 -2297 0
-2314 2313 2298 0
-2314 -2313 -2298 0
2314 -2313 2298 0
2314 2313 -2298 0
-2315 2314 2299 0
-2315 -2314 -2299 0
2315 -2314 2299 0
2315 2314 -2299 0
-2316 2315 2300 0
-2316 -2315 -2300 0
2316 -2315 2300 0
2316 2315 -2300 0
-2317 2316 2301 0
-2317 -2316 -2301 0
2317 -2316 2301 0
2317 2316 -2301 0
-2318 2317 2302 0
-2318 -2317 -2302 0
2318 -2317 2302 0
2318 2317 -2302 0
-2319 2318 2303 0
-2319 -2318 -2303 0
2319 -2318 2303 0
2319 2318 -2303 0
-2320 2319 2304 0
-2320 -2319 -2304 0
2320 -2319 2304 0
2320 2319 -2304 0
-2321 2320 2305 0
-2321 -2320 -2305 0
2321 -2320 2305 0
2321 2320 -2305 0
-2322 2321 2306 0
-2322 -2321 -2306 0
2322 -2321 2306 0
2322 2321 -2306 0
-2323 2322 2307 0
-2323 -2322 -2307 0
2323 -2322 2307 0
2323 2322 -2307 0
-2324 2323 2308 0
-2324 -2323 -2308 0
2324 -2323 2308 0
2324 2323 -2308 0
-2325 2324 2309 0
-2325 -2324 -2309 0
2325 -2324 2309 0
2325 2324 -2309 0
-2325 0
-2326 2111 0
-2326 39 0
2326 -2111 -39 0
-2327 2113 0
-2327 47 0
2327 -2113 -47 0
-2328 2115 0
-2328 40 0
2328 -2115 -40 0
-2329 2117 0
-2329 46 0
2329 -2117 -46 0
-2330 2119 0
-2330 44 0
2330 -2119 -44 0
-2331 2121 0
-2331 42 0
2331 -2121 -42 0
-2332 2123 0
-2332 42 0
2332 -2123 -42 0
-2333 2125 0
-2333 44 0
2333 -2125 -44 0
-2334 2127 0
-2334 46 0
2334 -2127 -46 0
-2335 2129 0
-2335 40 0
2335 -2129 -40 0
-2336 2131 0
-2336 47 0
2336 -2131 -47 0
-2337 2133 0
-2337 39 0
2337 -2133 -39 0
-2338 2135 0
-2338 87 0
2338 -2135 -87 0
-2339 2137 0
-2339 88 0
2339 -2137 -88 0
-2340 2139 0
-2340 92 0
2340 -2139 -92 0
-2341 2141 0
-2341 135 0
2341 -2141 -135 0
-2342 2143 0
-2342 183 0
2342 -2143 -183 0
-2343 2326 2327 0
-2343 -2326 -2327 0
2343 -2326 2327 0
2343 2326 -2327 0
-2344 2343 2328 0
-2344 -2343 -2328 0
2344 -2343 2328 0
2344 2343 -2328 0
-2345 2344 2329 0
-2345 -2344 -2329 0
2345 -2344 2329 0
2345 2344 -2329 0
-2346 2345 2330 0
-2346 -2345 -2330 0
2346 -2345 2330 0
2346 2345 -2330 0
-2347 2346 2331 0
-2347 -2346 -2331 0
2347 -2346 2331 0
2347 2346 -2331 0
-2348 2347 2332 0
-2348 -2347 -2332 0
2348 -2347 2332 0
2348 2347 -2332 0
-2349 2348 2333 0
-2349 -2348 -2333 0
2349 -2348 2333 0
2349 2348 -2333 0
-2350 2349 2334 0
-2350 -2349 -2334 0
2350 -2349 2334 0
2350 2349 -2334 0
-2351 2350 2335 0
-2351 -2350 -2335 0
2351 -2350 2335 0
2351 2350 -2335 0
-2352 2351 2336 0
-2352 -2351 -2336 0
2352 -2351 2336 0
2352 2351 -2336 0
-2353 2352 2337 0
-2353 -2352 -2337 0
2353 -2352 2337 0
2353 2352 -2337 0
-2354 2353 2338 0
-2354 -2353 -2338 0
2354 -2353 2338 0
2354 2353 -2338 0
-2355 2354 2339 0
-2355 -2354 -2339 0
2355 -2354 2339 0
2355 2354 -2339 0
-2356 2355 2340 0
-2356 -2355 -2340 0
2356 -2355 2340 0
2356 2355 -2340 0
-2357 2356 2341 0
-2357 -2356 -2341 0
2357 -2356 2341 0
2357 2356 -2341 0
-2358 2357 2342 0
-2358 -2357 -2342 0
2358 -2357 2342 0
2358 2357 -2342 0
-2358 0
-2359 2111 0
-2359 40 0
2359 -2111 -40 0
-2360 2113 0
-2360 46 0
2360 -2113 -46 0
-2361 2115 0
-2361 39 0
2361 -2115 -39 0
-2362 2117 0
-2362 47 0
2362 -2117 -47 0
-2363 2119 0
-2363 42 0
2363 -2119 -42 0
-2364 2121 0
-2364 44 0
2364 -2121 -44 0
-2365 2123 0
-2365 46 0
2365 -2123 -46 0
-2366 2125 0
-2366 40 0
2366 -2125 -40 0
-2367 2127 0
-2367 42 0
2367 -2127 -42 0
-2368 2129 0
-2368 44 0
2368 -2129 -44 0
-2369 2131 0
-2369 39 0
2369 -2131 -39 0
-2370 2133 0
-2370 47 0
2370 -2133 -47 0
-2371 2135 0
-2371 88 0
2371 -2135 -88 0
-2372 2137 0
-2372 87 0
2372 -2137 -87 0
-2373 2139 0
-2373 90 0
2373 -2139 -90 0
-2374 2141 0
-2374 136 0
2374 -2141 -136 0
-2375 2143 0
-2375 184 0
2375 -2143 -184 0
-2376 2359 2360 0
-2376 -2359 -2360 0
2376 -2359 2360 0
2376 2359 -2360 0
-2377 2376 2361 0
-2377 -2376 -2361 0
2377 -2376 2361 0
2377 2376 -2361 0
-2378 2377 2362 0
-2378 -2377 -2362 0
2378 -2377 2362 0
2378 2377 -2362 0
-2379 2378 2363 0
-2379 -2378 -2363 0
2379 -2378 2363 0
2379 2378 -2363 0
-2380 2379 2364 0
-2380 -2379 -2364 0
2380 -2379 2364 0
2380 2379 -2364 0
-2381 2380 2365 0
-2381 -2380 -2365 0
2381 -2380 2365 0
2381 2380 -2365 0
-2382 2381 2366 0
-2382 -2381 -2366 0
2382 -2381 2366 0
2382 2381 -2366 0
-2383 2382 2367 0
-2383 -2382 -2367 0
2383 -2382 2367 0
2383 2382 -2367 0
-2384 2383 2368 0
-2384 -2383 -2368 0
2384 -2383 2368 0
2384 2383 -2368 0
-2385 2384 2369 0
-2385 -2384 -2369 0
2385 -2384 2369 0
2385 2384 -2369 0
-2386 2385 2370 0
-2386 -2385 -2370 0
2386 -2385 2370 0
2386 2385 -2370 0
-2387 2386 2371 0
-2387 -2386 -2371 0
2387 -2386 2371 0
2387 2386 -2371 0
-2388 2387 2372 0
-2388 -2387 -2372 0
2388 -2387 2372 0
2388 2387 -2372 0
-2389 2388 2373 0
-2389 -2388 -2373 0
2389 -2388 2373 0
2389 2388 -2373 0
-2390 2389 2374 0
-2390 -2389 -2374 0
2390 -2389 2374 0
2390 2389 -2374 0
-2391 2390 2375 0
-2391 -2390 -2375 0
2391 -2390 2375 0
2391 2390 -2375 0
-2391 0
-2392 2111 0
-2392 41 0
2392 -2111 -41 0
-2393 2113 0
-2393 41 0
2393 -2113 -41 0
-2394 2115 0
-2394 45 0
2394 -2115 -45 0
-2395 2117 0
-2395 37 0
2395 -2117 -37 0
-2396 2119 0
-2396 45 0
2396 -2119 -45 0
-2397 2121 0
-2397 37 0
2397 -2121 -37 0
-2398 2123 0
-2398 35 0
2398 -2123 -35 0
-2399 2125 0
-2399 35 0
2399 -2125 -35 0
-2400 2127 0
-2400 36 0
2400 -2127 -36 0
-2401 2129 0
-2401 34 0
2401 -2129 -34 0
-2402 2131 0
-2402 36 0
2402 -2131 -36 0
-2403 2133 0
-2403 34 0
2403 -2133 -34 0
-2404 2135 0
-2404 89 0
2404 -2135 -89 0
-2405 2137 0
-2405 93 0
2405 -2137 -93 0
-2406 2139 0
-2406 93 0
2406 -2139 -93 0
-2407 2141 0
-2407 137 0
2407 -2141 -137 0
-2408 2143 0
-2408 185 0
2408 -2143 -185 0
-2409 2392 2393 0
-2409 -2392 -2393 0
2409 -2392 2393 0
2409 2392 -2393 0
-2410 2409 2394 0
-2410 -2409 -2394 0
2410 -2409 2394 0
2410 2409 -2394 0
-2411 2410 2395 0
-2411 -2410 -2395 0
2411 -2410 2395 0
2411 2410 -2395 0
-2412 2411 2396 0
-2412 -2411 -2396 0
2412 -2411 2396 0
2412 2411 -2396 0
-2413 2412 2397 0
-2413 -2412 -2397 0
2413 -2412 2397 0
2413 2412 -2397 0
-2414 2413 2398 0
-2414 -2413 -2398 0
2414 -2413 2398 0
2414 2413 -2398 0
-2415 2414 2399 0
-2415 -2414 -2399 0
2415 -2414 2399 0
2415 2414 -2399 0
-2416 2415 2400 0
-2416 -2415 -2400 0
2416 -2415 2400 0
2416 2415 -2400 0
-2417 2416 2401 0
-2417 -2416 -2401 0
2417 -2416 2401 0
2417 2416 -2401 0
-2418 2417 2402 0
-2418 -2417 -2402 0
2418 -2417 2402 0
2418 2417 -2402 0
-2419 2418 2403 0
-2419 -2418 -2403 0
2419 -2418 2403 0
2419 2418 -2403 0
-2420 2419 2404 0
-2420 -2419 -2404 0
2420 -2419 2404 0
2420 2419 -2404 0
-2421 2420 2405 0
-2421 -2420 -2405 0
2421 -2420 2405 0
2421 2420 -2405 0
-2422 2421 2406 0
-2422 -2421 -2406 0
2422 -2421 2406 0
2422 2421 -2406 0
-2423 2422 2407 0
-2423 -2422 -2407 0
2423 -2422 2407 0
2423 2422 -2407 0
-2424 2423 2408 0
-2424 -2423 -2408 0
2424 -2423 2408 0
2424 2423 -2408 0
-2424 0
-2425 2111 0
-2425 42 0
2425 -2111 -42 0
-2426 2113 0
-2426 44 0
2426 -2113 -44 0
-2427 2115 0
-2427 46 0
2427 -2115 -46 0
-2428 2117 0
-2428 40 0
2428 -2117 -40 0
-2429 2119 0
-2429 47 0
2429 -2119 -47 0
-2430 2121 0
-2430 39 0
2430 -2121 -39 0
-2431 2123 0
-2431 39 0
2431 -2123 -39 0
-2432 2125 0
-2432 47 0
2432 -2125 -47 0
-2433 2127 0
-2433 40 0
2433 -2127 -40 0
-2434 2129 0
-2434 46 0
2434 -2129 -46 0
-2435 2131 0
-2435 44 0
2435 -2131 -44 0
-2436 2133 0
-2436 42 0
2436 -2133 -42 0
-2437 2135 0
-2437 90 0
2437 -2135 -90 0
-2438 2137 0
-2438 94 0
2438 -2137 -94 0
-2439 2139 0
-2439 95 0
2439 -2139 -95 0
-2440 2141 0
-2440 138 0
2440 -2141 -138 0
-2441 2143 0
-2441 186 0
2441 -2143 -186 0
-2442 2425 2426 0
-2442 -2425 -2426 0
2442 -2425 2426 0
2442 2425 -2426 0
-2443 2442 2427 0
-2443 -2442 -2427 0
2443 -2442 2427 0
2443 2442 -2427 0
-2444 2443 2428 0
-2444 -2443 -2428 0
2444 -2443 2428 0
2444 2443 -2428 0
-2445 2444 2429 0
-2445 -2444 -2429 0
2445 -2444 2429 0
2445 2444 -2429 0
-2446 2445 2430 0
-2446 -2445 -2430 0
2446 -2445 2430 0
2446 2445 -2430 0
-2447 2446 2431 0
-2447 -2446 -2431 0
2447 -2446 2431 0
2447 2446 -2431 0
-2448 2447 2432 0
-2448 -2447 -2432 0
2448 -2447 2432 0
2448 2447 -2432 0
-2449 2448 2433 0
-2449 -2448 -2433 0
2449 -2448 2433 0
2449 2448 -2433 0
-2450 2449 2434 0
-2450 -2449 -2434 0
2450 -2449 2434 0
2450 2449 -2434 0
-2451 2450 2435 0
-2451 -2450 -2435 0
2451 -2450 2435 0
2451 2450 -2435 0
-2452 2451 2436 0
-2452 -2451 -2436 0
2452 -2451 2436 0
2452 2451 -2436 0
-2453 2452 2437 0
-2453 -2452 -2437 0
2453 -2452 2437 0
2453 2452 -2437 0
-2454 2453 2438 0
-2454 -2453 -2438 0
2454 -2453 2438 0
2454 2453 -2438 0
-2455 2454 2439 0
-2455 -2454 -2439 0
2455 -2454 2439 0
2455 2454 -2439 0
-2456 2455 2440 0
-2456 -2455 -2440 0
2456 -2455 2440 0
2456 2455 -2440 0
-2457 2456 2441 0
-2457 -2456 -2441 0
2457 -2456 2441 0
2457 2456 -2441 0
-2457 0
-2458 2111 0
-2458 43 0
2458 -2111 -43 0
-2459 2113 0
-2459 43 0
2459 -2113 -43 0
-2460 2115 0
-2460 48 0
2460 -2115 -48 0
-2461 2117 0
-2461 38 0
2461 -2117 -38 0
-2462 2119 0
-2462 48 0
2462 -2119 -48 0
-2463 2121 0
-2463 38 0
2463 -2121 -38 0
-2464 2123 0
-2464 43 0
2464 -2123 -43 0
-2465 2125 0
-2465 43 0
2465 -2125 -43 0
-2466 2127 0
-2466 48 0
2466 -2127 -48 0
-2467 2129 0
-2467 38 0
2467 -2129 -38 0
-2468 2131 0
-2468 48 0
2468 -2131 -48 0
-2469 2133 0
-2469 38 0
2469 -2133 -38 0
-2470 2135 0
-2470 91 0
2470 -2135 -91 0
-2471 2137 0
-2471 96 0
2471 -2137 -96 0
-2472 2139 0
-2472 96 0
2472 -2139 -96 0
-2473 2141 0
-2473 139 0
2473 -2141 -139 0
-2474 2143 0
-2474 187 0
2474 -2143 -187 0
-2475 2458 2459 0
-2475 -2458 -2459 0
2475 -2458 2459 0
2475 2458 -2459 0
-2476 2475 2460 0
-2476 -2475 -2460 0
2476 -2475 2460 0
2476 2475 -2460 0
-2477 2476 2461 0
-2477 -2476 -2461 0
2477 -2476 2461 0
2477 2476 -2461 0
-2478 2477 2462 0
-2478 -2477 -2462 0
2478 -2477 2462 0
2478 2477 -2462 0
-2479 2478 2463 0
-2479 -2478 -2463 0
2479 -2478 2463 0
2479 2478 -2463 0
-2480 2479 2464 0
-2480 -2479 -2464 0
2480 -2479 2464 0
2480 2479 -2464 0
-2481 2480 2465 0
-2481 -2480 -2465 0
2481 -2480 2465 0
2481 2480 -2465 0
-2482 2481 2466 0
-2482 -2481 -2466 0
2482 -2481 2466 0
2482 2481 -2466 0
-2483 2482 2467 0
-2483 -2482 -2467 0
2483 -2482 2467 0
2483 2482 -2467 0
-2484 2483 2468 0
-2484 -2483 -2468 0
2484 -2483 2468 0
2484 2483 -2468 0
-2485 2484 2469 0
-2485 -2484 -2469 0
2485 -2484 2469 0
2485 2484 -2469 0
-2486 2485 2470 0
-2486 -2485 -2470 0
2486 -2485 2470 0
2486 2485 -2470 0
-2487 2486 2471 0
-2487 -2486 -2471 0
2487 -2486 2471 0
2487 2486 -2471 0
-2488 2487 2472 0
-2488 -2487 -2472 0
2488 -2487 2472 0
2488 2487 -2472 0
-2489 2488 2473 0
-2489 -2488 -2473 0
2489 -2488 2473 0
2489 2488 -2473 0
-2490 2489 2474 0
-2490 -2489 -2474 0
2490 -2489 2474 0
2490 2489 -2474 0
-2490 0
-2491 2111 0
-2491 44 0
2491 -2111 -44 0
-2492 2113 0
-2492 42 0
2492 -2113 -42 0
-2493 2115 0
-2493 47 0
2493 -2115 -47 0
-2494 2117 0
-2494 39 0
2494 -2117 -39 0
-2495 2119 0
-2495 46 0
2495 -2119 -46 0
-2496 2121 0
-2496 40 0
2496 -2121 -40 0
-2497 2123 0
-2497 47 0
2497 -2123 -47 0
-2498 2125 0
-2498 39 0
2498 -2125 -39 0
-2499 2127 0
-2499 44 0
2499 -2127 -44 0
-2500 2129 0
-2500 42 0
2500 -2129 -42 0
-2501 2131 0
-2501 40 0
2501 -2131 -40 0
-2502 2133 0
-2502 46 0
2502 -2133 -46 0
-2503 2135 0
-2503 92 0
2503 -2135 -92 0
-2504 2137 0
-2504 95 0
2504 -2137 -95 0
-2505 2139 0
-2505 94 0
2505 -2139 -94 0
-2506 2141 0
-2506 140 0
2506 -2141 -140 0
-2507 2143 0
-2507 188 0
2507 -2143 -188 0
-2508 2491 2492 0
-2508 -2491 -2492 0
2508 -2491 2492 0
2508 2491 -2492 0
-2509 2508 2493 0
-2509 -2508 -2493 0
2509 -2508 2493 0
2509 2508 -2493 0
-2510 2509 2494 0
-2510 -2509 -2494 0
2510 -2509 2494 0
2510 2509 -2494 0
-2511 2510 2495 0
-2511 -2510 -2495 0
2511 -2510 2495 0
2511 2510 -2495 0
-2512 2511 2496 0
-2512 -2511 -2496 0
2512 -2511 2496 0
2512 2511 -2496 0
-2513 2512 2497 0
-2513 -2512 -2497 0
2513 -2512 2497 0
2513 2512 -2497 0
-2514 2513 2498 0
-2514 -2513 -2498 0
2514 -2513 2498 0
2514 2513 -2498 0
-2515 2514 2499 0
-2515 -2514 -2499 0
2515 -2514 2499 0
2515 2514 -2499 0
-2516 2515 2500 0
-2516 -2515 -2500 0
2516 -2515 2500 0
2516 2515 -2500 0
-2517 2516 2501 0
-2517 -2516 -2501 0
2517 -2516 2501 0
2517 2516 -2501 0
-2518 2517 2502 0
-2518 -2517 -2502 0
2518 -2517 2502 0
2518 2517 -2502 0
-2519 2518 2503 0
-2519 -2518 -2503 0
2519 -2518 2503 0
2519 2518 -2503 0
-2520 2519 2504 0
-2520 -2519 -2504 0
2520 -2519 2504 0
2520 2519 -2504 0
-2521 2520 2505 0
-2521 -2520 -2505 0
2521 -2520 2505 0
2521 2520 -2505 0
-2522 2521 2506 0
-2522 -2521 -2506 0
2522 -2521 2506 0
2522 2521 -2506 0
-2523 2522 2507 0
-2523 -2522 -2507 0
2523 -2522 2507 0
2523 2522 -2507 0
-2523 0
-2524 2111 0
-2524 45 0
2524 -2111 -45 0
-2525 2113 0
-2525 37 0
2525 -2113 -37 0
-2526 2115 0
-2526 41 0
2526 -2115 -41 0
-2527 2117 0
-2527 41 0
2527 -2117 -41 0
-2528 2119 0
-2528 37 0
2528 -2119 -37 0
-2529 2121 0
-2529 45 0
2529 -2121 -45 0
-2530 2123 0
-2530 36 0
2530 -2123 -36 0
-2531 2125 0
-2531 34 0
2531 -2125 -34 0
-2532 2127 0
-2532 35 0
2532 -2127 -35 0
-2533 2129 0
-2533 35 0
2533 -2129 -35 0
-2534 2131 0
-2534 34 0
2534 -2131 -34 0
-2535 2133 0
-2535 36 0
2535 -2133 -36 0
-2536 2135 0
-2536 93 0
2536 -2135 -93 0
-2537 2137 0
-2537 89 0
2537 -2137 -89 0
-2538 2139 0
-2538 85 0
2538 -2139 -85 0
-2539 2141 0
-2539 141 0
2539 -2141 -141 0
-2540 2143 0
-2540 189 0
2540 -2143 -189 0
-2541 2524 2525 0
-2541 -2524 -2525 0
2541 -2524 2525 0
2541 2524 -2525 0
-2542 2541 2526 0
-2542 -2541 -2526 0
2542 -2541 2526 0
2542 2541 -2526 0
-2543 2542 2527 0
-2543 -2542 -2527 0
2543 -2542 2527 0
2543 2542 -2527 0
-2544 2543 2528 0
-2544 -2543 -2528 0
2544 -2543 2528 0
2544 2543 -2528 0
-2545 2544 2529 0
-2545 -2544 -2529 0
2545 -2544 2529 0
2545 2544 -2529 0
-2546 2545 2530 0
-2546 -2545 -2530 0
2546 -2545 2530 0
2546 2545 -2530 0
-2547 2546 2531 0
-2547 -2546 -2531 0
2547 -2546 2531 0
2547 2546 -2531 0
-2548 2547 2532 0
-2548 -2547 -2532 0
2548 -2547 2532 0
2548 2547 -2532 0
-2549 2548 2533 0
-2549 -2548 -2533 0
2549 -2548 2533 0
2549 2548 -2533 0
-2550 2549 2534 0
-2550 -2549 -2534 0
2550 -2549 2534 0
2550 2549 -2534 0
-2551 2550 2535 0
-2551 -2550 -2535 0
2551 -2550 2535 0
2551 2550 -2535 0
-2552 2551 2536 0
-2552 -2551 -2536 0
2552 -2551 2536 0
2552 2551 -2536 0
-2553 2552 2537 0
-2553 -2552 -2537 0
2553 -2552 2537 0
2553 2552 -2537 0
-2554 2553 2538 0
-2554 -2553 -2538 0
2554 -2553 2538 0
2554 2553 -2538 0
-2555 2554 2539 0
-2555 -2554 -2539 0
2555 -2554 2539 0
2555 2554 -2539 0
-2556 2555 2540 0
-2556 -2555 -2540 0
2556 -2555 2540 0
2556 2555 -2540 0
-2556 0
-2557 2111 0
-2557 46 0
2557 -2111 -46 0
-2558 2113 0
-2558 40 0
2558 -2113 -40 0
-2559 2115 0
-2559 42 0
2559 -2115 -42 0
-2560 2117 0
-2560 44 0
2560 -2117 -44 0
-2561 2119 0
-2561 39 0
2561 -2119 -39 0
-2562 2121 0
-2562 47 0
2562 -2121 -47 0
-2563 2123 0
-2563 40 0
2563 -2123 -40 0
-2564 2125 0
-2564 46 0
2564 -2125 -46 0
-2565 2127 0
-2565 39 0
2565 -2127 -39 0
-2566 2129 0
-2566 47 0
2566 -2129 -47 0
-2567 2131 0
-2567 42 0
2567 -2131 -42 0
-2568 2133 0
-2568 44 0
2568 -2133 -44 0
-2569 2135 0
-2569 94 0
2569 -2135 -94 0
-2570 2137 0
-2570 90 0
2570 -2137 -90 0
-2571 2139 0
-2571 87 0
2571 -2139 -87 0
-2572 2141 0
-2572 142 0
2572 -2141 -142 0
-2573 2143 0
-2573 190 0
2573 -2143 -190 0
-2574 2557 2558 0
-2574 -2557 -2558 0
2574 -2557 2558 0
2574 2557 -2558 0
-2575 2574 2559 0
-2575 -2574 -2559 0
2575 -2574 2559 0
2575 2574 -2559 0
-2576 2575 2560 0
-2576 -2575 -2560 0
2576 -2575 2560 0
2576 2575 -2560 0
-2577 2576 2561 0
-2577 -2576 -2561 0
2577 -2576 2561 0
2577 2576 -2561 0
-2578 2577 2562 0
-2578 -2577 -2562 0
2578 -2577 2562 0
2578 2577 -2562 0
-2579 2578 2563 0
-2579 -2578 -2563 0
2579 -2578 2563 0
2579 2578 -2563 0
-2580 2579 2564 0
-2580 -2579 -2564 0
2580 -2579 2564 0
2580 2579 -2564 0
-2581 2580 2565 0
-2581 -2580 -2565 0
2581 -2580 2565 0
2581 2580 -2565 0
-2582 2581 2566 0
-2582 -2581 -2566 0
2582 -2581 2566 0
2582 2581 -2566 0
-2583 2582 2567 0
-2583 -2582 -2567 0
2583 -2582 2567 0
2583 2582 -2567 0
-2584 2583 2568 0
-2584 -2583 -2568 0
2584 -2583 2568 0
2584 2583 -2568 0
-2585 2584 2569 0
-2585 -2584 -2569 0
2585 -2584 2569 0
2585 2584 -2569 0
-2586 2585 2570 0
-2586 -2585 -2570 0
2586 -2585 2570 0
2586 2585 -2570 0
-2587 2586 2571 0
-2587 -2586 -2571 0
2587 -2586 2571 0
2587 2586 -2571 0
-2588 2587 2572 0
-2588 -2587 -2572 0
2588 -2587 2572 0
2588 2587 -2572 0
-2589 2588 2573 0
-2589 -2588 -2573 0
2589 -2588 2573 0
2589 2588 -2573 0
-2589 0
-2590 2111 0
-2590 47 0
2590 -2111 -47 0
-2591 2113 0
-2591 39 0
2591 -2113 -39 0
-2592 2115 0
-2592 44 0
2592 -2115 -44 0
-2593 2117 0
-2593 42 0
2593 -2117 -42 0
-2594 2119 0
-2594 40 0
2594 -2119 -40 0
-2595 2121 0
-2595 46 0
2595 -2121 -46 0
-2596 2123 0
-2596 44 0
2596 -2123 -44 0
-2597 2125 0
-2597 42 0
2597 -2125 -42 0
-2598 2127 0
-2598 47 0
2598 -2127 -47 0
-2599 2129 0
-2599 39 0
2599 -2129 -39 0
-2600 2131 0
-2600 46 0
2600 -2131 -46 0
-2601 2133 0
-2601 40 0
2601 -2133 -40 0
-2602 2135 0
-2602 95 0
2602 -2135 -95 0
-2603 2137 0
-2603 92 0
2603 -2137 -92 0
-2604 2139 0
-2604 88 0
2604 -2139 -88 0
-2605 2141 0
-2605 143 0
2605 -2141 -143 0
-2606 2143 0
-2606 191 0
2606 -2143 -191 0
-2607 2590 2591 0
-2607 -2590 -2591 0
2607 -2590 2591 0
2607 2590 -2591 0
-2608 2607 2592 0
-2608 -2607 -2592 0
2608 -2607 2592 0
2608 2607 -2592 0
-2609 2608 2593 0
-2609 -2608 -2593 0
2609 -2608 2593 0
2609 2608 -2593 0
-2610 2609 2594 0
-2610 -2609 -2594 0
2610 -2609 2594 0
2610 2609 -2594 0
-2611 2610 2595 0
-2611 -2610 -2595 0
2611 -2610 2595 0
2611 2610 -2595 0
-2612 2611 2596 0
-2612 -2611 -2596 0
2612 -2611 2596 0
2612 2611 -2596 0
-2613 2612 2597 0
-2613 -2612 -2597 0
2613 -2612 2597 0
2613 2612 -2597 0
-2614 2613 2598 0
-2614 -2613 -2598 0
2614 -2613 2598 0
2614 2613 -2598 0
-2615 2614 2599 0
-2615 -2614 -2599 0
2615 -2614 2599 0
2615 2614 -2599 0
-2616 2615 2600 0
-2616 -2615 -2600 0
2616 -2615 2600 0
2616 2615 -2600 0
-2617 2616 2601 0
-2617 -2616 -2601 0
2617 -2616 2601 0
2617 2616 -2601 0
-2618 2617 2602 0
-2618 -2617 -2602 0
2618 -2617 2602 0
2618 2617 -2602 0
-2619 2618 2603 0
-2619 -2618 -2603 0
2619 -2618 2603 0
2619 2618 -2603 0
-2620 2619 2604 0
-2620 -2619 -2604 0
2620 -2619 2604 0
2620 2619 -2604 0
-2621 2620 2605 0
-2621 -2620 -2605 0
2621 -2620 2605 0
2621 2620 -2605 0
-2622 2621 2606 0
-2622 -2621 -2606 0
2622 -2621 2606 0
2622 2621 -2606 0
-2622 0
-2623 2111 0
-2623 48 0
2623 -2111 -48 0
-2624 2113 0
-2624 38 0
2624 -2113 -38 0
-2625 2115 0
-2625 43 0
2625 -2115 -43 0
-2626 2117 0
-2626 43 0
2626 -2117 -43 0
-2627 2119 0
-2627 38 0
2627 -2119 -38 0
-2628 2121 0
-2628 48 0
2628 -2121 -48 0
-2629 2123 0
-2629 48 0
2629 -2123 -48 0
-2630 2125 0
-2630 38 0
2630 -2125 -38 0
-2631 2127 0
-2631 43 0
2631 -2127 -43 0
-2632 2129 0
-2632 43 0
2632 -2129 -43 0
-2633 2131 0
-2633 38 0
2633 -2131 -38 0
-2634 2133 0
-2634 48 0
2634 -2133 -48 0
-2635 2135 0
-2635 96 0
2635 -2135 -96 0
-2636 2137 0
-2636 91 0
2636 -2137 -91 0
-2637 2139 0
-2637 86 0
2637 -2139 -86 0
-2638 2141 0
-2638 144 0
2638 -2141 -144 0
-2639 2143 0
-2639 192 0
2639 -2143 -192 0
-2640 2623 2624 0
-2640 -2623 -2624 0
2640 -2623 2624 0
2640 2623 -2624 0
-2641 2640 2625 0
-2641 -2640 -2625 0
2641 -2640 2625 0
2641 2640 -2625 0
-2642 2641 2626 0
-2642 -2641 -2626 0
2642 -2641 2626 0
2642 2641 -2626 0
-2643 2642 2627 0
-2643 -2642 -2627 0
2643 -2642 2627 0
2643 2642 -2627 0
-2644 2643 2628 0
-2644 -2643 -2628 0
2644 -2643 2628 0
2644 2643 -2628 0
-2645 2644 2629 0
-2645 -2644 -2629 0
2645 -2644 2629 0
2645 2644 -2629 0
-2646 2645 2630 0
-2646 -2645 -2630 0
2646 -2645 2630 0
2646 2645 -2630 0
-2647 2646 2631 0
-2647 -2646 -2631 0
2647 -2646 2631 0
2647 2646 -2631 0
-2648 2647 2632 0
-2648 -2647 -2632 0
2648 -2647 2632 0
2648 2647 -2632 0
-2649 2648 2633 0
-2649 -2648 -2633 0
2649 -2648 2633 0
2649 2648 -2633 0
-2650 2649 2634 0
-2650 -2649 -2634 0
2650 -2649 2634 0
2650 2649 -2634 0
-2651 2650 2635 0
-2651 -2650 -2635 0
2651 -2650 2635 0
2651 2650 -2635 0
-2652 2651 2636 0
-2652 -2651 -2636 0
2652 -2651 2636 0
2652 2651 -2636 0
-2653 2652 2637 0
-2653 -2652 -2637 0
2653 -2652 2637 0
2653 2652 -2637 0
-2654 2653 2638 0
-2654 -2653 -2638 0
2654 -2653 2638 0
2654 2653 -2638 0
-2655 2654 2639 0
-2655 -2654 -2639 0
2655 -2654 2639 0
2655 2654 -2639 0
-2655 0
-2656 1 0
-2656 24 0
2656 -1 -24 0
-2657 2656 0
-2657 33 0
2657 -2656 -33 0
-2658 1 0
-2658 26 0
2658 -1 -26 0
-2659 2658 0
-2659 33 0
2659 -2658 -33 0
-2660 2 0
-2660 19 0
2660 -2 -19 0
-2661 2660 0
-2661 33 0
2661 -2660 -33 0
-2662 3 0
-2662 19 0
2662 -3 -19 0
-2663 2662 0
-2663 33 0
2663 -2662 -33 0
-2664 2 0
-2664 26 0
2664 -2 -26 0
-2665 2664 0
-2665 33 0
2665 -2664 -33 0
-2666 3 0
-2666 24 0
2666 -3 -24 0
-2667 2666 0
-2667 33 0
2667 -2666 -33 0
-2668 17 0
-2668 14 0
2668 -17 -14 0
-2669 2668 0
-2669 33 0
2669 -2668 -33 0
-2670 17 0
-2670 7 0
2670 -17 -7 0
-2671 2670 0
-2671 33 0
2671 -2670 -33 0
-2672 21 0
-2672 9 0
2672 -21 -9 0
-2673 2672 0
-2673 33 0
2673 -2672 -33 0
-2674 25 0
-2674 9 0
2674 -25 -9 0
-2675 2674 0
-2675 33 0
2675 -2674 -33 0
-2676 21 0
-2676 7 0
2676 -21 -7 0
-2677 2676 0
-2677 33 0
2677 -2676 -33 0
-2678 25 0
-2678 14 0
2678 -25 -14 0
-2679 2678 0
-2679 33 0
2679 -2678 -33 0
-2680 49 0
-2680 72 0
2680 -49 -72 0
-2681 2680 0
-2681 81 0
2681 -2680 -81 0
-2682 50 0
-2682 67 0
2682 -50 -67 0
-2683 2682 0
-2683 81 0
2683 -2682 -81 0
-2684 50 0
-2684 74 0
2684 -50 -74 0
-2685 2684 0
-2685 81 0
2685 -2684 -81 0
-2686 97 0
-2686 120 0
2686 -97 -120 0
-2687 2686 0
-2687 129 0
2687 -2686 -129 0
-2688 145 0
-2688 168 0
2688 -145 -168 0
-2689 2688 0
-2689 177 0
2689 -2688 -177 0
-2690 2657 2659 0
-2690 -2657 -2659 0
2690 -2657 2659 0
2690 2657 -2659 0
-2691 2690 2661 0
-2691 -2690 -2661 0
2691 -2690 2661 0
2691 2690 -2661 0
-2692 2691 2663 0
-2692 -2691 -2663 0
2692 -2691 2663 0
2692 2691 -2663 0
-2693 2692 2665 0
-2693 -2692 -2665 0
2693 -2692 2665 0
2693 2692 -2665 0
-2694 2693 2667 0
-2694 -2693 -2667 0
2694 -2693 2667 0
2694 2693 -2667 0
-2695 2694 2669 0
-2695 -2694 -2669 0
2695 -2694 2669 0
2695 2694 -2669 0
-2696 2695 2671 0
-2696 -2695 -2671 0
2696 -2695 2671 0
2696 2695 -2671 0
-2697 2696 2673 0
-2697 -2696 -2673 0
2697 -2696 2673 0
2697 2696 -2673 0
-2698 2697 2675 0
-2698 -2697 -2675 0
2698 -2697 2675 0
2698 2697 -2675 0
-2699 2698 2677 0
-2699 -2698 -2677 0
2699 -2698 2677 0
2699 2698 -2677 0
-2700 2699 2679 0
-2700 -2699 -2679 0
2700 -2699 2679 0
2700 2699 -2679 0
-2701 2700 2681 0
-2701 -2700 -2681 0
2701 -2700 2681 0
2701 2700 -2681 0
-2702 2701 2683 0
-2702 -2701 -2683 0
2702 -2701 2683 0
2702 2701 -2683 0
-2703 2702 2685 0
-2703 -2702 -2685 0
2703 -2702 2685 0
2703 2702 -2685 0
-2704 2703 2687 0
-2704 -2703 -2687 0
2704 -2703 2687 0
2704 2703 -2687 0
-2705 2704 2689 0
-2705 -2704 -2689 0
2705 -2704 2689 0
2705 2704 -2689 0
-2705 0
-2706 2656 0
-2706 34 0
2706 -2656 -34 0
-2707 2658 0
-2707 36 0
2707 -2658 -36 0
-2708 2660 0
-2708 34 0
2708 -2660 -34 0
-2709 2662 0
-2709 36 0
2709 -2662 -36 0
-2710 2664 0
-2710 35 0
2710 -2664 -35 0
-2711 2666 0
-2711 35 0
2711 -2666 -35 0
-2712 2668 0
-2712 37 0
2712 -2668 -37 0
-2713 2670 0
-2713 45 0
2713 -2670 -45 0
-2714 2672 0
-2714 37 0
2714 -2672 -37 0
-2715 2674 0
-2715 45 0
2715 -2674 -45 0
-2716 2676 0
-2716 41 0
2716 -2676 -41 0
-2717 2678 0
-2717 41 0
2717 -2678 -41 0
-2718 2680 0
-2718 82 0
2718 -2680 -82 0
-2719 2682 0
-2719 82 0
2719 -2682 -82 0
-2720 2684 0
-2720 83 0
2720 -2684 -83 0
-2721 2686 0
-2721 130 0
2721 -2686 -130 0
-2722 2688 0
-2722 178 0
2722 -2688 -178 0
-2723 2706 2707 0
-2723 -2706 -2707 0
2723 -2706 2707 0
2723 2706 -2707 0
-2724 2723 2708 0
-2724 -2723 -2708 0
2724 -2723 2708 0
2724 2723 -2708 0
-2725 2724 2709 0
-2725 -2724 -2709 0
2725 -2724 2709 0
2725 2724 -2709 0
-2726 2725 2710 0
-2726 -2725 -2710 0
2726 -2725 2710 0
2726 2725 -2710 0
-2727 2726 2711 0
-2727 -2726 -2711 0
2727 -2726 2711 0
2727 2726 -2711 0
-2728 2727 2712 0
-2728 -2727 -2712 0
2728 -2727 2712 0
2728 2727 -2712 0
-2729 2728 2713 0
-2729 -2728 -2713 0
2729 -2728 2713 0
2729 2728 -2713 0
-2730 2729 2714 0
-2730 -2729 -2714 0
2730 -2729 2714 0
2730 2729 -2714 0
-2731 2730 2715 0
-2731 -2730 -2715 0
2731 -2730 2715 0
2731 2730 -2715 0
-2732 2731 2716 0
-2732 -2731 -2716 0
2732 -2731 2716 0
2732 2731 -2716 0
-2733 2732 2717 0
-2733 -2732 -2717 0
2733 -2732 2717 0
2733 2732 -2717 0
-2734 2733 2718 0
-2734 -2733 -2718 0
2734 -2733 2718 0
2734 2733 -2718 0
-2735 2734 2719 0
-2735 -2734 -2719 0
2735 -2734 2719 0
2735 2734 -2719 0
-2736 2735 2720 0
-2736 -2735 -2720 0
2736 -2735 2720 0
2736 2735 -2720 0
-2737 2736 2721 0
-2737 -2736 -2721 0
2737 -2736 2721 0
2737 2736 -2721 0
-2738 2737 2722 0
-2738 -2737 -2722 0
2738 -2737 2722 0
2738 2737 -2722 0
-2738 0
-2739 2656 0
-2739 35 0
2739 -2656 -35 0
-2740 2658 0
-2740 35 0
2740 -2658 -35 0
-2741 2660 0
-2741 36 0
2741 -2660 -36 0
-2742 2662 0
-2742 34 0
2742 -2662 -34 0
-2743 2664 0
-2743 36 0
2743 -2664 -36 0
-2744 2666 0
-2744 34 0
2744 -2666 -34 0
-2745 2668 0
-2745 41 0
2745 -2668 -41 0
-2746 2670 0
-2746 41 0
2746 -2670 -41 0
-2747 2672 0
-2747 45 0
2747 -2672 -45 0
-2748 2674 0
-2748 37 0
2748 -2674 -37 0
-2749 2676 0
-2749 45 0
2749 -2676 -45 0
-2750 2678 0
-2750 37 0
2750 -2678 -37 0
-2751 2680 0
-2751 83 0
2751 -2680 -83 0
-2752 2682 0
-2752 84 0
2752 -2682 -84 0
-2753 2684 0
-2753 84 0
2753 -2684 -84 0
-2754 2686 0
-2754 131 0
2754 -2686 -131 0
-2755 2688 0
-2755 179 0
2755 -2688 -179 0
-2756 2739 2740 0
-2756 -2739 -2740 0
2756 -2739 2740 0
2756 2739 -2740 0
-2757 2756 2741 0
-2757 -2756 -2741 0
2757 -2756 2741 0
2757 2756 -2741 0
-2758 2757 2742 0
-2758 -2757 -2742 0
2758 -2757 2742 0
2758 2757 -2742 0
-2759 2758 2743 0
-2759 -2758 -2743 0
2759 -2758 2743 0
2759 2758 -2743 0
-2760 2759 2744 0
-2760 -2759 -2744 0
2760 -2759 2744 0
2760 2759 -2744 0
-2761 2760 2745 0
-2761 -2760 -2745 0
2761 -2760 2745 0
2761 2760 -2745 0
-2762 2761 2746 0
-2762 -2761 -2746 0
2762 -2761 2746 0
2762 2761 -2746 0
-2763 2762 2747 0
-2763 -2762 -2747 0
2763 -2762 2747 0
2763 2762 -2747 0
-2764 2763 2748 0
-2764 -2763 -2748 0
2764 -2763 2748 0
2764 2763 -2748 0
-2765 2764 2749 0
-2765 -2764 -2749 0
2765 -2764 2749 0
2765 2764 -2749 0
-2766 2765 2750 0
-2766 -2765 -2750 0
2766 -2765 2750 0
2766 2765 -2750 0
-2767 2766 2751 0
-2767 -2766 -2751 0
2767 -2766 2751 0
2767 2766 -2751 0
-2768 2767 2752 0
-2768 -2767 -2752 0
2768 -2767 2752 0
2768 2767 -2752 0
-2769 2768 2753 0
-2769 -2768 -2753 0
2769 -2768 2753 0
2769 2768 -2753 0
-2770 2769 2754 0
-2770 -2769 -2754 0
2770 -2769 2754 0
2770 2769 -2754 0
-2771 2770 2755 0
-2771 -2770 -2755 0
2771 -2770 2755 0
2771 2770 -2755 0
2771 0
-2772 2656 0
-2772 36 0
2772 -2656 -36 0
-2773 2658 0
-2773 34 0
2773 -2658 -34 0
-2774 2660 0
-2774 35 0
2774 -2660 -35 0
-2775 2662 0
-2775 35 0
2775 -2662 -35 0
-2776 2664 0
-2776 34 0
2776 -2664 -34 0
-2777 2666 0
-2777 36 0
2777 -2666 -36 0
-2778 2668 0
-2778 45 0
2778 -2668 -45 0
-2779 2670 0
-2779 37 0
2779 -2670 -37 0
-2780 2672 0
-2780 41 0
2780 -2672 -41 0
-2781 2674 0
-2781 41 0
2781 -2674 -41 0
-2782 2676 0
-2782 37 0
2782 -2676 -37 0
-2783 2678 0
-2783 45 0
2783 -2678 -45 0
-2784 2680 0
-2784 84 0
2784 -2680 -84 0
-2785 2682 0
-2785 83 0
2785 -2682 -83 0
-2786 2684 0
-2786 82 0
2786 -2684 -82 0
-2787 2686 0
-2787 132 0
2787 -2686 -132 0
-2788 2688 0
-2788 180 0
2788 -2688 -180 0
-2789 2772 2773 0
-2789 -2772 -2773 0
2789 -2772 2773 0
2789 2772 -2773 0
-2790 2789 2774 0
-2790 -2789 -2774 0
2790 -2789 2774 0
2790 2789 -2774 0
-2791 2790 2775 0
-2791 -2790 -2775 0
2791 -2790 2775 0
2791 2790 -2775 0
-2792 2791 2776 0
-2792 -2791 -2776 0
2792 -2791 2776 0
2792 2791 -2776 0
-2793 2792 2777 0
-2793 -2792 -2777 0
2793 -2792 2777 0
2793 2792 -2777 0
-2794 2793 2778 0
-2794 -2793 -2778 0
2794 -2793 2778 0
2794 2793 -2778 0
-2795 2794 2779 0
-2795 -2794 -2779 0
2795 -2794 2779 0
2795 2794 -2779 0
-2796 2795 2780 0
-2796 -2795 -2780 0
2796 -2795 2780 0
2796 2795 -2780 0
-2797 2796 2781 0
-2797 -2796 -2781 0
2797 -2796 2781 0
2797 2796 -2781 0
-2798 2797 2782 0
-2798 -2797 -2782 0
2798 -2797 2782 0
2798 2797 -2782 0
-2799 2798 2783 0
-2799 -2798 -2783 0
2799 -2798 2783 0
2799 2798 -2783 0
-2800 2799 2784 0
-2800 -2799 -2784 0
2800 -2799 2784 0
2800 2799 -2784 0
-2801 2800 2785 0
-2801 -2800 -2785 0
2801 -2800 2785 0
2801 2800 -2785 0
-2802 2801 2786 0
-2802 -2801 -2786 0
2802 -2801 2786 0
2802 2801 -2786 0
-2803 2802 2787 0
-2803 -2802 -2787 0
2803 -2802 2787 0
2803 2802 -2787 0
-2804 2803 2788 0
-2804 -2803 -2788 0
2804 -2803 2788 0
2804 2803 -2788 0
-2804 0
-2805 2656 0
-2805 37 0
2805 -2656 -37 0
-2806 2658 0
-2806 45 0
2806 -2658 -45 0
-2807 2660 0
-2807 37 0
2807 -2660 -37 0
-2808 2662 0
-2808 45 0
2808 -2662 -45 0
-2809 2664 0
-2809 41 0
2809 -2664 -41 0
-2810 2666 0
-2810 41 0
2810 -2666 -41 0
-2811 2668 0
-2811 34 0
2811 -2668 -34 0
-2812 2670 0
-2812 36 0
2812 -2670 -36 0
-2813 2672 0
-2813 34 0
2813 -2672 -34 0
-2814 2674 0
-2814 36 0
2814 -2674 -36 0
-2815 2676 0
-2815 35 0
2815 -2676 -35 0
-2816 2678 0
-2816 35 0
2816 -2678 -35 0
-2817 2680 0
-2817 85 0
2817 -2680 -85 0
-2818 2682 0
-2818 85 0
2818 -2682 -85 0
-2819 2684 0
-2819 89 0
2819 -2684 -89 0
-2820 2686 0
-2820 133 0
2820 -2686 -133 0
-2821 2688 0
-2821 181 0
2821 -2688 -181 0
-2822 2805 2806 0
-2822 -2805 -2806 0
2822 -2805 2806 0
2822 2805 -2806 0
-2823 2822 2807 0
-2823 -2822 -2807 0
2823 -2822 2807 0
2823 2822 -2807 0
-2824 2823 2808 0
-2824 -2823 -2808 0
2824 -2823 2808 0
2824 2823 -2808 0
-2825 2824 2809 0
-2825 -2824 -2809 0
2825 -2824 2809 0
2825 2824 -2809 0
-2826 2825 2810 0
-2826 -2825 -2810 0
2826 -2825 2810 0
2826 2825 -2810 0
-2827 2826 2811 0
-2827 -2826 -2811 0
2827 -2826 2811 0
2827 2826 -2811 0
-2828 2827 2812 0
-2828 -2827 -2812 0
2828 -2827 2812 0
2828 2827 -2812 0
-2829 2828 2813 0
-2829 -2828 -2813 0
2829 -2828 2813 0
2829 2828 -2813 0
-2830 2829 2814 0
-2830 -2829 -2814 0
2830 -2829 2814 0
2830 2829 -2814 0
-2831 2830 2815 0
-2831 -2830 -2815 0
2831 -2830 2815 0
2831 2830 -2815 0
-2832 2831 2816 0
-2832 -2831 -2816 0
2832 -2831 2816 0
2832 2831 -2816 0
-2833 2832 2817 0
-2833 -2832 -2817 0
2833 -2832 2817 0
2833 2832 -2817 0
-2834 2833 2818 0
-2834 -2833 -2818 0
2834 -2833 2818 0
2834 2833 -2818 0
-2835 2834 2819 0
-2835 -2834 -2819 0
2835 -2834 2819 0
2835 2834 -2819 0
-2836 2835 2820 0
-2836 -2835 -2820 0
2836 -2835 2820 0
2836 2835 -2820 0
-2837 2836 2821 0
-2837 -2836 -2821 0
2837 -2836 2821 0
2837 2836 -2821 0
-2837 0
-2838 2656 0
-2838 38 0
2838 -2656 -38 0
-2839 2658 0
-2839 48 0
2839 -2658 -48 0
-2840 2660 0
-2840 38 0
2840 -2660 -38 0
-2841 2662 0
-2841 48 0
2841 -2662 -48 0
-2842 2664 0
-2842 43 0
2842 -2664 -43 0
-2843 2666 0
-2843 43 0
2843 -2666 -43 0
-2844 2668 0
-2844 38 0
2844 -2668 -38 0
-2845 2670 0
-2845 48 0
2845 -2670 -48 0
-2846 2672 0
-2846 38 0
2846 -2672 -38 0
-2847 2674 0
-2847 48 0
2847 -2674 -48 0
-2848 2676 0
-2848 43 0
2848 -2676 -43 0
-2849 2678 0
-2849 43 0
2849 -2678 -43 0
-2850 2680 0
-2850 86 0
2850 -2680 -86 0
-2851 2682 0
-2851 86 0
2851 -2682 -86 0
-2852 2684 0
-2852 91 0
2852 -2684 -91 0
-2853 2686 0
-2853 134 0
2853 -2686 -134 0
-2854 2688 0
-2854 182 0
2854 -2688 -182 0
-2855 2838 2839 0
-2855 -2838 -2839 0
2855 -2838 2839 0
2855 2838 -2839 0
-2856 2855 2840 0
-2856 -2855 -2840 0
2856 -2855 2840 0
2856 2855 -2840 0
-2857 2856 2841 0
-2857 -2856 -2841 0
2857 -2856 2841 0
2857 2856 -2841 0
-2858 2857 2842 0
-2858 -2857 -2842 0
2858 -2857 2842 0
2858 2857 -2842 0
-2859 2858 2843 0
-2859 -2858 -2843 0
2859 -2858 2843 0
2859 2858 -2843 0
-2860 2859 2844 0
-2860 -2859 -2844 0
2860 -2859 2844 0
2860 2859 -2844 0
-2861 2860 2845 0
-2861 -2860 -2845 0
2861 -2860 2845 0
2861 2860 -2845 0
-2862 2861 2846 0
-2862 -2861 -2846 0
2862 -2861 2846 0
2862 2861 -2846 0
-2863 2862 2847 0
-2863 -2862 -2847 0
2863 -2862 2847 0
2863 2862 -2847 0
-2864 2863 2848 0
-2864 -2863 -2848 0
2864 -2863 2848 0
2864 2863 -2848 0
-2865 2864 2849 0
-2865 -2864 -2849 0
2865 -2864 2849 0
2865 2864 -2849 0
-2866 2865 2850 0
-2866 -2865 -2850 0
2866 -2865 2850 0
2866 2865 -2850 0
-2867 2866 2851 0
-2867 -2866 -2851 0
2867 -2866 2851 0
2867 2866 -2851 0
-2868 2867 2852 0
-2868 -2867 -2852 0
2868 -2867 2852 0
2868 2867 -2852 0
-2869 2868 2853 0
-2869 -2868 -2853 0
2869 -2868 2853 0
2869 2868 -2853 0
-2870 2869 2854 0
-2870 -2869 -2854 0
2870 -2869 2854 0
2870 2869 -2854 0
-2870 0
-2871 2656 0
-2871 39 0
2871 -2656 -39 0
-2872 2658 0
-2872 47 0
2872 -2658 -47 0
-2873 2660 0
-2873 40 0
2873 -2660 -40 0
-2874 2662 0
-2874 46 0
2874 -2662 -46 0
-2875 2664 0
-2875 44 0
2875 -2664 -44 0
-2876 2666 0
-2876 42 0
2876 -2666 -42 0
-2877 2668 0
-2877 42 0
2877 -2668 -42 0
-2878 2670 0
-2878 44 0
2878 -2670 -44 0
-2879 2672 0
-2879 46 0
2879 -2672 -46 0
-2880 2674 0
-2880 40 0
2880 -2674 -40 0
-2881 2676 0
-2881 47 0
2881 -2676 -47 0
-2882 2678 0
-2882 39 0
2882 -2678 -39 0
-2883 2680 0
-2883 87 0
2883 -2680 -87 0
-2884 2682 0
-2884 88 0
2884 -2682 -88 0
-2885 2684 0
-2885 92 0
2885 -2684 -92 0
-2886 2686 0
-2886 135 0
2886 -2686 -135 0
-2887 2688 0
-2887 183 0
2887 -2688 -183 0
-2888 2871 2872 0
-2888 -2871 -2872 0
2888 -2871 2872 0
2888 2871 -2872 0
-2889 2888 2873 0
-2889 -2888 -2873 0
2889 -2888 2873 0
2889 2888 -2873 0
-2890 2889 2874 0
-2890 -2889 -2874 0
2890 -2889 2874 0
2890 2889 -2874 0
-2891 2890 2875 0
-2891 -2890 -2875 0
2891 -2890 2875 0
2891 2890 -2875 0
-2892 2891 2876 0
-2892 -2891 -2876 0
2892 -2891 2876 0
2892 2891 -2876 0
-2893 2892 2877 0
-2893 -2892 -2877 0
2893 -2892 2877 0
2893 2892 -2877 0
-2894 2893 2878 0
-2894 -2893 -2878 0
2894 -2893 2878 0
2894 2893 -2878 0
-2895 2894 2879 0
-2895 -2894 -2879 0
2895 -2894 2879 0
2895 2894 -2879 0
-2896 2895 2880 0
-2896 -2895 -2880 0
2896 -2895 2880 0
2896 2895 -2880 0
-2897 2896 2881 0
-2897 -2896 -2881 0
2897 -2896 2881 0
2897 2896 -2881 0
-2898 2897 2882 0
-2898 -2897 -2882 0
2898 -2897 2882 0
2898 2897 -2882 0
-2899 2898 2883 0
-2899 -2898 -2883 0
2899 -2898 2883 0
2899 2898 -2883 0
-2900 2899 2884 0
-2900 -2899 -2884 0
2900 -2899 2884 0
2900 2899 -2884 0
-2901 2900 2885 0
-2901 -2900 -2885 0
2901 -2900 2885 0
2901 2900 -2885 0
-2902 2901 2886 0
-2902 -2901 -2886 0
2902 -2901 2886 0
2902 2901 -2886 0
-2903 2902 2887 0
-2903 -2902 -2887 0
2903 -2902 2887 0
2903 2902 -2887 0
-2903 0
-2904 2656 0
-2904 40 0
2904 -2656 -40 0
-2905 2658 0
-2905 46 0
2905 -2658 -46 0
-2906 2660 0
-2906 39 0
2906 -2660 -39 0
-2907 2662 0
-2907 47 0
2907 -2662 -47 0
-2908 2664 0
-2908 42 0
2908 -2664 -42 0
-2909 2666 0
-2909 44 0
2909 -2666 -44 0
-2910 2668 0
-2910 46 0
2910 -2668 -46 0
-2911 2670 0
-2911 40 0
2911 -2670 -40 0
-2912 2672 0
-2912 42 0
2912 -2672 -42 0
-2913 2674 0
-2913 44 0
2913 -2674 -44 0
-2914 2676 0
-2914 39 0
2914 -2676 -39 0
-2915 2678 0
-2915 47 0
2915 -2678 -47 0
-2916 2680 0
-2916 88 0
2916 -2680 -88 0
-2917 2682 0
-2917 87 0
2917 -2682 -87 0
-2918 2684 0
-2918 90 0
2918 -2684 -90 0
-2919 2686 0
-2919 136 0
2919 -2686 -136 0
-2920 2688 0
-2920 184 0
2920 -2688 -184 0
-2921 2904 2905 0
-2921 -2904 -2905 0
2921 -2904 2905 0
2921 2904 -2905 0
-2922 2921 2906 0
-2922 -2921 -2906 0
2922 -2921 2906 0
2922 2921 -2906 0
-2923 2922 2907 0
-2923 -2922 -2907 0
2923 -2922 2907 0
2923 2922 -2907 0
-2924 2923 2908 0
-2924 -2923 -2908 0
2924 -2923 2908 0
2924 2923 -2908 0
-2925 2924 2909 0
-2925 -2924 -2909 0
2925 -2924 2909 0
2925 2924 -2909 0
-2926 2925 2910 0
-2926 -2925 -2910 0
2926 -2925 2910 0
2926 2925 -2910 0
-2927 2926 2911 0
-2927 -2926 -2911 0
2927 -2926 2911 0
2927 2926 -2911 0
-2928 2927 2912 0
-2928 -2927 -2912 0
2928 -2927 2912 0
2928 2927 -2912 0
-2929 2928 2913 0
-2929 -2928 -2913 0
2929 -2928 2913 0
2929 2928 -2913 0
-2930 2929 2914 0
-2930 -2929 -2914 0
2930 -2929 2914 0
2930 2929 -2914 0
-2931 2930 2915 0
-2931 -2930 -2915 0
2931 -2930 2915 0
2931 2930 -2915 0
-2932 2931 2916 0
-2932 -2931 -2916 0
2932 -2931 2916 0
2932 2931 -2916 0
-2933 2932 2917 0
-2933 -2932 -2917 0
2933 -2932 2917 0
2933 2932 -2917 0
-2934 2933 2918 0
-2934 -2933 -2918 0
2934 -2933 2918 0
2934 2933 -2918 0
-2935 2934 2919 0
-2935 -2934 -2919 0
2935 -2934 2919 0
2935 2934 -2919 0
-2936 2935 2920 0
-2936 -2935 -2920 0
2936 -2935 2920 0
2936 2935 -2920 0
-2936 0
-2937 2656 0
-2937 41 0
2937 -2656 -41 0
-2938 2658 0
-2938 41 0
2938 -2658 -41 0
-2939 2660 0
-2939 45 0
2939 -2660 -45 0
-2940 2662 0
-2940 37 0
2940 -2662 -37 0
-2941 2664 0
-2941 45 0
2941 -2664 -45 0
-2942 2666 0
-2942 37 0
2942 -2666 -37 0
-2943 2668 0
-2943 35 0
2943 -2668 -35 0
-2944 2670 0
-2944 35 0
2944 -2670 -35 0
-2945 2672 0
-2945 36 0
2945 -2672 -36 0
-2946 2674 0
-2946 34 0
2946 -2674 -34 0
-2947 2676 0
-2947 36 0
2947 -2676 -36 0
-2948 2678 0
-2948 34 0
2948 -2678 -34 0
-2949 2680 0
-2949 89 0
2949 -2680 -89 0
-2950 2682 0
-2950 93 0
2950 -2682 -93 0
-2951 2684 0
-2951 93 0
2951 -2684 -93 0
-2952 2686 0
-2952 137 0
2952 -2686 -137 0
-2953 2688 0
-2953 185 0
2953 -2688 -185 0
-2954 2937 2938 0
-2954 -2937 -2938 0
2954 -2937 2938 0
2954 2937 -2938 0
-2955 2954 2939 0
-2955 -2954 -2939 0
2955 -2954 2939 0
2955 2954 -2939 0
-2956 2955 2940 0
-2956 -2955 -2940 0
2956 -2955 2940 0
2956 2955 -2940 0
-2957 2956 2941 0
-2957 -2956 -2941 0
2957 -2956 2941 0
2957 2956 -2941 0
-2958 2957 2942 0
-2958 -2957 -2942 0
2958 -2957 2942 0
2958 2957 -2942 0
-2959 2958 2943 0
-2959 -2958 -2943 0
2959 -2958 2943 0
2959 2958 -2943 0
-2960 2959 2944 0
-2960 -2959 -2944 0
2960 -2959 2944 0
2960 2959 -2944 0
-2961 2960 2945 0
-2961 -2960 -2945 0
2961 -2960 2945 0
2961 2960 -2945 0
-2962 2961 2946 0
-2962 -2961 -2946 0
2962 -2961 2946 0
2962 2961 -2946 0
-2963 2962 2947 0
-2963 -2962 -2947 0
2963 -2962 2947 0
2963 2962 -2947 0
-2964 2963 2948 0
-2964 -2963 -2948 0
2964 -2963 2948 0
2964 2963 -2948 0
-2965 2964 2949 0
-2965 -2964 -2949 0
2965 -2964 2949 0
2965 2964 -2949 0
-2966 2965 2950 0
-2966 -2965 -2950 0
2966 -2965 2950 0
2966 2965 -2950 0
-2967 2966 2951 0
-2967 -2966 -2951 0
2967 -2966 2951 0
2967 2966 -2951 0
-2968 2967 2952 0
-2968 -2967 -2952 0
2968 -2967 2952 0
2968 2967 -2952 0
-2969 2968 2953 0
-2969 -2968 -2953 0
2969 -2968 2953 0
2969 2968 -2953 0
-2969 0
-2970 2656 0
-2970 42 0
2970 -2656 -42 0
-2971 2658 0
-2971 44 0
2971 -2658 -44 0
-2972 2660 0
-2972 46 0
2972 -2660 -46 0
-2973 2662 0
-2973 40 0
2973 -2662 -40 0
-2974 2664 0
-2974 47 0
2974 -2664 -47 0
-2975 2666 0
-2975 39 0
2975 -2666 -39 0
-2976 2668 0
-2976 39 0
2976 -2668 -39 0
-2977 2670 0
-2977 47 0
2977 -2670 -47 0
-2978 2672 0
-2978 40 0
2978 -2672 -40 0
-2979 2674 0
-2979 46 0
2979 -2674 -46 0
-2980 2676 0
-2980 44 0
2980 -2676 -44 0
-2981 2678 0
-2981 42 0
2981 -2678 -42 0
-2982 2680 0
-2982 90 0
2982 -2680 -90 0
-2983 2682 0
-2983 94 0
2983 -2682 -94 0
-2984 2684 0
-2984 95 0
2984 -2684 -95 0
-2985 2686 0
-2985 138 0
2985 -2686 -138 0
-2986 2688 0
-2986 186 0
2986 -2688 -186 0
-2987 2970 2971 0
-2987 -2970 -2971 0
2987 -2970 2971 0
2987 2970 -2971 0
-2988 2987 2972 0
-2988 -2987 -2972 0
2988 -2987 2972 0
2988 2987 -2972 0
-2989 2988 2973 0
-2989 -2988 -2973 0
2989 -2988 2973 0
2989 2988 -2973 0
-2990 2989 2974 0
-2990 -2989 -2974 0
2990 -2989 2974 0
2990 2989 -2974 0
-2991 2990 2975 0
-2991 -2990 -2975 0
2991 -2990 2975 0
2991 2990 -2975 0
-2992 2991 2976 0
-2992 -2991 -2976 0
2992 -2991 2976 0
2992 2991 -2976 0
-2993 2992 2977 0
-2993 -2992 -2977 0
2993 -2992 2977 0
2993 2992 -2977 0
-2994 2993 2978 0
-2994 -2993 -2978 0
2994 -2993 2978 0
2994 2993 -2978 0
-2995 2994 2979 0
-2995 -2994 -2979 0
2995 -2994 2979 0
2995 2994 -2979 0
-2996 2995 2980 0
-2996 -2995 -2980 0
2996 -2995 2980 0
2996 2995 -2980 0
-2997 2996 2981 0
-2997 -2996 -2981 0
2997 -2996 2981 0
2997 2996 -2981 0
-2998 2997 2982 0
-2998 -2997 -2982 0
2998 -2997 2982 0
2998 2997 -2982 0
-2999 2998 2983 0
-2999 -2998 -2983 0
2999 -2998 2983 0
2999 2998 -2983 0
-3000 2999 2984 0
-3000 -2999 -2984 0
3000 -2999 2984 0
3000 2999 -2984 0
-3001 3000 2985 0
-3001 -3000 -2985 0
3001 -3000 2985 0
3001 3000 -2985 0
-3002 3001 2986 0
-3002 -3001 -2986 0
3002 -3001 2986 0
3002 3001 -2986 0
-3002 0
-3003 2656 0
-3003 43 0
3003 -2656 -43 0
-3004 2658 0
-3004 43 0
3004 -2658 -43 0
-3005 2660 0
-3005 48 0
3005 -2660 -48 0
-3006 2662 0
-3006 38 0
3006 -2662 -38 0
-3007 2664 0
-3007 48 0
3007 -2664 -48 0
-3008 2666 0
-3008 38 0
3008 -2666 -38 0
-3009 2668 0
-3009 43 0
3009 -2668 -43 0
-3010 2670 0
-3010 43 0
3010 -2670 -43 0
-3011 2672 0
-3011 48 0
3011 -2672 -48 0
-3012 2674 0
-3012 38 0
3012 -2674 -38 0
-3013 2676 0
-3013 48 0
3013 -2676 -48 0
-3014 2678 0
-3014 38 0
3014 -2678 -38 0
-3015 2680 0
-3015 91 0
3015 -2680 -91 0
-3016 2682 0
-3016 96 0
3016 -2682 -96 0
-3017 2684 0
-3017 96 0
3017 -2684 -96 0
-3018 2686 0
-3018 139 0
3018 -2686 -139 0
-3019 2688 0
-3019 187 0
3019 -2688 -187 0
-3020 3003 3004 0
-3020 -3003 -3004 0
3020 -3003 3004 0
3020 3003 -3004 0
-3021 3020 3005 0
-3021 -3020 -3005 0
3021 -3020 3005 0
3021 3020 -3005 0
-3022 3021 3006 0
-3022 -3021 -3006 0
3022 -3021 3006 0
3022 3021 -3006 0
-3023 3022 3007 0
-3023 -3022 -3007 0
3023 -3022 3007 0
3023 3022 -3007 0
-3024 3023 3008 0
-3024 -3023 -3008 0
3024 -3023 3008 0
3024 3023 -3008 0
-3025 3024 3009 0
-3025 -3024 -3009 0
3025 -3024 3009 0
3025 3024 -3009 0
-3026 3025 3010 0
-3026 -3025 -3010 0
3026 -3025 3010 0
3026 3025 -3010 0
-3027 3026 3011 0
-3027 -3026 -3011 0
3027 -3026 3011 0
3027 3026 -3011 0
-3028 3027 3012 0
-3028 -3027 -3012 0
3028 -3027 3012 0
3028 3027 -3012 0
-3029 3028 3013 0
-3029 -3028 -3013 0
3029 -3028 3013 0
3029 3028 -3013 0
-3030 3029 3014 0
-3030 -3029 -3014 0
3030 -3029 3014 0
3030 3029 -3014 0
-3031 3030 3015 0
-3031 -3030 -3015 0
3031 -3030 3015 0
3031 3030 -3015 0
-3032 3031 3016 0
-3032 -3031 -3016 0
3032 -3031 3016 0
3032 3031 -3016 0
-3033 3032 3017 0
-3033 -3032 -3017 0
3033 -3032 3017 0
3033 3032 -3017 0
-3034 3033 3018 0
-3034 -3033 -3018 0
3034 -3033 3018 0
3034 3033 -3018 0
-3035 3034 3019 0
-3035 -3034 -3019 0
3035 -3034 3019 0
3035 3034 -3019 0
-3035 0
-3036 2656 0
-3036 44 0
3036 -2656 -44 0
-3037 2658 0
-3037 42 0
3037 -2658 -42 0
-3038 2660 0
-3038 47 0
3038 -2660 -47 0
-3039 2662 0
-3039 39 0
3039 -2662 -39 0
-3040 2664 0
-3040 46 0
3040 -2664 -46 0
-3041 2666 0
-3041 40 0
3041 -2666 -40 0
-3042 2668 0
-3042 47 0
3042 -2668 -47 0
-3043 2670 0
-3043 39 0
3043 -2670 -39 0
-3044 2672 0
-3044 44 0
3044 -2672 -44 0
-3045 2674 0
-3045 42 0
3045 -2674 -42 0
-3046 2676 0
-3046 40 0
3046 -2676 -40 0
-3047 2678 0
-3047 46 0
3047 -2678 -46 0
-3048 2680 0
-3048 92 0
3048 -2680 -92 0
-3049 2682 0
-3049 95 0
3049 -2682 -95 0
-3050 2684 0
-3050 94 0
3050 -2684 -94 0
-3051 2686 0
-3051 140 0
3051 -2686 -140 0
-3052 2688 0
-3052 188 0
3052 -2688 -188 0
-3053 3036 3037 0
-3053 -3036 -3037 0
3053 -3036 3037 0
3053 3036 -3037 0
-3054 3053 3038 0
-3054 -3053 -3038 0
3054 -3053 3038 0
3054 3053 -3038 0
-3055 3054 3039 0
-3055 -3054 -3039 0
3055 -3054 3039 0
3055 3054 -3039 0
-3056 3055 3040 0
-3056 -3055 -3040 0
3056 -3055 3040 0
3056 3055 -3040 0
-3057 3056 3041 0
-3057 -3056 -3041 0
3057 -3056 3041 0
3057 3056 -3041 0
-3058 3057 3042 0
-3058 -3057 -3042 0
3058 -3057 3042 0
3058 3057 -3042 0
-3059 3058 3043 0
-3059 -3058 -3043 0
3059 -3058 3043 0
3059 3058 -3043 0
-3060 3059 3044 0
-3060 -3059 -3044 0
3060 -3059 3044 0
3060 3059 -3044 0
-3061 3060 3045 0
-3061 -3060 -3045 0
3061 -3060 3045 0
3061 3060 -3045 0
-3062 3061 3046 0
-3062 -3061 -3046 0
3062 -3061 3046 0
3062 3061 -3046 0
-3063 3062 3047 0
-3063 -3062 -3047 0
3063 -3062 3047 0
3063 3062 -3047 0
-3064 3063 3048 0
-3064 -3063 -3048 0
3064 -3063 3048 0
3064 3063 -3048 0
-3065 3064 3049 0
-3065 -3064 -3049 0
3065 -3064 3049 0
3065 3064 -3049 0
-3066 3065 3050 0
-3066 -3065 -3050 0
3066 -3065 3050 0
3066 3065 -3050 0
-3067 3066 3051 0
-3067 -3066 -3051 0
3067 -3066 3051 0
3067 3066 -3051 0
-3068 3067 3052 0
-3068 -3067 -3052 0
3068 -3067 3052 0
3068 3067 -3052 0
-3068 0
-3069 2656 0
-3069 45 0
3069 -2656 -45 0
-3070 2658 0
-3070 37 0
3070 -2658 -37 0
-3071 2660 0
-3071 41 0
3071 -2660 -41 0
-3072 2662 0
-3072 41 0
3072 -2662 -41 0
-3073 2664 0
-3073 37 0
3073 -2664 -37 0
-3074 2666 0
-3074 45 0
3074 -2666 -45 0
-3075 2668 0
-3075 36 0
3075 -2668 -36 0
-3076 2670 0
-3076 34 0
3076 -2670 -34 0
-3077 2672 0
-3077 35 0
3077 -2672 -35 0
-3078 2674 0
-3078 35 0
3078 -2674 -35 0
-3079 2676 0
-3079 34 0
3079 -2676 -34 0
-3080 2678 0
-3080 36 0
3080 -2678 -36 0
-3081 2680 0
-3081 93 0
3081 -2680 -93 0
-3082 2682 0
-3082 89 0
3082 -2682 -89 0
-3083 2684 0
-3083 85 0
3083 -2684 -85 0
-3084 2686 0
-3084 141 0
3084 -2686 -141 0
-3085 2688 0
-3085 189 0
3085 -2688 -189 0
-3086 3069 3070 0
-3086 -3069 -3070 0
3086 -3069 3070 0
3086 3069 -3070 0
-3087 3086 3071 0
-3087 -3086 -3071 0
3087 -3086 3071 0
3087 3086 -3071 0
-3088 3087 3072 0
-3088 -3087 -3072 0
3088 -3087 3072 0
3088 3087 -3072 0
-3089 3088 3073 0
-3089 -3088 -3073 0
3089 -3088 3073 0
3089 3088 -3073 0
-3090 3089 3074 0
-3090 -3089 -3074 0
3090 -3089 3074 0
3090 3089 -3074 0
-3091 3090 3075 0
-3091 -3090 -3075 0
3091 -3090 3075 0
3091 3090 -3075 0
-3092 3091 3076 0
-3092 -3091 -3076 0
3092 -3091 3076 0
3092 3091 -3076 0
-3093 3092 3077 0
-3093 -3092 -3077 0
3093 -3092 3077 0
3093 3092 -3077 0
-3094 3093 3078 0
-3094 -3093 -3078 0
3094 -3093 3078 0
3094 3093 -3078 0
-3095 3094 3079 0
-3095 -3094 -3079 0
3095 -3094 3079 0
3095 3094 -3079 0
-3096 3095 3080 0
-3096 -3095 -3080 0
3096 -3095 3080 0
3096 3095 -3080 0
-3097 3096 3081 0
-3097 -3096 -3081 0
3097 -3096 3081 0
3097 3096 -3081 0
-3098 3097 3082 0
-3098 -3097 -3082 0
3098 -3097 3082 0
3098 3097 -3082 0
-3099 3098 3083 0
-3099 -3098 -3083 0
3099 -3098 3083 0
3099 3098 -3083 0
-3100 3099 3084 0
-3100 -3099 -3084 0
3100 -3099 3084 0
3100 3099 -3084 0
-3101 3100 3085 0
-3101 -3100 -3085 0
3101 -3100 3085 0
3101 3100 -3085 0
3101 0
-3102 2656 0
-3102 46 0
3102 -2656 -46 0
-3103 2658 0
-3103 40 0
3103 -2658 -40 0
-3104 2660 0
-3104 42 0
3104 -2660 -42 0
-3105 2662 0
-3105 44 0
3105 -2662 -44 0
-3106 2664 0
-3106 39 0
3106 -2664 -39 0
-3107 2666 0
-3107 47 0
3107 -2666 -47 0
-3108 2668 0
-3108 40 0
3108 -2668 -40 0
-3109 2670 0
-3109 46 0
3109 -2670 -46 0
-3110 2672 0
-3110 39 0
3110 -2672 -39 0
-3111 2674 0
-3111 47 0
3111 -2674 -47 0
-3112 2676 0
-3112 42 0
3112 -2676 -42 0
-3113 2678 0
-3113 44 0
3113 -2678 -44 0
-3114 2680 0
-3114 94 0
3114 -2680 -94 0
-3115 2682 0
-3115 90 0
3115 -2682 -90 0
-3116 2684 0
-3116 87 0
3116 -2684 -87 0
-3117 2686 0
-3117 142 0
3117 -2686 -142 0
-3118 2688 0
-3118 190 0
3118 -2688 -190 0
-3119 3102 3103 0
-3119 -3102 -3103 0
3119 -3102 3103 0
3119 3102 -3103 0
-3120 3119 3104 0
-3120 -3119 -3104 0
3120 -3119 3104 0
3120 3119 -3104 0
-3121 3120 3105 0
-3121 -3120 -3105 0
3121 -3120 3105 0
3121 3120 -3105 0
-3122 3121 3106 0
-3122 -3121 -3106 0
3122 -3121 3106 0
3122 3121 -3106 0
-3123 3122 3107 0
-3123 -3122 -3107 0
3123 -3122 3107 0
3123 3122 -3107 0
-3124 3123 3108 0
-3124 -3123 -3108 0
3124 -3123 3108 0
3124 3123 -3108 0
-3125 3124 3109 0
-3125 -3124 -3109 0
3125 -3124 3109 0
3125 3124 -3109 0
-3126 3125 3110 0
-3126 -3125 -3110 0
3126 -3125 3110 0
3126 3125 -3110 0
-3127 3126 3111 0
-3127 -3126 -3111 0
3127 -3126 3111 0
3127 3126 -3111 0
-3128 3127 3112 0
-3128 -3127 -3112 0
3128 -3127 3112 0
3128 3127 -3112 0
-3129 3128 3113 0
-3129 -3128 -3113 0
3129 -3128 3113 0
3129 3128 -3113 0
-3130 3129 3114 0
-3130 -3129 -3114 0
3130 -3129 3114 0
3130 3129 -3114 0
-3131 3130 3115 0
-3131 -3130 -3115 0
3131 -3130 3115 0
3131 3130 -3115 0
-3132 3131 3116 0
-3132 -3131 -3116 0
3132 -3131 3116 0
3132 3131 -3116 0
-3133 3132 3117 0
-3133 -3132 -3117 0
3133 -3132 3117 0
3133 3132 -3117 0
-3134 3133 3118 0
-3134 -3133 -3118 0
3134 -3133 3118 0
3134 3133 -3118 0
-3134 0
-3135 2656 0
-3135 47 0
3135 -2656 -47 0
-3136 2658 0
-3136 39 0
3136 -2658 -39 0
-3137 2660 0
-3137 44 0
3137 -2660 -44 0
-3138 2662 0
-3138 42 0
3138 -2662 -42 0
-3139 2664 0
-3139 40 0
3139 -2664 -40 0
-3140 2666 0
-3140 46 0
3140 -2666 -46 0
-3141 2668 0
-3141 44 0
3141 -2668 -44 0
-3142 2670 0
-3142 42 0
3142 -2670 -42 0
-3143 2672 0
-3143 47 0
3143 -2672 -47 0
-3144 2674 0
-3144 39 0
3144 -2674 -39 0
-3145 2676 0
-3145 46 0
3145 -2676 -46 0
-3146 2678 0
-3146 40 0
3146 -2678 -40 0
-3147 2680 0
-3147 95 0
3147 -2680 -95 0
-3148 2682 0
-3148 92 0
3148 -2682 -92 0
-3149 2684 0
-3149 88 0
3149 -2684 -88 0
-3150 2686 0
-3150 143 0
3150 -2686 -143 0
-3151 2688 0
-3151 191 0
3151 -2688 -191 0
-3152 3135 3136 0
-3152 -3135 -3136 0
3152 -3135 3136 0
3152 3135 -3136 0
-3153 3152 3137 0
-3153 -3152 -3137 0
3153 -3152 3137 0
3153 3152 -3137 0
-3154 3153 3138 0
-3154 -3153 -3138 0
3154 -3153 3138 0
3154 3153 -3138 0
-3155 3154 3139 0
-3155 -3154 -3139 0
3155 -3154 3139 0
3155 3154 -3139 0
-3156 3155 3140 0
-3156 -3155 -3140 0
3156 -3155 3140 0
3156 3155 -3140 0
-3157 3156 3141 0
-3157 -3156 -3141 0
3157 -3156 3141 0
3157 3156 -3141 0
-3158 3157 3142 0
-3158 -3157 -3142 0
3158 -3157 3142 0
3158 3157 -3142 0
-3159 3158 3143 0
-3159 -3158 -3143 0
3159 -3158 3143 0
3159 3158 -3143 0
-3160 3159 3144 0
-3160 -3159 -3144 0
3160 -3159 3144 0
3160 3159 -3144 0
-3161 3160 3145 0
-3161 -3160 -3145 0
3161 -3160 3145 0
3161 3160 -3145 0
-3162 3161 3146 0
-3162 -3161 -3146 0
3162 -3161 3146 0
3162 3161 -3146 0
-3163 3162 3147 0
-3163 -3162 -3147 0
3163 -3162 3147 0
3163 3162 -3147 0
-3164 3163 3148 0
-3164 -3163 -3148 0
3164 -3163 3148 0
3164 3163 -3148 0
-3165 3164 3149 0
-3165 -3164 -3149 0
3165 -3164 3149 0
3165 3164 -3149 0
-3166 3165 3150 0
-3166 -3165 -3150 0
3166 -3165 3150 0
3166 3165 -3150 0
-3167 3166 3151 0
-3167 -3166 -3151 0
3167 -3166 3151 0
3167 3166 -3151 0
-3167 0
-3168 2656 0
-3168 48 0
3168 -2656 -48 0
-3169 2658 0
-3169 38 0
3169 -2658 -38 0
-3170 2660 0
-3170 43 0
3170 -2660 -43 0
-3171 2662 0
-3171 43 0
3171 -2662 -43 0
-3172 2664 0
-3172 38 0
3172 -2664 -38 0
-3173 2666 0
-3173 48 0
3173 -2666 -48 0
-3174 2668 0
-3174 48 0
3174 -2668 -48 0
-3175 2670 0
-3175 38 0
3175 -2670 -38 0
-3176 2672 0
-3176 43 0
3176 -2672 -43 0
-3177 2674 0
-3177 43 0
3177 -2674 -43 0
-3178 2676 0
-3178 38 0
3178 -2676 -38 0
-3179 2678 0
-3179 48 0
3179 -2678 -48 0
-3180 2680 0
-3180 96 0
3180 -2680 -96 0
-3181 2682 0
-3181 91 0
3181 -2682 -91 0
-3182 2684 0
-3182 86 0
3182 -2684 -86 0
-3183 2686 0
-3183 144 0
3183 -2686 -144 0
-3184 2688 0
-3184 192 0
3184 -2688 -192 0
-3185 3168 3169 0
-3185 -3168 -3169 0
3185 -3168 3169 0
3185 3168 -3169 0
-3186 3185 3170 0
-3186 -3185 -3170 0
3186 -3185 3170 0
3186 3185 -3170 0
-3187 3186 3171 0
-3187 -3186 -3171 0
3187 -3186 3171 0
3187 3186 -3171 0
-3188 3187 3172 0
-3188 -3187 -3172 0
3188 -3187 3172 0
3188 3187 -3172 0
-3189 3188 3173 0
-3189 -3188 -3173 0
3189 -3188 3173 0
3189 3188 -3173 0
-3190 3189 3174 0
-3190 -3189 -3174 0
3190 -3189 3174 0
3190 3189 -3174 0
-3191 3190 3175 0
-3191 -3190 -3175 0
3191 -3190 3175 0
3191 3190 -3175 0
-3192 3191 3176 0
-3192 -3191 -3176 0
3192 -3191 3176 0
3192 3191 -3176 0
-3193 3192 3177 0
-3193 -3192 -3177 0
3193 -3192 3177 0
3193 3192 -3177 0
-3194 3193 3178 0
-3194 -3193 -3178 0
3194 -3193 3178 0
3194 3193 -3178 0
-3195 3194 3179 0
-3195 -3194 -3179 0
3195 -3194 3179 0
3195 3194 -3179 0
-3196 3195 3180 0
-3196 -3195 -3180 0
3196 -3195 3180 0
3196 3195 -3180 0
-3197 3196 3181 0
-3197 -3196 -3181 0
3197 -3196 3181 0
3197 3196 -3181 0
-3198 3197 3182 0
-3198 -3197 -3182 0
3198 -3197 3182 0
3198 3197 -3182 0
-3199 3198 3183 0
-3199 -3198 -3183 0
3199 -3198 3183 0
3199 3198 -3183 0
-3200 3199 3184 0
-3200 -3199 -3184 0
3200 -3199 3184 0
3200 3199 -3184 0
-3200 0
-3201 1 0
-3201 29 0
3201 -1 -29 0
-3202 3201 0
-3202 33 0
3202 -3201 -33 0
-3203 2 0
-3203 29 0
3203 -2 -29 0
-3204 3203 0
-3204 33 0
3204 -3203 -33 0
-3205 3 0
-3205 29 0
3205 -3 -29 0
-3206 3205 0
-3206 33 0
3206 -3205 -33 0
-3207 17 0
-3207 4 0
3207 -17 -4 0
-3208 3207 0
-3208 33 0
3208 -3207 -33 0
-3209 21 0
-3209 4 0
3209 -21 -4 0
-3210 3209 0
-3210 33 0
3210 -3209 -33 0
-3211 25 0
-3211 4 0
3211 -25 -4 0
-3212 3211 0
-3212 33 0
3212 -3211 -33 0
-3213 49 0
-3213 77 0
3213 -49 -77 0
-3214 3213 0
-3214 81 0
3214 -3213 -81 0
-3215 50 0
-3215 77 0
3215 -50 -77 0
-3216 3215 0
-3216 81 0
3216 -3215 -81 0
-3217 97 0
-3217 125 0
3217 -97 -125 0
-3218 3217 0
-3218 129 0
3218 -3217 -129 0
-3219 145 0
-3219 173 0
3219 -145 -173 0
-3220 3219 0
-3220 177 0
3220 -3219 -177 0
-3221 3202 3202 0
-3221 -3202 -3202 0
3221 -3202 3202 0
3221 3202 -3202 0
-3222 3221 3204 0
-3222 -3221 -3204 0
3222 -3221 3204 0
3222 3221 -3204 0
-3223 3222 3206 0
-3223 -3222 -3206 0
3223 -3222 3206 0
3223 3222 -3206 0
-3224 3223 3204 0
-3224 -3223 -3204 0
3224 -3223 3204 0
3224 3223 -3204 0
-3225 3224 3206 0
-3225 -3224 -3206 0
3225 -3224 3206 0
3225 3224 -3206 0
-3226 3225 3208 0
-3226 -3225 -3208 0
3226 -3225 3208 0
3226 3225 -3208 0
-3227 3226 3208 0
-3227 -3226 -3208 0
3227 -3226 3208 0
3227 3226 -3208 0
-3228 3227 3210 0
-3228 -3227 -3210 0
3228 -3227 3210 0
3228 3227 -3210 0
-3229 3228 3212 0
-3229 -3228 -3212 0
3229 -3228 3212 0
3229 3228 -3212 0
-3230 3229 3210 0
-3230 -3229 -3210 0
3230 -3229 3210 0
3230 3229 -3210 0
-3231 3230 3212 0
-3231 -3230 -3212 0
3231 -3230 3212 0
3231 3230 -3212 0
-3232 3231 3214 0
-3232 -3231 -3214 0
3232 -3231 3214 0
3232 3231 -3214 0
-3233 3232 3216 0
-3233 -3232 -3216 0
3233 -3232 3216 0
3233 3232 -3216 0
-3234 3233 3216 0
-3234 -3233 -3216 0
3234 -3233 3216 0
3234 3233 -3216 0
-3235 3234 3218 0
-3235 -3234 -3218 0
3235 -3234 3218 0
3235 3234 -3218 0
-3236 3235 3220 0
-3236 -3235 -3220 0
3236 -3235 3220 0
3236 3235 -3220 0
-3236 0
-3237 3201 0
-3237 34 0
3237 -3201 -34 0
-3238 3201 0
-3238 36 0
3238 -3201 -36 0
-3239 3203 0
-3239 34 0
3239 -3203 -34 0
-3240 3205 0
-3240 36 0
3240 -3205 -36 0
-3241 3203 0
-3241 35 0
3241 -3203 -35 0
-3242 3205 0
-3242 35 0
3242 -3205 -35 0
-3243 3207 0
-3243 37 0
3243 -3207 -37 0
-3244 3207 0
-3244 45 0
3244 -3207 -45 0
-3245 3209 0
-3245 37 0
3245 -3209 -37 0
-3246 3211 0
-3246 45 0
3246 -3211 -45 0
-3247 3209 0
-3247 41 0
3247 -3209 -41 0
-3248 3211 0
-3248 41 0
3248 -3211 -41 0
-3249 3213 0
-3249 82 0
3249 -3213 -82 0
-3250 3215 0
-3250 82 0
3250 -3215 -82 0
-3251 3215 0
-3251 83 0
3251 -3215 -83 0
-3252 3217 0
-3252 130 0
3252 -3217 -130 0
-3253 3219 0
-3253 178 0
3253 -3219 -178 0
-3254 3237 3238 0
-3254 -3237 -3238 0
3254 -3237 3238 0
3254 3237 -3238 0
-3255 3254 3239 0
-3255 -3254 -3239 0
3255 -3254 3239 0
3255 3254 -3239 0
-3256 3255 3240 0
-3256 -3255 -3240 0
3256 -3255 3240 0
3256 3255 -3240 0
-3257 3256 3241 0
-3257 -3256 -3241 0
3257 -3256 3241 0
3257 3256 -3241 0
-3258 3257 3242 0
-3258 -3257 -3242 0
3258 -3257 3242 0
3258 3257 -3242 0
-3259 3258 3243 0
-3259 -3258 -3243 0
3259 -3258 3243 0
3259 3258 -3243 0
-3260 3259 3244 0
-3260 -3259 -3244 0
3260 -3259 3244 0
3260 3259 -3244 0
-3261 3260 3245 0
-3261 -3260 -3245 0
3261 -3260 3245 0
3261 3260 -3245 0
-3262 3261 3246 0
-3262 -3261 -3246 0
3262 -3261 3246 0
3262 3261 -3246 0
-3263 3262 3247 0
-3263 -3262 -3247 0
3263 -3262 3247 0
3263 3262 -3247 0
-3264 3263 3248 0
-3264 -3263 -3248 0
3264 -3263 3248 0
3264 3263 -3248 0
-3265 3264 3249 0
-3265 -3264 -3249 0
3265 -3264 3249 0
3265 3264 -3249 0
-3266 3265 3250 0
-3266 -3265 -3250 0
3266 -3265 3250 0
3266 3265 -3250 0
-3267 3266 3251 0
-3267 -3266 -3251 0
3267 -3266 3251 0
3267 3266 -3251 0
-3268 3267 3252 0
-3268 -3267 -3252 0
3268 -3267 3252 0
3268 3267 -3252 0
-3269 3268 3253 0
-3269 -3268 -3253 0
3269 -3268 3253 0
3269 3268 -3253 0
-3269 0
-3270 3201 0
-3270 35 0
3270 -3201 -35 0
-3271 3203 0
-3271 36 0
3271 -3203 -36 0
-3272 3205 0
-3272 34 0
3272 -3205 -34 0
-3273 3207 0
-3273 41 0
3273 -3207 -41 0
-3274 3209 0
-3274 45 0
3274 -3209 -45 0
-3275 3211 0
-3275 37 0
3275 -3211 -37 0
-3276 3213 0
-3276 83 0
3276 -3213 -83 0
-3277 3215 0
-3277 84 0
3277 -3215 -84 0
-3278 3217 0
-3278 131 0
3278 -3217 -131 0
-3279 3219 0
-3279 179 0
3279 -3219 -179 0
-3280 3270 3270 0
-3280 -3270 -3270 0
3280 -3270 3270 0
3280 3270 -3270 0
-3281 3280 3271 0
-3281 -3280 -3271 0
3281 -3280 3271 0
3281 3280 -3271 0
-3282 3281 3272 0
-3282 -3281 -3272 0
3282 -3281 3272 0
3282 3281 -3272 0
-3283 3282 3271 0
-3283 -3282 -3271 0
3283 -3282 3271 0
3283 3282 -3271 0
-3284 3283 3272 0
-3284 -3283 -3272 0
3284 -3283 3272 0
3284 3283 -3272 0
-3285 3284 3273 0
-3285 -3284 -3273 0
3285 -3284 3273 0
3285 3284 -3273 0
-3286 3285 3273 0
-3286 -3285 -3273 0
3286 -3285 3273 0
3286 3285 -3273 0
-3287 3286 3274 0
-3287 -3286 -3274 0
3287 -3286 3274 0
3287 3286 -3274 0
-3288 3287 3275 0
-3288 -3287 -3275 0
3288 -3287 3275 0
3288 3287 -3275 0
-3289 3288 3274 0
-3289 -3288 -3274 0
3289 -3288 3274 0
3289 3288 -3274 0
-3290 3289 3275 0
-3290 -3289 -3275 0
3290 -3289 3275 0
3290 3289 -3275 0
-3291 3290 3276 0
-3291 -3290 -3276 0
3291 -3290 3276 0
3291 3290 -3276 0
-3292 3291 3277 0
-3292 -3291 -3277 0
3292 -3291 3277 0
3292 3291 -3277 0
-3293 3292 3277 0
-3293 -3292 -3277 0
3293 -3292 3277 0
3293 3292 -3277 0
-3294 3293 3278 0
-3294 -3293 -3278 0
3294 -3293 3278 0
3294 3293 -3278 0
-3295 3294 3279 0
-3295 -3294 -3279 0
3295 -3294 3279 0
3295 3294 -3279 0
-3295 0
-3296 3201 0
-3296 37 0
3296 -3201 -37 0
-3297 3201 0
-3297 45 0
3297 -3201 -45 0
-3298 3203 0
-3298 37 0
3298 -3203 -37 0
-3299 3205 0
-3299 45 0
3299 -3205 -45 0
-3300 3203 0
-3300 41 0
3300 -3203 -41 0
-3301 3205 0
-3301 41 0
3301 -3205 -41 0
-3302 3207 0
-3302 34 0
3302 -3207 -34 0
-3303 3207 0
-3303 36 0
3303 -3207 -36 0
-3304 3209 0
-3304 34 0
3304 -3209 -34 0
-3305 3211 0
-3305 36 0
3305 -3211 -36 0
-3306 3209 0
-3306 35 0
3306 -3209 -35 0
-3307 3211 0
-3307 35 0
3307 -3211 -35 0
-3308 3213 0
-3308 85 0
3308 -3213 -85 0
-3309 3215 0
-3309 85 0
3309 -3215 -85 0
-3310 3215 0
-3310 89 0
3310 -3215 -89 0
-3311 3217 0
-3311 133 0
3311 -3217 -133 0
-3312 3219 0
-3312 181 0
3312 -3219 -181 0
-3313 3296 3297 0
-3313 -3296 -3297 0
3313 -3296 3297 0
3313 3296 -3297 0
-3314 3313 3298 0
-3314 -3313 -3298 0
3314 -3313 3298 0
3314 3313 -3298 0
-3315 3314 3299 0
-3315 -3314 -3299 0
3315 -3314 3299 0
3315 3314 -3299 0
-3316 3315 3300 0
-3316 -3315 -3300 0
3316 -3315 3300 0
3316 3315 -3300 0
-3317 3316 3301 0
-3317 -3316 -3301 0
3317 -3316 3301 0
3317 3316 -3301 0
-3318 3317 3302 0
-3318 -3317 -3302 0
3318 -3317 3302 0
3318 3317 -3302 0
-3319 3318 3303 0
-3319 -3318 -3303 0
3319 -3318 3303 0
3319 3318 -3303 0
-3320 3319 3304 0
-3320 -3319 -3304 0
3320 -3319 3304 0
3320 3319 -3304 0
-3321 3320 3305 0
-3321 -3320 -3305 0
3321 -3320 3305 0
3321 3320 -3305 0
-3322 3321 3306 0
-3322 -3321 -3306 0
3322 -3321 3306 0
3322 3321 -3306 0
-3323 3322 3307 0
-3323 -3322 -3307 0
3323 -3322 3307 0
3323 3322 -3307 0
-3324 3323 3308 0
-3324 -3323 -3308 0
3324 -3323 3308 0
3324 3323 -3308 0
-3325 3324 3309 0
-3325 -3324 -3309 0
3325 -3324 3309 0
3325 3324 -3309 0
-3326 3325 3310 0
-3326 -3325 -3310 0
3326 -3325 3310 0
3326 3325 -3310 0
-3327 3326 3311 0
-3327 -3326 -3311 0
3327 -3326 3311 0
3327 3326 -3311 0
-3328 3327 3312 0
-3328 -3327 -3312 0
3328 -3327 3312 0
3328 3327 -3312 0
-3328 0
-3329 3201 0
-3329 38 0
3329 -3201 -38 0
-3330 3201 0
-3330 48 0
3330 -3201 -48 0
-3331 3203 0
-3331 38 0
3331 -3203 -38 0
-3332 3205 0
-3332 48 0
3332 -3205 -48 0
-3333 3203 0
-3333 43 0
3333 -3203 -43 0
-3334 3205 0
-3334 43 0
3334 -3205 -43 0
-3335 3207 0
-3335 38 0
3335 -3207 -38 0
-3336 3207 0
-3336 48 0
3336 -3207 -48 0
-3337 3209 0
-3337 38 0
3337 -3209 -38 0
-3338 3211 0
-3338 48 0
3338 -3211 -48 0
-3339 3209 0
-3339 43 0
3339 -3209 -43 0
-3340 3211 0
-3340 43 0
3340 -3211 -43 0
-3341 3213 0
-3341 86 0
3341 -3213 -86 0
-3342 3215 0
-3342 86 0
3342 -3215 -86 0
-3343 3215 0
-3343 91 0
3343 -3215 -91 0
-3344 3217 0
-3344 134 0
3344 -3217 -134 0
-3345 3219 0
-3345 182 0
3345 -3219 -182 0
-3346 3329 3330 0
-3346 -3329 -3330 0
3346 -3329 3330 0
3346 3329 -3330 0
-3347 3346 3331 0
-3347 -3346 -3331 0
3347 -3346 3331 0
3347 3346 -3331 0
-3348 3347 3332 0
-3348 -3347 -3332 0
3348 -3347 3332 0
3348 3347 -3332 0
-3349 3348 3333 0
-3349 -3348 -3333 0
3349 -3348 3333 0
3349 3348 -3333 0
-3350 3349 3334 0
-3350 -3349 -3334 0
3350 -3349 3334 0
3350 3349 -3334 0
-3351 3350 3335 0
-3351 -3350 -3335 0
3351 -3350 3335 0
3351 3350 -3335 0
-3352 3351 3336 0
-3352 -3351 -3336 0
3352 -3351 3336 0
3352 3351 -3336 0
-3353 3352 3337 0
-3353 -3352 -3337 0
3353 -3352 3337 0
3353 3352 -3337 0
-3354 3353 3338 0
-3354 -3353 -3338 0
3354 -3353 3338 0
3354 3353 -3338 0
-3355 3354 3339 0
-3355 -3354 -3339 0
3355 -3354 3339 0
3355 3354 -3339 0
-3356 3355 3340 0
-3356 -3355 -3340 0
3356 -3355 3340 0
3356 3355 -3340 0
-3357 3356 3341 0
-3357 -3356 -3341 0
3357 -3356 3341 0
3357 3356 -3341 0
-3358 3357 3342 0
-3358 -3357 -3342 0
3358 -3357 3342 0
3358 3357 -3342 0
-3359 3358 3343 0
-3359 -3358 -3343 0
3359 -3358 3343 0
3359 3358 -3343 0
-3360 3359 3344 0
-3360 -3359 -3344 0
3360 -3359 3344 0
3360 3359 -3344 0
-3361 3360 3345 0
-3361 -3360 -3345 0
3361 -3360 3345 0
3361 3360 -3345 0
-3361 0
-3362 3201 0
-3362 39 0
3362 -3201 -39 0
-3363 3201 0
-3363 47 0
3363 -3201 -47 0
-3364 3203 0
-3364 40 0
3364 -3203 -40 0
-3365 3205 0
-3365 46 0
3365 -3205 -46 0
-3366 3203 0
-3366 44 0
3366 -3203 -44 0
-3367 3205 0
-3367 42 0
3367 -3205 -42 0
-3368 3207 0
-3368 42 0
3368 -3207 -42 0
-3369 3207 0
-3369 44 0
3369 -3207 -44 0
-3370 3209 0
-3370 46 0
3370 -3209 -46 0
-3371 3211 0
-3371 40 0
3371 -3211 -40 0
-3372 3209 0
-3372 47 0
3372 -3209 -47 0
-3373 3211 0
-3373 39 0
3373 -3211 -39 0
-3374 3213 0
-3374 87 0
3374 -3213 -87 0
-3375 3215 0
-3375 88 0
3375 -3215 -88 0
-3376 3215 0
-3376 92 0
3376 -3215 -92 0
-3377 3217 0
-3377 135 0
3377 -3217 -135 0
-3378 3219 0
-3378 183 0
3378 -3219 -183 0
-3379 3362 3363 0
-3379 -3362 -3363 0
3379 -3362 3363 0
3379 3362 -3363 0
-3380 3379 3364 0
-3380 -3379 -3364 0
3380 -3379 3364 0
3380 3379 -3364 0
-3381 3380 3365 0
-3381 -3380 -3365 0
3381 -3380 3365 0
3381 3380 -3365 0
-3382 3381 3366 0
-3382 -3381 -3366 0
3382 -3381 3366 0
3382 3381 -3366 0
-3383 3382 3367 0
-3383 -3382 -3367 0
3383 -3382 3367 0
3383 3382 -3367 0
-3384 3383 3368 0
-3384 -3383 -3368 0
3384 -3383 3368 0
3384 3383 -3368 0
-3385 3384 3369 0
-3385 -3384 -3369 0
3385 -3384 3369 0
3385 3384 -3369 0
-3386 3385 3370 0
-3386 -3385 -3370 0
3386 -3385 3370 0
3386 3385 -3370 0
-3387 3386 3371 0
-3387 -3386 -3371 0
3387 -3386 3371 0
3387 3386 -3371 0
-3388 3387 3372 0
-3388 -3387 -3372 0
3388 -3387 3372 0
3388 3387 -3372 0
-3389 3388 3373 0
-3389 -3388 -3373 0
3389 -3388 3373 0
3389 3388 -3373 0
-3390 3389 3374 0
-3390 -3389 -3374 0
3390 -3389 3374 0
3390 3389 -3374 0
-3391 3390 3375 0
-3391 -3390 -3375 0
3391 -3390 3375 0
3391 3390 -3375 0
-3392 3391 3376 0
-3392 -3391 -3376 0
3392 -3391 3376 0
3392 3391 -3376 0
-3393 3392 3377 0
-3393 -3392 -3377 0
3393 -3392 3377 0
3393 3392 -3377 0
-3394 3393 3378 0
-3394 -3393 -3378 0
3394 -3393 3378 0
3394 3393 -3378 0
-3394 0
-3395 3201 0
-3395 40 0
3395 -3201 -40 0
-3396 3201 0
-3396 46 0
3396 -3201 -46 0
-3397 3203 0
-3397 39 0
3397 -3203 -39 0
-3398 3205 0
-3398 47 0
3398 -3205 -47 0
-3399 3203 0
-3399 42 0
3399 -3203 -42 0
-3400 3205 0
-3400 44 0
3400 -3205 -44 0
-3401 3207 0
-3401 46 0
3401 -3207 -46 0
-3402 3207 0
-3402 40 0
3402 -3207 -40 0
-3403 3209 0
-3403 42 0
3403 -3209 -42 0
-3404 3211 0
-3404 44 0
3404 -3211 -44 0
-3405 3209 0
-3405 39 0
3405 -3209 -39 0
-3406 3211 0
-3406 47 0
3406 -3211 -47 0
-3407 3213 0
-3407 88 0
3407 -3213 -88 0
-3408 3215 0
-3408 87 0
3408 -3215 -87 0
-3409 3215 0
-3409 90 0
3409 -3215 -90 0
-3410 3217 0
-3410 136 0
3410 -3217 -136 0
-3411 3219 0
-3411 184 0
3411 -3219 -184 0
-3412 3395 3396 0
-3412 -3395 -3396 0
3412 -3395 3396 0
3412 3395 -3396 0
-3413 3412 3397 0
-3413 -3412 -3397 0
3413 -3412 3397 0
3413 3412 -3397 0
-3414 3413 3398 0
-3414 -3413 -3398 0
3414 -3413 3398 0
3414 3413 -3398 0
-3415 3414 3399 0
-3415 -3414 -3399 0
3415 -3414 3399 0
3415 3414 -3399 0
-3416 3415 3400 0
-3416 -3415 -3400 0
3416 -3415 3400 0
3416 3415 -3400 0
-3417 3416 3401 0
-3417 -3416 -3401 0
3417 -3416 3401 0
3417 3416 -3401 0
-3418 3417 3402 0
-3418 -3417 -3402 0
3418 -3417 3402 0
3418 3417 -3402 0
-3419 3418 3403 0
-3419 -3418 -3403 0
3419 -3418 3403 0
3419 3418 -3403 0
-3420 3419 3404 0
-3420 -3419 -3404 0
3420 -3419 3404 0
3420 3419 -3404 0
-3421 3420 3405 0
-3421 -3420 -3405 0
3421 -3420 3405 0
3421 3420 -3405 0
-3422 3421 3406 0
-3422 -3421 -3406 0
3422 -3421 3406 0
3422 3421 -3406 0
-3423 3422 3407 0
-3423 -3422 -3407 0
3423 -3422 3407 0
3423 3422 -3407 0
-3424 3423 3408 0
-3424 -3423 -3408 0
3424 -3423 3408 0
3424 3423 -3408 0
-3425 3424 3409 0
-3425 -3424 -3409 0
3425 -3424 3409 0
3425 3424 -3409 0
-3426 3425 3410 0
-3426 -3425 -3410 0
3426 -3425 3410 0
3426 3425 -3410 0
-3427 3426 3411 0
-3427 -3426 -3411 0
3427 -3426 3411 0
3427 3426 -3411 0
-3427 0
-3428 3201 0
-3428 41 0
3428 -3201 -41 0
-3429 3203 0
-3429 45 0
3429 -3203 -45 0
-3430 3205 0
-3430 37 0
3430 -3205 -37 0
-3431 3207 0
-3431 35 0
3431 -3207 -35 0
-3432 3209 0
-3432 36 0
3432 -3209 -36 0
-3433 3211 0
-3433 34 0
3433 -3211 -34 0
-3434 3213 0
-3434 89 0
3434 -3213 -89 0
-3435 3215 0
-3435 93 0
3435 -3215 -93 0
-3436 3217 0
-3436 137 0
3436 -3217 -137 0
-3437 3219 0
-3437 185 0
3437 -3219 -185 0
-3438 3428 3428 0
-3438 -3428 -3428 0
3438 -3428 3428 0
3438 3428 -3428 0
-3439 3438 3429 0
-3439 -3438 -3429 0
3439 -3438 3429 0
3439 3438 -3429 0
-3440 3439 3430 0
-3440 -3439 -3430 0
3440 -3439 3430 0
3440 3439 -3430 0
-3441 3440 3429 0
-3441 -3440 -3429 0
3441 -3440 3429 0
3441 3440 -3429 0
-3442 3441 3430 0
-3442 -3441 -3430 0
3442 -3441 3430 0
3442 3441 -3430 0
-3443 3442 3431 0
-3443 -3442 -3431 0
3443 -3442 3431 0
3443 3442 -3431 0
-3444 3443 3431 0
-3444 -3443 -3431 0
3444 -3443 3431 0
3444 3443 -3431 0
-3445 3444 3432 0
-3445 -3444 -3432 0
3445 -3444 3432 0
3445 3444 -3432 0
-3446 3445 3433 0
-3446 -3445 -3433 0
3446 -3445 3433 0
3446 3445 -3433 0
-3447 3446 3432 0
-3447 -3446 -3432 0
3447 -3446 3432 0
3447 3446 -3432 0
-3448 3447 3433 0
-3448 -3447 -3433 0
3448 -3447 3433 0
3448 3447 -3433 0
-3449 3448 3434 0
-3449 -3448 -3434 0
3449 -3448 3434 0
3449 3448 -3434 0
-3450 3449 3435 0
-3450 -3449 -3435 0
3450 -3449 3435 0
3450 3449 -3435 0
-3451 3450 3435 0
-3451 -3450 -3435 0
3451 -3450 3435 0
3451 3450 -3435 0
-3452 3451 3436 0
-3452 -3451 -3436 0
3452 -3451 3436 0
3452 3451 -3436 0
-3453 3452 3437 0
-3453 -3452 -3437 0
3453 -3452 3437 0
3453 3452 -3437 0
-3453 0
-3454 3201 0
-3454 42 0
3454 -3201 -42 0
-3455 3201 0
-3455 44 0
3455 -3201 -44 0
-3456 3203 0
-3456 46 0
3456 -3203 -46 0
-3457 3205 0
-3457 40 0
3457 -3205 -40 0
-3458 3203 0
-3458 47 0
3458 -3203 -47 0
-3459 3205 0
-3459 39 0
3459 -3205 -39 0
-3460 3207 0
-3460 39 0
3460 -3207 -39 0
-3461 3207 0
-3461 47 0
3461 -3207 -47 0
-3462 3209 0
-3462 40 0
3462 -3209 -40 0
-3463 3211 0
-3463 46 0
3463 -3211 -46 0
-3464 3209 0
-3464 44 0
3464 -3209 -44 0
-3465 3211 0
-3465 42 0
3465 -3211 -42 0
-3466 3213 0
-3466 90 0
3466 -3213 -90 0
-3467 3215 0
-3467 94 0
3467 -3215 -94 0
-3468 3215 0
-3468 95 0
3468 -3215 -95 0
-3469 3217 0
-3469 138 0
3469 -3217 -138 0
-3470 3219 0
-3470 186 0
3470 -3219 -186 0
-3471 3454 3455 0
-3471 -3454 -3455 0
3471 -3454 3455 0
3471 3454 -3455 0
-3472 3471 3456 0
-3472 -3471 -3456 0
3472 -3471 3456 0
3472 3471 -3456 0
-3473 3472 3457 0
-3473 -3472 -3457 0
3473 -3472 3457 0
3473 3472 -3457 0
-3474 3473 3458 0
-3474 -3473 -3458 0
3474 -3473 3458 0
3474 3473 -3458 0
-3475 3474 3459 0
-3475 -3474 -3459 0
3475 -3474 3459 0
3475 3474 -3459 0
-3476 3475 3460 0
-3476 -3475 -3460 0
3476 -3475 3460 0
3476 3475 -3460 0
-3477 3476 3461 0
-3477 -3476 -3461 0
3477 -3476 3461 0
3477 3476 -3461 0
-3478 3477 3462 0
-3478 -3477 -3462 0
3478 -3477 3462 0
3478 3477 -3462 0
-3479 3478 3463 0
-3479 -3478 -3463 0
3479 -3478 3463 0
3479 3478 -3463 0
-3480 3479 3464 0
-3480 -3479 -3464 0
3480 -3479 3464 0
3480 3479 -3464 0
-3481 3480 3465 0
-3481 -3480 -3465 0
3481 -3480 3465 0
3481 3480 -3465 0
-3482 3481 3466 0
-3482 -3481 -3466 0
3482 -3481 3466 0
3482 3481 -3466 0
-3483 3482 3467 0
-3483 -3482 -3467 0
3483 -3482 3467 0
3483 3482 -3467 0
-3484 3483 3468 0
-3484 -3483 -3468 0
3484 -3483 3468 0
3484 3483 -3468 0
-3485 3484 3469 0
-3485 -3484 -3469 0
3485 -3484 3469 0
3485 3484 -3469 0
-3486 3485 3470 0
-3486 -3485 -3470 0
3486 -3485 3470 0
3486 3485 -3470 0
-3486 0
-3487 3201 0
-3487 43 0
3487 -3201 -43 0
-3488 3203 0
-3488 48 0
3488 -3203 -48 0
-3489 3205 0
-3489 38 0
3489 -3205 -38 0
-3490 3207 0
-3490 43 0
3490 -3207 -43 0
-3491 3209 0
-3491 48 0
3491 -3209 -48 0
-3492 3211 0
-3492 38 0
3492 -3211 -38 0
-3493 3213 0
-3493 91 0
3493 -3213 -91 0
-3494 3215 0
-3494 96 0
3494 -3215 -96 0
-3495 3217 0
-3495 139 0
3495 -3217 -139 0
-3496 3219 0
-3496 187 0
3496 -3219 -187 0
-3497 3487 3487 0
-3497 -3487 -3487 0
3497 -3487 3487 0
3497 3487 -3487 0
-3498 3497 3488 0
-3498 -3497 -3488 0
3498 -3497 3488 0
3498 3497 -3488 0
-3499 3498 3489 0
-3499 -3498 -3489 0
3499 -3498 3489 0
3499 3498 -3489 0
-3500 3499 3488 0
-3500 -3499 -3488 0
3500 -3499 3488 0
3500 3499 -3488 0
-3501 3500 3489 0
-3501 -3500 -3489 0
3501 -3500 3489 0
3501 3500 -3489 0
-3502 3501 3490 0
-3502 -3501 -3490 0
3502 -3501 3490 0
3502 3501 -3490 0
-3503 3502 3490 0
-3503 -3502 -3490 0
3503 -3502 3490 0
3503 3502 -3490 0
-3504 3503 3491 0
-3504 -3503 -3491 0
3504 -3503 3491 0
3504 3503 -3491 0
-3505 3504 3492 0
-3505 -3504 -3492 0
3505 -3504 3492 0
3505 3504 -3492 0
-3506 3505 3491 0
-3506 -3505 -3491 0
3506 -3505 3491 0
3506 3505 -3491 0
-3507 3506 3492 0
-3507 -3506 -3492 0
3507 -3506 3492 0
3507 3506 -3492 0
-3508 3507 3493 0
-3508 -3507 -3493 0
3508 -3507 3493 0
3508 3507 -3493 0
-3509 3508 3494 0
-3509 -3508 -3494 0
3509 -3508 3494 0
3509 3508 -3494 0
-3510 3509 3494 0
-3510 -3509 -3494 0
3510 -3509 3494 0
3510 3509 -3494 0
-3511 3510 3495 0
-3511 -3510 -3495 0
3511 -3510 3495 0
3511 3510 -3495 0
-3512 3511 3496 0
-3512 -3511 -3496 0
3512 -3511 3496 0
3512 3511 -3496 0
-3512 0
-3513 1 0
-3513 30 0
3513 -1 -30 0
-3514 3513 0
-3514 33 0
3514 -3513 -33 0
-3515 1 0
-3515 32 0
3515 -1 -32 0
-3516 3515 0
-3516 33 0
3516 -3515 -33 0
-3517 2 0
-3517 30 0
3517 -2 -30 0
-3518 3517 0
-3518 33 0
3518 -3517 -33 0
-3519 3 0
-3519 32 0
3519 -3 -32 0
-3520 3519 0
-3520 33 0
3520 -3519 -33 0
-3521 2 0
-3521 31 0
3521 -2 -31 0
-3522 3521 0
-3522 33 0
3522 -3521 -33 0
-3523 3 0
-3523 31 0
3523 -3 -31 0
-3524 3523 0
-3524 33 0
3524 -3523 -33 0
-3525 17 0
-3525 8 0
3525 -17 -8 0
-3526 3525 0
-3526 33 0
3526 -3525 -33 0
-3527 17 0
-3527 16 0
3527 -17 -16 0
-3528 3527 0
-3528 33 0
3528 -3527 -33 0
-3529 21 0
-3529 8 0
3529 -21 -8 0
-3530 3529 0
-3530 33 0
3530 -3529 -33 0
-3531 25 0
-3531 16 0
3531 -25 -16 0
-3532 3531 0
-3532 33 0
3532 -3531 -33 0
-3533 21 0
-3533 12 0
3533 -21 -12 0
-3534 3533 0
-3534 33 0
3534 -3533 -33 0
-3535 25 0
-3535 12 0
3535 -25 -12 0
-3536 3535 0
-3536 33 0
3536 -3535 -33 0
-3537 49 0
-3537 78 0
3537 -49 -78 0
-3538 3537 0
-3538 81 0
3538 -3537 -81 0
-3539 50 0
-3539 78 0
3539 -50 -78 0
-3540 3539 0
-3540 81 0
3540 -3539 -81 0
-3541 50 0
-3541 79 0
3541 -50 -79 0
-3542 3541 0
-3542 81 0
3542 -3541 -81 0
-3543 97 0
-3543 126 0
3543 -97 -126 0
-3544 3543 0
-3544 129 0
3544 -3543 -129 0
-3545 145 0
-3545 174 0
3545 -145 -174 0
-3546 3545 0
-3546 177 0
3546 -3545 -177 0
-3547 3514 3516 0
-3547 -3514 -3516 0
3547 -3514 3516 0
3547 3514 -3516 0
-3548 3547 3518 0
-3548 -3547 -3518 0
3548 -3547 3518 0
3548 3547 -3518 0
-3549 3548 3520 0
-3549 -3548 -3520 0
3549 -3548 3520 0
3549 3548 -3520 0
-3550 3549 3522 0
-3550 -3549 -3522 0
3550 -3549 3522 0
3550 3549 -3522 0
-3551 3550 3524 0
-3551 -3550 -3524 0
3551 -3550 3524 0
3551 3550 -3524 0
-3552 3551 3526 0
-3552 -3551 -3526 0
3552 -3551 3526 0
3552 3551 -3526 0
-3553 3552 3528 0
-3553 -3552 -3528 0
3553 -3552 3528 0
3553 3552 -3528 0
-3554 3553 3530 0
-3554 -3553 -3530 0
3554 -3553 3530 0
3554 3553 -3530 0
-3555 3554 3532 0
-3555 -3554 -3532 0
3555 -3554 3532 0
3555 3554 -3532 0
-3556 3555 3534 0
-3556 -3555 -3534 0
3556 -3555 3534 0
3556 3555 -3534 0
-3557 3556 3536 0
-3557 -3556 -3536 0
3557 -3556 3536 0
3557 3556 -3536 0
-3558 3557 3538 0
-3558 -3557 -3538 0
3558 -3557 3538 0
3558 3557 -3538 0
-3559 3558 3540 0
-3559 -3558 -3540 0
3559 -3558 3540 0
3559 3558 -3540 0
-3560 3559 3542 0
-3560 -3559 -3542 0
3560 -3559 3542 0
3560 3559 -3542 0
-3561 3560 3544 0
-3561 -3560 -3544 0
3561 -3560 3544 0
3561 3560 -3544 0
-3562 3561 3546 0
-3562 -3561 -3546 0
3562 -3561 3546 0
3562 3561 -3546 0
-3562 0
-3563 3513 0
-3563 34 0
3563 -3513 -34 0
-3564 3515 0
-3564 36 0
3564 -3515 -36 0
-3565 3517 0
-3565 34 0
3565 -3517 -34 0
-3566 3519 0
-3566 36 0
3566 -3519 -36 0
-3567 3521 0
-3567 35 0
3567 -3521 -35 0
-3568 3523 0
-3568 35 0
3568 -3523 -35 0
-3569 3525 0
-3569 37 0
3569 -3525 -37 0
-3570 3527 0
-3570 45 0
3570 -3527 -45 0
-3571 3529 0
-3571 37 0
3571 -3529 -37 0
-3572 3531 0
-3572 45 0
3572 -3531 -45 0
-3573 3533 0
-3573 41 0
3573 -3533 -41 0
-3574 3535 0
-3574 41 0
3574 -3535 -41 0
-3575 3537 0
-3575 82 0
3575 -3537 -82 0
-3576 3539 0
-3576 82 0
3576 -3539 -82 0
-3577 3541 0
-3577 83 0
3577 -3541 -83 0
-3578 3543 0
-3578 130 0
3578 -3543 -130 0
-3579 3545 0
-3579 178 0
3579 -3545 -178 0
-3580 3563 3564 0
-3580 -3563 -3564 0
3580 -3563 3564 0
3580 3563 -3564 0
-3581 3580 3565 0
-3581 -3580 -3565 0
3581 -3580 3565 0
3581 3580 -3565 0
-3582 3581 3566 0
-3582 -3581 -3566 0
3582 -3581 3566 0
3582 3581 -3566 0
-3583 3582 3567 0
-3583 -3582 -3567 0
3583 -3582 3567 0
3583 3582 -3567 0
-3584 3583 3568 0
-3584 -3583 -3568 0
3584 -3583 3568 0
3584 3583 -3568 0
-3585 3584 3569 0
-3585 -3584 -3569 0
3585 -3584 3569 0
3585 3584 -3569 0
-3586 3585 3570 0
-3586 -3585 -3570 0
3586 -3585 3570 0
3586 3585 -3570 0
-3587 3586 3571 0
-3587 -3586 -3571 0
3587 -3586 3571 0
3587 3586 -3571 0
-3588 3587 3572 0
-3588 -3587 -3572 0
3588 -3587 3572 0
3588 3587 -3572 0
-3589 3588 3573 0
-3589 -3588 -3573 0
3589 -3588 3573 0
3589 3588 -3573 0
-3590 3589 3574 0
-3590 -3589 -3574 0
3590 -3589 3574 0
3590 3589 -3574 0
-3591 3590 3575 0
-3591 -3590 -3575 0
3591 -3590 3575 0
3591 3590 -3575 0
-3592 3591 3576 0
-3592 -3591 -3576 0
3592 -3591 3576 0
3592 3591 -3576 0
-3593 3592 3577 0
-3593 -3592 -3577 0
3593 -3592 3577 0
3593 3592 -3577 0
-3594 3593 3578 0
-3594 -3593 -3578 0
3594 -3593 3578 0
3594 3593 -3578 0
-3595 3594 3579 0
-3595 -3594 -3579 0
3595 -3594 3579 0
3595 3594 -3579 0
-3595 0
-3596 3513 0
-3596 35 0
3596 -3513 -35 0
-3597 3515 0
-3597 35 0
3597 -3515 -35 0
-3598 3517 0
-3598 36 0
3598 -3517 -36 0
-3599 3519 0
-3599 34 0
3599 -3519 -34 0
-3600 3521 0
-3600 36 0
3600 -3521 -36 0
-3601 3523 0
-3601 34 0
3601 -3523 -34 0
-3602 3525 0
-3602 41 0
3602 -3525 -41 0
-3603 3527 0
-3603 41 0
3603 -3527 -41 0
-3604 3529 0
-3604 45 0
3604 -3529 -45 0
-3605 3531 0
-3605 37 0
3605 -3531 -37 0
-3606 3533 0
-3606 45 0
3606 -3533 -45 0
-3607 3535 0
-3607 37 0
3607 -3535 -37 0
-3608 3537 0
-3608 83 0
3608 -3537 -83 0
-3609 3539 0
-3609 84 0
3609 -3539 -84 0
-3610 3541 0
-3610 84 0
3610 -3541 -84 0
-3611 3543 0
-3611 131 0
3611 -3543 -131 0
-3612 3545 0
-3612 179 0
3612 -3545 -179 0
-3613 3596 3597 0
-3613 -3596 -3597 0
3613 -3596 3597 0
3613 3596 -3597 0
-3614 3613 3598 0
-3614 -3613 -3598 0
3614 -3613 3598 0
3614 3613 -3598 0
-3615 3614 3599 0
-3615 -3614 -3599 0
3615 -3614 3599 0
3615 3614 -3599 0
-3616 3615 3600 0
-3616 -3615 -3600 0
3616 -3615 3600 0
3616 3615 -3600 0
-3617 3616 3601 0
-3617 -3616 -3601 0
3617 -3616 3601 0
3617 3616 -3601 0
-3618 3617 3602 0
-3618 -3617 -3602 0
3618 -3617 3602 0
3618 3617 -3602 0
-3619 3618 3603 0
-3619 -3618 -3603 0
3619 -3618 3603 0
3619 3618 -3603 0
-3620 3619 3604 0
-3620 -3619 -3604 0
3620 -3619 3604 0
3620 3619 -3604 0
-3621 3620 3605 0
-3621 -3620 -3605 0
3621 -3620 3605 0
3621 3620 -3605 0
-3622 3621 3606 0
-3622 -3621 -3606 0
3622 -3621 3606 0
3622 3621 -3606 0
-3623 3622 3607 0
-3623 -3622 -3607 0
3623 -3622 3607 0
3623 3622 -3607 0
-3624 3623 3608 0
-3624 -3623 -3608 0
3624 -3623 3608 0
3624 3623 -3608 0
-3625 3624 3609 0
-3625 -3624 -3609 0
3625 -3624 3609 0
3625 3624 -3609 0
-3626 3625 3610 0
-3626 -3625 -3610 0
3626 -3625 3610 0
3626 3625 -3610 0
-3627 3626 3611 0
-3627 -3626 -3611 0
3627 -3626 3611 0
3627 3626 -3611 0
-3628 3627 3612 0
-3628 -3627 -3612 0
3628 -3627 3612 0
3628 3627 -3612 0
-3628 0
-3629 3513 0
-3629 36 0
3629 -3513 -36 0
-3630 3515 0
-3630 34 0
3630 -3515 -34 0
-3631 3517 0
-3631 35 0
3631 -3517 -35 0
-3632 3519 0
-3632 35 0
3632 -3519 -35 0
-3633 3521 0
-3633 34 0
3633 -3521 -34 0
-3634 3523 0
-3634 36 0
3634 -3523 -36 0
-3635 3525 0
-3635 45 0
3635 -3525 -45 0
-3636 3527 0
-3636 37 0
3636 -3527 -37 0
-3637 3529 0
-3637 41 0
3637 -3529 -41 0
-3638 3531 0
-3638 41 0
3638 -3531 -41 0
-3639 3533 0
-3639 37 0
3639 -3533 -37 0
-3640 3535 0
-3640 45 0
3640 -3535 -45 0
-3641 3537 0
-3641 84 0
3641 -3537 -84 0
-3642 3539 0
-3642 83 0
3642 -3539 -83 0
-3643 3541 0
-3643 82 0
3643 -3541 -82 0
-3644 3543 0
-3644 132 0
3644 -3543 -132 0
-3645 3545 0
-3645 180 0
3645 -3545 -180 0
-3646 3629 3630 0
-3646 -3629 -3630 0
3646 -3629 3630 0
3646 3629 -3630 0
-3647 3646 3631 0
-3647 -3646 -3631 0
3647 -3646 3631 0
3647 3646 -3631 0
-3648 3647 3632 0
-3648 -3647 -3632 0
3648 -3647 3632 0
3648 3647 -3632 0
-3649 3648 3633 0
-3649 -3648 -3633 0
3649 -3648 3633 0
3649 3648 -3633 0
-3650 3649 3634 0
-3650 -3649 -3634 0
3650 -3649 3634 0
3650 3649 -3634 0
-3651 3650 3635 0
-3651 -3650 -3635 0
3651 -3650 3635 0
3651 3650 -3635 0
-3652 3651 3636 0
-3652 -3651 -3636 0
3652 -3651 3636 0
3652 3651 -3636 0
-3653 3652 3637 0
-3653 -3652 -3637 0
3653 -3652 3637 0
3653 3652 -3637 0
-3654 3653 3638 0
-3654 -3653 -3638 0
3654 -3653 3638 0
3654 3653 -3638 0
-3655 3654 3639 0
-3655 -3654 -3639 0
3655 -3654 3639 0
3655 3654 -3639 0
-3656 3655 3640 0
-3656 -3655 -3640 0
3656 -3655 3640 0
3656 3655 -3640 0
-3657 3656 3641 0
-3657 -3656 -3641 0
3657 -3656 3641 0
3657 3656 -3641 0
-3658 3657 3642 0
-3658 -3657 -3642 0
3658 -3657 3642 0
3658 3657 -3642 0
-3659 3658 3643 0
-3659 -3658 -3643 0
3659 -3658 3643 0
3659 3658 -3643 0
-3660 3659 3644 0
-3660 -3659 -3644 0
3660 -3659 3644 0
3660 3659 -3644 0
-3661 3660 3645 0
-3661 -3660 -3645 0
3661 -3660 3645 0
3661 3660 -3645 0
-3661 0
-3662 3513 0
-3662 37 0
3662 -3513 -37 0
-3663 3515 0
-3663 45 0
3663 -3515 -45 0
-3664 3517 0
-3664 37 0
3664 -3517 -37 0
-3665 3519 0
-3665 45 0
3665 -3519 -45 0
-3666 3521 0
-3666 41 0
3666 -3521 -41 0
-3667 3523 0
-3667 41 0
3667 -3523 -41 0
-3668 3525 0
-3668 34 0
3668 -3525 -34 0
-3669 3527 0
-3669 36 0
3669 -3527 -36 0
-3670 3529 0
-3670 34 0
3670 -3529 -34 0
-3671 3531 0
-3671 36 0
3671 -3531 -36 0
-3672 3533 0
-3672 35 0
3672 -3533 -35 0
-3673 3535 0
-3673 35 0
3673 -3535 -35 0
-3674 3537 0
-3674 85 0
3674 -3537 -85 0
-3675 3539 0
-3675 85 0
3675 -3539 -85 0
-3676 3541 0
-3676 89 0
3676 -3541 -89 0
-3677 3543 0
-3677 133 0
3677 -3543 -133 0
-3678 3545 0
-3678 181 0
3678 -3545 -181 0
-3679 3662 3663 0
-3679 -3662 -3663 0
3679 -3662 3663 0
3679 3662 -3663 0
-3680 3679 3664 0
-3680 -3679 -3664 0
3680 -3679 3664 0
3680 3679 -3664 0
-3681 3680 3665 0
-3681 -3680 -3665 0
3681 -3680 3665 0
3681 3680 -3665 0
-3682 3681 3666 0
-3682 -3681 -3666 0
3682 -3681 3666 0
3682 3681 -3666 0
-3683 3682 3667 0
-3683 -3682 -3667 0
3683 -3682 3667 0
3683 3682 -3667 0
-3684 3683 3668 0
-3684 -3683 -3668 0
3684 -3683 3668 0
3684 3683 -3668 0
-3685 3684 3669 0
-3685 -3684 -3669 0
3685 -3684 3669 0
3685 3684 -3669 0
-3686 3685 3670 0
-3686 -3685 -3670 0
3686 -3685 3670 0
3686 3685 -3670 0
-3687 3686 3671 0
-3687 -3686 -3671 0
3687 -3686 3671 0
3687 3686 -3671 0
-3688 3687 3672 0
-3688 -3687 -3672 0
3688 -3687 3672 0
3688 3687 -3672 0
-3689 3688 3673 0
-3689 -3688 -3673 0
3689 -3688 3673 0
3689 3688 -3673 0
-3690 3689 3674 0
-3690 -3689 -3674 0
3690 -3689 3674 0
3690 3689 -3674 0
-3691 3690 3675 0
-3691 -3690 -3675 0
3691 -3690 3675 0
3691 3690 -3675 0
-3692 3691 3676 0
-3692 -3691 -3676 0
3692 -3691 3676 0
3692 3691 -3676 0
-3693 3692 3677 0
-3693 -3692 -3677 0
3693 -3692 3677 0
3693 3692 -3677 0
-3694 3693 3678 0
-3694 -3693 -3678 0
3694 -3693 3678 0
3694 3693 -3678 0
-3694 0
-3695 3513 0
-3695 38 0
3695 -3513 -38 0
-3696 3515 0
-3696 48 0
3696 -3515 -48 0
-3697 3517 0
-3697 38 0
3697 -3517 -38 0
-3698 3519 0
-3698 48 0
3698 -3519 -48 0
-3699 3521 0
-3699 43 0
3699 -3521 -43 0
-3700 3523 0
-3700 43 0
3700 -3523 -43 0
-3701 3525 0
-3701 38 0
3701 -3525 -38 0
-3702 3527 0
-3702 48 0
3702 -3527 -48 0
-3703 3529 0
-3703 38 0
3703 -3529 -38 0
-3704 3531 0
-3704 48 0
3704 -3531 -48 0
-3705 3533 0
-3705 43 0
3705 -3533 -43 0
-3706 3535 0
-3706 43 0
3706 -3535 -43 0
-3707 3537 0
-3707 86 0
3707 -3537 -86 0
-3708 3539 0
-3708 86 0
3708 -3539 -86 0
-3709 3541 0
-3709 91 0
3709 -3541 -91 0
-3710 3543 0
-3710 134 0
3710 -3543 -134 0
-3711 3545 0
-3711 182 0
3711 -3545 -182 0
-3712 3695 3696 0
-3712 -3695 -3696 0
3712 -3695 3696 0
3712 3695 -3696 0
-3713 3712 3697 0
-3713 -3712 -3697 0
3713 -3712 3697 0
3713 3712 -3697 0
-3714 3713 3698 0
-3714 -3713 -3698 0
3714 -3713 3698 0
3714 3713 -3698 0
-3715 3714 3699 0
-3715 -3714 -3699 0
3715 -3714 3699 0
3715 3714 -3699 0
-3716 3715 3700 0
-3716 -3715 -3700 0
3716 -3715 3700 0
3716 3715 -3700 0
-3717 3716 3701 0
-3717 -3716 -3701 0
3717 -3716 3701 0
3717 3716 -3701 0
-3718 3717 3702 0
-3718 -3717 -3702 0
3718 -3717 3702 0
3718 3717 -3702 0
-3719 3718 3703 0
-3719 -3718 -3703 0
3719 -3718 3703 0
3719 3718 -3703 0
-3720 3719 3704 0
-3720 -3719 -3704 0
3720 -3719 3704 0
3720 3719 -3704 0
-3721 3720 3705 0
-3721 -3720 -3705 0
3721 -3720 3705 0
3721 3720 -3705 0
-3722 3721 3706 0
-3722 -3721 -3706 0
3722 -3721 3706 0
3722 3721 -3706 0
-3723 3722 3707 0
-3723 -3722 -3707 0
3723 -3722 3707 0
3723 3722 -3707 0
-3724 3723 3708 0
-3724 -3723 -3708 0
3724 -3723 3708 0
3724 3723 -3708 0
-3725 3724 3709 0
-3725 -3724 -3709 0
3725 -3724 3709 0
3725 3724 -3709 0
-3726 3725 3710 0
-3726 -3725 -3710 0
3726 -3725 3710 0
3726 3725 -3710 0
-3727 3726 3711 0
-3727 -3726 -3711 0
3727 -3726 3711 0
3727 3726 -3711 0
-3727 0
-3728 3513 0
-3728 39 0
3728 -3513 -39 0
-3729 3515 0
-3729 47 0
3729 -3515 -47 0
-3730 3517 0
-3730 40 0
3730 -3517 -40 0
-3731 3519 0
-3731 46 0
3731 -3519 -46 0
-3732 3521 0
-3732 44 0
3732 -3521 -44 0
-3733 3523 0
-3733 42 0
3733 -3523 -42 0
-3734 3525 0
-3734 42 0
3734 -3525 -42 0
-3735 3527 0
-3735 44 0
3735 -3527 -44 0
-3736 3529 0
-3736 46 0
3736 -3529 -46 0
-3737 3531 0
-3737 40 0
3737 -3531 -40 0
-3738 3533 0
-3738 47 0
3738 -3533 -47 0
-3739 3535 0
-3739 39 0
3739 -3535 -39 0
-3740 3537 0
-3740 87 0
3740 -3537 -87 0
-3741 3539 0
-3741 88 0
3741 -3539 -88 0
-3742 3541 0
-3742 92 0
3742 -3541 -92 0
-3743 3543 0
-3743 135 0
3743 -3543 -135 0
-3744 3545 0
-3744 183 0
3744 -3545 -183 0
-3745 3728 3729 0
-3745 -3728 -3729 0
3745 -3728 3729 0
3745 3728 -3729 0
-3746 3745 3730 0
-3746 -3745 -3730 0
3746 -3745 3730 0
3746 3745 -3730 0
-3747 3746 3731 0
-3747 -3746 -3731 0
3747 -3746 3731 0
3747 3746 -3731 0
-3748 3747 3732 0
-3748 -3747 -3732 0
3748 -3747 3732 0
3748 3747 -3732 0
-3749 3748 3733 0
-3749 -3748 -3733 0
3749 -3748 3733 0
3749 3748 -3733 0
-3750 3749 3734 0
-3750 -3749 -3734 0
3750 -3749 3734 0
3750 3749 -3734 0
-3751 3750 3735 0
-3751 -3750 -3735 0
3751 -3750 3735 0
3751 3750 -3735 0
-3752 3751 3736 0
-3752 -3751 -3736 0
3752 -3751 3736 0
3752 3751 -3736 0
-3753 3752 3737 0
-3753 -3752 -3737 0
3753 -3752 3737 0
3753 3752 -3737 0
-3754 3753 3738 0
-3754 -3753 -3738 0
3754 -3753 3738 0
3754 3753 -3738 0
-3755 3754 3739 0
-3755 -3754 -3739 0
3755 -3754 3739 0
3755 3754 -3739 0
-3756 3755 3740 0
-3756 -3755 -3740 0
3756 -3755 3740 0
3756 3755 -3740 0
-3757 3756 3741 0
-3757 -3756 -3741 0
3757 -3756 3741 0
3757 3756 -3741 0
-3758 3757 3742 0
-3758 -3757 -3742 0
3758 -3757 3742 0
3758 3757 -3742 0
-3759 3758 3743 0
-3759 -3758 -3743 0
3759 -3758 3743 0
3759 3758 -3743 0
-3760 3759 3744 0
-3760 -3759 -3744 0
3760 -3759 3744 0
3760 3759 -3744 0
-3760 0
-3761 3513 0
-3761 40 0
3761 -3513 -40 0
-3762 3515 0
-3762 46 0
3762 -3515 -46 0
-3763 3517 0
-3763 39 0
3763 -3517 -39 0
-3764 3519 0
-3764 47 0
3764 -3519 -47 0
-3765 3521 0
-3765 42 0
3765 -3521 -42 0
-3766 3523 0
-3766 44 0
3766 -3523 -44 0
-3767 3525 0
-3767 46 0
3767 -3525 -46 0
-3768 3527 0
-3768 40 0
3768 -3527 -40 0
-3769 3529 0
-3769 42 0
3769 -3529 -42 0
-3770 3531 0
-3770 44 0
3770 -3531 -44 0
-3771 3533 0
-3771 39 0
3771 -3533 -39 0
-3772 3535 0
-3772 47 0
3772 -3535 -47 0
-3773 3537 0
-3773 88 0
3773 -3537 -88 0
-3774 3539 0
-3774 87 0
3774 -3539 -87 0
-3775 3541 0
-3775 90 0
3775 -3541 -90 0
-3776 3543 0
-3776 136 0
3776 -3543 -136 0
-3777 3545 0
-3777 184 0
3777 -3545 -184 0
-3778 3761 3762 0
-3778 -3761 -3762 0
3778 -3761 3762 0
3778 3761 -3762 0
-3779 3778 3763 0
-3779 -3778 -3763 0
3779 -3778 3763 0
3779 3778 -3763 0
-3780 3779 3764 0
-3780 -3779 -3764 0
3780 -3779 3764 0
3780 3779 -3764 0
-3781 3780 3765 0
-3781 -3780 -3765 0
3781 -3780 3765 0
3781 3780 -3765 0
-3782 3781 3766 0
-3782 -3781 -3766 0
3782 -3781 3766 0
3782 3781 -3766 0
-3783 3782 3767 0
-3783 -3782 -3767 0
3783 -3782 3767 0
3783 3782 -3767 0
-3784 3783 3768 0
-3784 -3783 -3768 0
3784 -3783 3768 0
3784 3783 -3768 0
-3785 3784 3769 0
-3785 -3784 -3769 0
3785 -3784 3769 0
3785 3784 -3769 0
-3786 3785 3770 0
-3786 -3785 -3770 0
3786 -3785 3770 0
3786 3785 -3770 0
-3787 3786 3771 0
-3787 -3786 -3771 0
3787 -3786 3771 0
3787 3786 -3771 0
-3788 3787 3772 0
-3788 -3787 -3772 0
3788 -3787 3772 0
3788 3787 -3772 0
-3789 3788 3773 0
-3789 -3788 -3773 0
3789 -3788 3773 0
3789 3788 -3773 0
-3790 3789 3774 0
-3790 -3789 -3774 0
3790 -3789 3774 0
3790 3789 -3774 0
-3791 3790 3775 0
-3791 -3790 -3775 0
3791 -3790 3775 0
3791 3790 -3775 0
-3792 3791 3776 0
-3792 -3791 -3776 0
3792 -3791 3776 0
3792 3791 -3776 0
-3793 3792 3777 0
-3793 -3792 -3777 0
3793 -3792 3777 0
3793 3792 -3777 0
-3793 0
-3794 3513 0
-3794 41 0
3794 -3513 -41 0
-3795 3515 0
-3795 41 0
3795 -3515 -41 0
-3796 3517 0
-3796 45 0
3796 -3517 -45 0
-3797 3519 0
-3797 37 0
3797 -3519 -37 0
-3798 3521 0
-3798 45 0
3798 -3521 -45 0
-3799 3523 0
-3799 37 0
3799 -3523 -37 0
-3800 3525 0
-3800 35 0
3800 -3525 -35 0
-3801 3527 0
-3801 35 0
3801 -3527 -35 0
-3802 3529 0
-3802 36 0
3802 -3529 -36 0
-3803 3531 0
-3803 34 0
3803 -3531 -34 0
-3804 3533 0
-3804 36 0
3804 -3533 -36 0
-3805 3535 0
-3805 34 0
3805 -3535 -34 0
-3806 3537 0
-3806 89 0
3806 -3537 -89 0
-3807 3539 0
-3807 93 0
3807 -3539 -93 0
-3808 3541 0
-3808 93 0
3808 -3541 -93 0
-3809 3543 0
-3809 137 0
3809 -3543 -137 0
-3810 3545 0
-3810 185 0
3810 -3545 -185 0
-3811 3794 3795 0
-3811 -3794 -3795 0
3811 -3794 3795 0
3811 3794 -3795 0
-3812 3811 3796 0
-3812 -3811 -3796 0
3812 -3811 3796 0
3812 3811 -3796 0
-3813 3812 3797 0
-3813 -3812 -3797 0
3813 -3812 3797 0
3813 3812 -3797 0
-3814 3813 3798 0
-3814 -3813 -3798 0
3814 -3813 3798 0
3814 3813 -3798 0
-3815 3814 3799 0
-3815 -3814 -3799 0
3815 -3814 3799 0
3815 3814 -3799 0
-3816 3815 3800 0
-3816 -3815 -3800 0
3816 -3815 3800 0
3816 3815 -3800 0
-3817 3816 3801 0
-3817 -3816 -3801 0
3817 -3816 3801 0
3817 3816 -3801 0
-3818 3817 3802 0
-3818 -3817 -3802 0
3818 -3817 3802 0
3818 3817 -3802 0
-3819 3818 3803 0
-3819 -3818 -3803 0
3819 -3818 3803 0
3819 3818 -3803 0
-3820 3819 3804 0
-3820 -3819 -3804 0
3820 -3819 3804 0
3820 3819 -3804 0
-3821 3820 3805 0
-3821 -3820 -3805 0
3821 -3820 3805 0
3821 3820 -3805 0
-3822 3821 3806 0
-3822 -3821 -3806 0
3822 -3821 3806 0
3822 3821 -3806 0
-3823 3822 3807 0
-3823 -3822 -3807 0
3823 -3822 3807 0
3823 3822 -3807 0
-3824 3823 3808 0
-3824 -3823 -3808 0
3824 -3823 3808 0
3824 3823 -3808 0
-3825 3824 3809 0
-3825 -3824 -3809 0
3825 -3824 3809 0
3825 3824 -3809 0
-3826 3825 3810 0
-3826 -3825 -3810 0
3826 -3825 3810 0
3826 3825 -3810 0
-3826 0
-3827 3513 0
-3827 42 0
3827 -3513 -42 0
-3828 3515 0
-3828 44 0
3828 -3515 -44 0
-3829 3517 0
-3829 46 0
3829 -3517 -46 0
-3830 3519 0
-3830 40 0
3830 -3519 -40 0
-3831 3521 0
-3831 47 0
3831 -3521 -47 0
-3832 3523 0
-3832 39 0
3832 -3523 -39 0
-3833 3525 0
-3833 39 0
3833 -3525 -39 0
-3834 3527 0
-3834 47 0
3834 -3527 -47 0
-3835 3529 0
-3835 40 0
3835 -3529 -40 0
-3836 3531 0
-3836 46 0
3836 -3531 -46 0
-3837 3533 0
-3837 44 0
3837 -3533 -44 0
-3838 3535 0
-3838 42 0
3838 -3535 -42 0
-3839 3537 0
-3839 90 0
3839 -3537 -90 0
-3840 3539 0
-3840 94 0
3840 -3539 -94 0
-3841 3541 0
-3841 95 0
3841 -3541 -95 0
-3842 3543 0
-3842 138 0
3842 -3543 -138 0
-3843 3545 0
-3843 186 0
3843 -3545 -186 0
-3844 3827 3828 0
-3844 -3827 -3828 0
3844 -3827 3828 0
3844 3827 -3828 0
-3845 3844 3829 0
-3845 -3844 -3829 0
3845 -3844 3829 0
3845 3844 -3829 0
-3846 3845 3830 0
-3846 -3845 -3830 0
3846 -3845 3830 0
3846 3845 -3830 0
-3847 3846 3831 0
-3847 -3846 -3831 0
3847 -3846 3831 0
3847 3846 -3831 0
-3848 3847 3832 0
-3848 -3847 -3832 0
3848 -3847 3832 0
3848 3847 -3832 0
-3849 3848 3833 0
-3849 -3848 -3833 0
3849 -3848 3833 0
3849 3848 -3833 0
-3850 3849 3834 0
-3850 -3849 -3834 0
3850 -3849 3834 0
3850 3849 -3834 0
-3851 3850 3835 0
-3851 -3850 -3835 0
3851 -3850 3835 0
3851 3850 -3835 0
-3852 3851 3836 0
-3852 -3851 -3836 0
3852 -3851 3836 0
3852 3851 -3836 0
-3853 3852 3837 0
-3853 -3852 -3837 0
3853 -3852 3837 0
3853 3852 -3837 0
-3854 3853 3838 0
-3854 -3853 -3838 0
3854 -3853 3838 0
3854 3853 -3838 0
-3855 3854 3839 0
-3855 -3854 -3839 0
3855 -3854 3839 0
3855 3854 -3839 0
-3856 3855 3840 0
-3856 -3855 -3840 0
3856 -3855 3840 0
3856 3855 -3840 0
-3857 3856 3841 0
-3857 -3856 -3841 0
3857 -3856 3841 0
3857 3856 -3841 0
-3858 3857 3842 0
-3858 -3857 -3842 0
3858 -3857 3842 0
3858 3857 -3842 0
-3859 3858 3843 0
-3859 -3858 -3843 0
3859 -3858 3843 0
3859 3858 -3843 0
-3859 0
-3860 3513 0
-3860 43 0
3860 -3513 -43 0
-3861 3515 0
-3861 43 0
3861 -3515 -43 0
-3862 3517 0
-3862 48 0
3862 -3517 -48 0
-3863 3519 0
-3863 38 0
3863 -3519 -38 0
-3864 3521 0
-3864 48 0
3864 -3521 -48 0
-3865 3523 0
-3865 38 0
3865 -3523 -38 0
-3866 3525 0
-3866 43 0
3866 -3525 -43 0
-3867 3527 0
-3867 43 0
3867 -3527 -43 0
-3868 3529 0
-3868 48 0
3868 -3529 -48 0
-3869 3531 0
-3869 38 0
3869 -3531 -38 0
-3870 3533 0
-3870 48 0
3870 -3533 -48 0
-3871 3535 0
-3871 38 0
3871 -3535 -38 0
-3872 3537 0
-3872 91 0
3872 -3537 -91 0
-3873 3539 0
-3873 96 0
3873 -3539 -96 0
-3874 3541 0
-3874 96 0
3874 -3541 -96 0
-3875 3543 0
-3875 139 0
3875 -3543 -139 0
-3876 3545 0
-3876 187 0
3876 -3545 -187 0
-3877 3860 3861 0
-3877 -3860 -3861 0
3877 -3860 3861 0
3877 3860 -3861 0
-3878 3877 3862 0
-3878 -3877 -3862 0
3878 -3877 3862 0
3878 3877 -3862 0
-3879 3878 3863 0
-3879 -3878 -3863 0
3879 -3878 3863 0
3879 3878 -3863 0
-3880 3879 3864 0
-3880 -3879 -3864 0
3880 -3879 3864 0
3880 3879 -3864 0
-3881 3880 3865 0
-3881 -3880 -3865 0
3881 -3880 3865 0
3881 3880 -3865 0
-3882 3881 3866 0
-3882 -3881 -3866 0
3882 -3881 3866 0
3882 3881 -3866 0
-3883 3882 3867 0
-3883 -3882 -3867 0
3883 -3882 3867 0
3883 3882 -3867 0
-3884 3883 3868 0
-3884 -3883 -3868 0
3884 -3883 3868 0
3884 3883 -3868 0
-3885 3884 3869 0
-3885 -3884 -3869 0
3885 -3884 3869 0
3885 3884 -3869 0
-3886 3885 3870 0
-3886 -3885 -3870 0
3886 -3885 3870 0
3886 3885 -3870 0
-3887 3886 3871 0
-3887 -3886 -3871 0
3887 -3886 3871 0
3887 3886 -3871 0
-3888 3887 3872 0
-3888 -3887 -3872 0
3888 -3887 3872 0
3888 3887 -3872 0
-3889 3888 3873 0
-3889 -3888 -3873 0
3889 -3888 3873 0
3889 3888 -3873 0
-3890 3889 3874 0
-3890 -3889 -3874 0
3890 -3889 3874 0
3890 3889 -3874 0
-3891 3890 3875 0
-3891 -3890 -3875 0
3891 -3890 3875 0
3891 3890 -3875 0
-3892 3891 3876 0
-3892 -3891 -3876 0
3892 -3891 3876 0
3892 3891 -3876 0
-3892 0
-3893 3513 0
-3893 44 0
3893 -3513 -44 0
-3894 3515 0
-3894 42 0
3894 -3515 -42 0
-3895 3517 0
-3895 47 0
3895 -3517 -47 0
-3896 3519 0
-3896 39 0
3896 -3519 -39 0
-3897 3521 0
-3897 46 0
3897 -3521 -46 0
-3898 3523 0
-3898 40 0
3898 -3523 -40 0
-3899 3525 0
-3899 47 0
3899 -3525 -47 0
-3900 3527 0
-3900 39 0
3900 -3527 -39 0
-3901 3529 0
-3901 44 0
3901 -3529 -44 0
-3902 3531 0
-3902 42 0
3902 -3531 -42 0
-3903 3533 0
-3903 40 0
3903 -3533 -40 0
-3904 3535 0
-3904 46 0
3904 -3535 -46 0
-3905 3537 0
-3905 92 0
3905 -3537 -92 0
-3906 3539 0
-3906 95 0
3906 -3539 -95 0
-3907 3541 0
-3907 94 0
3907 -3541 -94 0
-3908 3543 0
-3908 140 0
3908 -3543 -140 0
-3909 3545 0
-3909 188 0
3909 -3545 -188 0
-3910 3893 3894 0
-3910 -3893 -3894 0
3910 -3893 3894 0
3910 3893 -3894 0
-3911 3910 3895 0
-3911 -3910 -3895 0
3911 -3910 3895 0
3911 3910 -3895 0
-3912 3911 3896 0
-3912 -3911 -3896 0
3912 -3911 3896 0
3912 3911 -3896 0
-3913 3912 3897 0
-3913 -3912 -3897 0
3913 -3912 3897 0
3913 3912 -3897 0
-3914 3913 3898 0
-3914 -3913 -3898 0
3914 -3913 3898 0
3914 3913 -3898 0
-3915 3914 3899 0
-3915 -3914 -3899 0
3915 -3914 3899 0
3915 3914 -3899 0
-3916 3915 3900 0
-3916 -3915 -3900 0
3916 -3915 3900 0
3916 3915 -3900 0
-3917 3916 3901 0
-3917 -3916 -3901 0
3917 -3916 3901 0
3917 3916 -3901 0
-3918 3917 3902 0
-3918 -3917 -3902 0
3918 -3917 3902 0
3918 3917 -3902 0
-3919 3918 3903 0
-3919 -3918 -3903 0
3919 -3918 3903 0
3919 3918 -3903 0
-3920 3919 3904 0
-3920 -3919 -3904 0
3920 -3919 3904 0
3920 3919 -3904 0
-3921 3920 3905 0
-3921 -3920 -3905 0
3921 -3920 3905 0
3921 3920 -3905 0
-3922 3921 3906 0
-3922 -3921 -3906 0
3922 -3921 3906 0
3922 3921 -3906 0
-3923 3922 3907 0
-3923 -3922 -3907 0
3923 -3922 3907 0
3923 3922 -3907 0
-3924 3923 3908 0
-3924 -3923 -3908 0
3924 -3923 3908 0
3924 3923 -3908 0
-3925 3924 3909 0
-3925 -3924 -3909 0
3925 -3924 3909 0
3925 3924 -3909 0
-3925 0
-3926 3513 0
-3926 45 0
3926 -3513 -45 0
-3927 3515 0
-3927 37 0
3927 -3515 -37 0
-3928 3517 0
-3928 41 0
3928 -3517 -41 0
-3929 3519 0
-3929 41 0
3929 -3519 -41 0
-3930 3521 0
-3930 37 0
3930 -3521 -37 0
-3931 3523 0
-3931 45 0
3931 -3523 -45 0
-3932 3525 0
-3932 36 0
3932 -3525 -36 0
-3933 3527 0
-3933 34 0
3933 -3527 -34 0
-3934 3529 0
-3934 35 0
3934 -3529 -35 0
-3935 3531 0
-3935 35 0
3935 -3531 -35 0
-3936 3533 0
-3936 34 0
3936 -3533 -34 0
-3937 3535 0
-3937 36 0
3937 -3535 -36 0
-3938 3537 0
-3938 93 0
3938 -3537 -93 0
-3939 3539 0
-3939 89 0
3939 -3539 -89 0
-3940 3541 0
-3940 85 0
3940 -3541 -85 0
-3941 3543 0
-3941 141 0
3941 -3543 -141 0
-3942 3545 0
-3942 189 0
3942 -3545 -189 0
-3943 3926 3927 0
-3943 -3926 -3927 0
3943 -3926 3927 0
3943 3926 -3927 0
-3944 3943 3928 0
-3944 -3943 -3928 0
3944 -3943 3928 0
3944 3943 -3928 0
-3945 3944 3929 0
-3945 -3944 -3929 0
3945 -3944 3929 0
3945 3944 -3929 0
-3946 3945 3930 0
-3946 -3945 -3930 0
3946 -3945 3930 0
3946 3945 -3930 0
-3947 3946 3931 0
-3947 -3946 -3931 0
3947 -3946 3931 0
3947 3946 -3931 0
-3948 3947 3932 0
-3948 -3947 -3932 0
3948 -3947 3932 0
3948 3947 -3932 0
-3949 3948 3933 0
-3949 -3948 -3933 0
3949 -3948 3933 0
3949 3948 -3933 0
-3950 3949 3934 0
-3950 -3949 -3934 0
3950 -3949 3934 0
3950 3949 -3934 0
-3951 3950 3935 0
-3951 -3950 -3935 0
3951 -3950 3935 0
3951 3950 -3935 0
-3952 3951 3936 0
-3952 -3951 -3936 0
3952 -3951 3936 0
3952 3951 -3936 0
-3953 3952 3937 0
-3953 -3952 -3937 0
3953 -3952 3937 0
3953 3952 -3937 0
-3954 3953 3938 0
-3954 -3953 -3938 0
3954 -3953 3938 0
3954 3953 -3938 0
-3955 3954 3939 0
-3955 -3954 -3939 0
3955 -3954 3939 0
3955 3954 -3939 0
-3956 3955 3940 0
-3956 -3955 -3940 0
3956 -3955 3940 0
3956 3955 -3940 0
-3957 3956 3941 0
-3957 -3956 -3941 0
3957 -3956 3941 0
3957 3956 -3941 0
-3958 3957 3942 0
-3958 -3957 -3942 0
3958 -3957 3942 0
3958 3957 -3942 0
-3958 0
-3959 3513 0
-3959 46 0
3959 -3513 -46 0
-3960 3515 0
-3960 40 0
3960 -3515 -40 0
-3961 3517 0
-3961 42 0
3961 -3517 -42 0
-3962 3519 0
-3962 44 0
3962 -3519 -44 0
-3963 3521 0
-3963 39 0
3963 -3521 -39 0
-3964 3523 0
-3964 47 0
3964 -3523 -47 0
-3965 3525 0
-3965 40 0
3965 -3525 -40 0
-3966 3527 0
-3966 46 0
3966 -3527 -46 0
-3967 3529 0
-3967 39 0
3967 -3529 -39 0
-3968 3531 0
-3968 47 0
3968 -3531 -47 0
-3969 3533 0
-3969 42 0
3969 -3533 -42 0
-3970 3535 0
-3970 44 0
3970 -3535 -44 0
-3971 3537 0
-3971 94 0
3971 -3537 -94 0
-3972 3539 0
-3972 90 0
3972 -3539 -90 0
-3973 3541 0
-3973 87 0
3973 -3541 -87 0
-3974 3543 0
-3974 142 0
3974 -3543 -142 0
-3975 3545 0
-3975 190 0
3975 -3545 -190 0
-3976 3959 3960 0
-3976 -3959 -3960 0
3976 -3959 3960 0
3976 3959 -3960 0
-3977 3976 3961 0
-3977 -3976 -3961 0
3977 -3976 3961 0
3977 3976 -3961 0
-3978 3977 3962 0
-3978 -3977 -3962 0
3978 -3977 3962 0
3978 3977 -3962 0
-3979 3978 3963 0
-3979 -3978 -3963 0
3979 -3978 3963 0
3979 3978 -3963 0
-3980 3979 3964 0
-3980 -3979 -3964 0
3980 -3979 3964 0
3980 3979 -3964 0
-3981 3980 3965 0
-3981 -3980 -3965 0
3981 -3980 3965 0
3981 3980 -3965 0
-3982 3981 3966 0
-3982 -3981 -3966 0
3982 -3981 3966 0
3982 3981 -3966 0
-3983 3982 3967 0
-3983 -3982 -3967 0
3983 -3982 3967 0
3983 3982 -3967 0
-3984 3983 3968 0
-3984 -3983 -3968 0
3984 -3983 3968 0
3984 3983 -3968 0
-3985 3984 3969 0
-3985 -3984 -3969 0
3985 -3984 3969 0
3985 3984 -3969 0
-3986 3985 3970 0
-3986 -3985 -3970 0
3986 -3985 3970 0
3986 3985 -3970 0
-3987 3986 3971 0
-3987 -3986 -3971 0
3987 -3986 3971 0
3987 3986 -3971 0
-3988 3987 3972 0
-3988 -3987 -3972 0
3988 -3987 3972 0
3988 3987 -3972 0
-3989 3988 3973 0
-3989 -3988 -3973 0
3989 -3988 3973 0
3989 3988 -3973 0
-3990 3989 3974 0
-3990 -3989 -3974 0
3990 -3989 3974 0
3990 3989 -3974 0
-3991 3990 3975 0
-3991 -3990 -3975 0
3991 -3990 3975 0
3991 3990 -3975 0
-3991 0
-3992 3513 0
-3992 47 0
3992 -3513 -47 0
-3993 3515 0
-3993 39 0
3993 -3515 -39 0
-3994 3517 0
-3994 44 0
3994 -3517 -44 0
-3995 3519 0
-3995 42 0
3995 -3519 -42 0
-3996 3521 0
-3996 40 0
3996 -3521 -40 0
-3997 3523 0
-3997 46 0
3997 -3523 -46 0
-3998 3525 0
-3998 44 0
3998 -3525 -44 0
-3999 3527 0
-3999 42 0
3999 -3527 -42 0
-4000 3529 0
-4000 47 0
4000 -3529 -47 0
-4001 3531 0
-4001 39 0
4001 -3531 -39 0
-4002 3533 0
-4002 46 0
4002 -3533 -46 0
-4003 3535 0
-4003 40 0
4003 -3535 -40 0
-4004 3537 0
-4004 95 0
4004 -3537 -95 0
-4005 3539 0
-4005 92 0
4005 -3539 -92 0
-4006 3541 0
-4006 88 0
4006 -3541 -88 0
-4007 3543 0
-4007 143 0
4007 -3543 -143 0
-4008 3545 0
-4008 191 0
4008 -3545 -191 0
-4009 3992 3993 0
-4009 -3992 -3993 0
4009 -3992 3993 0
4009 3992 -3993 0
-4010 4009 3994 0
-4010 -4009 -3994 0
4010 -4009 3994 0
4010 4009 -3994 0
-4011 4010 3995 0
-4011 -4010 -3995 0
4011 -4010 3995 0
4011 4010 -3995 0
-4012 4011 3996 0
-4012 -4011 -3996 0
4012 -4011 3996 0
4012 4011 -3996 0
-4013 4012 3997 0
-4013 -4012 -3997 0
4013 -4012 3997 0
4013 4012 -3997 0
-4014 4013 3998 0
-4014 -4013 -3998 0
4014 -4013 3998 0
4014 4013 -3998 0
-4015 4014 3999 0
-4015 -4014 -3999 0
4015 -4014 3999 0
4015 4014 -3999 0
-4016 4015 4000 0
-4016 -4015 -4000 0
4016 -4015 4000 0
4016 4015 -4000 0
-4017 4016 4001 0
-4017 -4016 -4001 0
4017 -4016 4001 0
4017 4016 -4001 0
-4018 4017 4002 0
-4018 -4017 -4002 0
4018 -4017 4002 0
4018 4017 -4002 0
-4019 4018 4003 0
-4019 -4018 -4003 0
4019 -4018 4003 0
4019 4018 -4003 0
-4020 4019 4004 0
-4020 -4019 -4004 0
4020 -4019 4004 0
4020 4019 -4004 0
-4021 4020 4005 0
-4021 -4020 -4005 0
4021 -4020 4005 0
4021 4020 -4005 0
-4022 4021 4006 0
-4022 -4021 -4006 0
4022 -4021 4006 0
4022 4021 -4006 0
-4023 4022 4007 0
-4023 -4022 -4007 0
4023 -4022 4007 0
4023 4022 -4007 0
-4024 4023 4008 0
-4024 -4023 -4008 0
4024 -4023 4008 0
4024 4023 -4008 0
-4024 0
-4025 3513 0
-4025 48 0
4025 -3513 -48 0
-4026 3515 0
-4026 38 0
4026 -3515 -38 0
-4027 3517 0
-4027 43 0
4027 -3517 -43 0
-4028 3519 0
-4028 43 0
4028 -3519 -43 0
-4029 3521 0
-4029 38 0
4029 -3521 -38 0
-4030 3523 0
-4030 48 0
4030 -3523 -48 0
-4031 3525 0
-4031 48 0
4031 -3525 -48 0
-4032 3527 0
-4032 38 0
4032 -3527 -38 0
-4033 3529 0
-4033 43 0
4033 -3529 -43 0
-4034 3531 0
-4034 43 0
4034 -3531 -43 0
-4035 3533 0
-4035 38 0
4035 -3533 -38 0
-4036 3535 0
-4036 48 0
4036 -3535 -48 0
-4037 3537 0
-4037 96 0
4037 -3537 -96 0
-4038 3539 0
-4038 91 0
4038 -3539 -91 0
-4039 3541 0
-4039 86 0
4039 -3541 -86 0
-4040 3543 0
-4040 144 0
4040 -3543 -144 0
-4041 3545 0
-4041 192 0
4041 -3545 -192 0
-4042 4025 4026 0
-4042 -4025 -4026 0
4042 -4025 4026 0
4042 4025 -4026 0
-4043 4042 4027 0
-4043 -4042 -4027 0
4043 -4042 4027 0
4043 4042 -4027 0
-4044 4043 4028 0
-4044 -4043 -4028 0
4044 -4043 4028 0
4044 4043 -4028 0
-4045 4044 4029 0
-4045 -4044 -4029 0
4045 -4044 4029 0
4045 4044 -4029 0
-4046 4045 4030 0
-4046 -4045 -4030 0
4046 -4045 4030 0
4046 4045 -4030 0
-4047 4046 4031 0
-4047 -4046 -4031 0
4047 -4046 4031 0
4047 4046 -4031 0
-4048 4047 4032 0
-4048 -4047 -4032 0
4048 -4047 4032 0
4048 4047 -4032 0
-4049 4048 4033 0
-4049 -4048 -4033 0
4049 -4048 4033 0
4049 4048 -4033 0
-4050 4049 4034 0
-4050 -4049 -4034 0
4050 -4049 4034 0
4050 4049 -4034 0
-4051 4050 4035 0
-4051 -4050 -4035 0
4051 -4050 4035 0
4051 4050 -4035 0
-4052 4051 4036 0
-4052 -4051 -4036 0
4052 -4051 4036 0
4052 4051 -4036 0
-4053 4052 4037 0
-4053 -4052 -4037 0
4053 -4052 4037 0
4053 4052 -4037 0
-4054 4053 4038 0
-4054 -4053 -4038 0
4054 -4053 4038 0
4054 4053 -4038 0
-4055 4054 4039 0
-4055 -4054 -4039 0
4055 -4054 4039 0
4055 4054 -4039 0
-4056 4055 4040 0
-4056 -4055 -4040 0
4056 -4055 4040 0
4056 4055 -4040 0
-4057 4056 4041 0
-4057 -4056 -4041 0
4057 -4056 4041 0
4057 4056 -4041 0
-4057 0
-4058 1 0
-4058 31 0
4058 -1 -31 0
-4059 4058 0
-4059 33 0
4059 -4058 -33 0
-4060 2 0
-4060 32 0
4060 -2 -32 0
-4061 4060 0
-4061 33 0
4061 -4060 -33 0
-4062 3 0
-4062 30 0
4062 -3 -30 0
-4063 4062 0
-4063 33 0
4063 -4062 -33 0
-4064 17 0
-4064 12 0
4064 -17 -12 0
-4065 4064 0
-4065 33 0
4065 -4064 -33 0
-4066 21 0
-4066 16 0
4066 -21 -16 0
-4067 4066 0
-4067 33 0
4067 -4066 -33 0
-4068 25 0
-4068 8 0
4068 -25 -8 0
-4069 4068 0
-4069 33 0
4069 -4068 -33 0
-4070 49 0
-4070 79 0
4070 -49 -79 0
-4071 4070 0
-4071 81 0
4071 -4070 -81 0
-4072 50 0
-4072 80 0
4072 -50 -80 0
-4073 4072 0
-4073 81 0
4073 -4072 -81 0
-4074 97 0
-4074 127 0
4074 -97 -127 0
-4075 4074 0
-4075 129 0
4075 -4074 -129 0
-4076 145 0
-4076 175 0
4076 -145 -175 0
-4077 4076 0
-4077 177 0
4077 -4076 -177 0
-4078 4059 4059 0
-4078 -4059 -4059 0
4078 -4059 4059 0
4078 4059 -4059 0
-4079 4078 4061 0
-4079 -4078 -4061 0
4079 -4078 4061 0
4079 4078 -4061 0
-4080 4079 4063 0
-4080 -4079 -4063 0
4080 -4079 4063 0
4080 4079 -4063 0
-4081 4080 4061 0
-4081 -4080 -4061 0
4081 -4080 4061 0
4081 4080 -4061 0
-4082 4081 4063 0
-4082 -4081 -4063 0
4082 -4081 4063 0
4082 4081 -4063 0
-4083 4082 4065 0
-4083 -4082 -4065 0
4083 -4082 4065 0
4083 4082 -4065 0
-4084 4083 4065 0
-4084 -4083 -4065 0
4084 -4083 4065 0
4084 4083 -4065 0
-4085 4084 4067 0
-4085 -4084 -4067 0
4085 -4084 4067 0
4085 4084 -4067 0
-4086 4085 4069 0
-4086 -4085 -4069 0
4086 -4085 4069 0
4086 4085 -4069 0
-4087 4086 4067 0
-4087 -4086 -4067 0
4087 -4086 4067 0
4087 4086 -4067 0
-4088 4087 4069 0
-4088 -4087 -4069 0
4088 -4087 4069 0
4088 4087 -4069 0
-4089 4088 4071 0
-4089 -4088 -4071 0
4089 -4088 4071 0
4089 4088 -4071 0
-4090 4089 4073 0
-4090 -4089 -4073 0
4090 -4089 4073 0
4090 4089 -4073 0
-4091 4090 4073 0
-4091 -4090 -4073 0
4091 -4090 4073 0
4091 4090 -4073 0
-4092 4091 4075 0
-4092 -4091 -4075 0
4092 -4091 4075 0
4092 4091 -4075 0
-4093 4092 4077 0
-4093 -4092 -4077 0
4093 -4092 4077 0
4093 4092 -4077 0
-4093 0
-4094 4058 0
-4094 34 0
4094 -4058 -34 0
-4095 4058 0
-4095 36 0
4095 -4058 -36 0
-4096 4060 0
-4096 34 0
4096 -4060 -34 0
-4097 4062 0
-4097 36 0
4097 -4062 -36 0
-4098 4060 0
-4098 35 0
4098 -4060 -35 0
-4099 4062 0
-4099 35 0
4099 -4062 -35 0
-4100 4064 0
-4100 37 0
4100 -4064 -37 0
-4101 4064 0
-4101 45 0
4101 -4064 -45 0
-4102 4066 0
-4102 37 0
4102 -4066 -37 0
-4103 4068 0
-4103 45 0
4103 -4068 -45 0
-4104 4066 0
-4104 41 0
4104 -4066 -41 0
-4105 4068 0
-4105 41 0
4105 -4068 -41 0
-4106 4070 0
-4106 82 0
4106 -4070 -82 0
-4107 4072 0
-4107 82 0
4107 -4072 -82 0
-4108 4072 0
-4108 83 0
4108 -4072 -83 0
-4109 4074 0
-4109 130 0
4109 -4074 -130 0
-4110 4076 0
-4110 178 0
4110 -4076 -178 0
-4111 4094 4095 0
-4111 -4094 -4095 0
4111 -4094 4095 0
4111 4094 -4095 0
-4112 4111 4096 0
-4112 -4111 -4096 0
4112 -4111 4096 0
4112 4111 -4096 0
-4113 4112 4097 0
-4113 -4112 -4097 0
4113 -4112 4097 0
4113 4112 -4097 0
-4114 4113 4098 0
-4114 -4113 -4098 0
4114 -4113 4098 0
4114 4113 -4098 0
-4115 4114 4099 0
-4115 -4114 -4099 0
4115 -4114 4099 0
4115 4114 -4099 0
-4116 4115 4100 0
-4116 -4115 -4100 0
4116 -4115 4100 0
4116 4115 -4100 0
-4117 4116 4101 0
-4117 -4116 -4101 0
4117 -4116 4101 0
4117 4116 -4101 0
-4118 4117 4102 0
-4118 -4117 -4102 0
4118 -4117 4102 0
4118 4117 -4102 0
-4119 4118 4103 0
-4119 -4118 -4103 0
4119 -4118 4103 0
4119 4118 -4103 0
-4120 4119 4104 0
-4120 -4119 -4104 0
4120 -4119 4104 0
4120 4119 -4104 0
-4121 4120 4105 0
-4121 -4120 -4105 0
4121 -4120 4105 0
4121 4120 -4105 0
-4122 4121 4106 0
-4122 -4121 -4106 0
4122 -4121 4106 0
4122 4121 -4106 0
-4123 4122 4107 0
-4123 -4122 -4107 0
4123 -4122 4107 0
4123 4122 -4107 0
-4124 4123 4108 0
-4124 -4123 -4108 0
4124 -4123 4108 0
4124 4123 -4108 0
-4125 4124 4109 0
-4125 -4124 -4109 0
4125 -4124 4109 0
4125 4124 -4109 0
-4126 4125 4110 0
-4126 -4125 -4110 0
4126 -4125 4110 0
4126 4125 -4110 0
-4126 0
-4127 4058 0
-4127 35 0
4127 -4058 -35 0
-4128 4060 0
-4128 36 0
4128 -4060 -36 0
-4129 4062 0
-4129 34 0
4129 -4062 -34 0
-4130 4064 0
-4130 41 0
4130 -4064 -41 0
-4131 4066 0
-4131 45 0
4131 -4066 -45 0
-4132 4068 0
-4132 37 0
4132 -4068 -37 0
-4133 4070 0
-4133 83 0
4133 -4070 -83 0
-4134 4072 0
-4134 84 0
4134 -4072 -84 0
-4135 4074 0
-4135 131 0
4135 -4074 -131 0
-4136 4076 0
-4136 179 0
4136 -4076 -179 0
-4137 4127 4127 0
-4137 -4127 -4127 0
4137 -4127 4127 0
4137 4127 -4127 0
-4138 4137 4128 0
-4138 -4137 -4128 0
4138 -4137 4128 0
4138 4137 -4128 0
-4139 4138 4129 0
-4139 -4138 -4129 0
4139 -4138 4129 0
4139 4138 -4129 0
-4140 4139 4128 0
-4140 -4139 -4128 0
4140 -4139 4128 0
4140 4139 -4128 0
-4141 4140 4129 0
-4141 -4140 -4129 0
4141 -4140 4129 0
4141 4140 -4129 0
-4142 4141 4130 0
-4142 -4141 -4130 0
4142 -4141 4130 0
4142 4141 -4130 0
-4143 4142 4130 0
-4143 -4142 -4130 0
4143 -4142 4130 0
4143 4142 -4130 0
-4144 4143 4131 0
-4144 -4143 -4131 0
4144 -4143 4131 0
4144 4143 -4131 0
-4145 4144 4132 0
-4145 -4144 -4132 0
4145 -4144 4132 0
4145 4144 -4132 0
-4146 4145 4131 0
-4146 -4145 -4131 0
4146 -4145 4131 0
4146 4145 -4131 0
-4147 4146 4132 0
-4147 -4146 -4132 0
4147 -4146 4132 0
4147 4146 -4132 0
-4148 4147 4133 0
-4148 -4147 -4133 0
4148 -4147 4133 0
4148 4147 -4133 0
-4149 4148 4134 0
-4149 -4148 -4134 0
4149 -4148 4134 0
4149 4148 -4134 0
-4150 4149 4134 0
-4150 -4149 -4134 0
4150 -4149 4134 0
4150 4149 -4134 0
-4151 4150 4135 0
-4151 -4150 -4135 0
4151 -4150 4135 0
4151 4150 -4135 0
-4152 4151 4136 0
-4152 -4151 -4136 0
4152 -4151 4136 0
4152 4151 -4136 0
-4152 0
-4153 4058 0
-4153 37 0
4153 -4058 -37 0
-4154 4058 0
-4154 45 0
4154 -4058 -45 0
-4155 4060 0
-4155 37 0
4155 -4060 -37 0
-4156 4062 0
-4156 45 0
4156 -4062 -45 0
-4157 4060 0
-4157 41 0
4157 -4060 -41 0
-4158 4062 0
-4158 41 0
4158 -4062 -41 0
-4159 4064 0
-4159 34 0
4159 -4064 -34 0
-4160 4064 0
-4160 36 0
4160 -4064 -36 0
-4161 4066 0
-4161 34 0
4161 -4066 -34 0
-4162 4068 0
-4162 36 0
4162 -4068 -36 0
-4163 4066 0
-4163 35 0
4163 -4066 -35 0
-4164 4068 0
-4164 35 0
4164 -4068 -35 0
-4165 4070 0
-4165 85 0
4165 -4070 -85 0
-4166 4072 0
-4166 85 0
4166 -4072 -85 0
-4167 4072 0
-4167 89 0
4167 -4072 -89 0
-4168 4074 0
-4168 133 0
4168 -4074 -133 0
-4169 4076 0
-4169 181 0
4169 -4076 -181 0
-4170 4153 4154 0
-4170 -4153 -4154 0
4170 -4153 4154 0
4170 4153 -4154 0
-4171 4170 4155 0
-4171 -4170 -4155 0
4171 -4170 4155 0
4171 4170 -4155 0
-4172 4171 4156 0
-4172 -4171 -4156 0
4172 -4171 4156 0
4172 4171 -4156 0
-4173 4172 4157 0
-4173 -4172 -4157 0
4173 -4172 4157 0
4173 4172 -4157 0
-4174 4173 4158 0
-4174 -4173 -4158 0
4174 -4173 4158 0
4174 4173 -4158 0
-4175 4174 4159 0
-4175 -4174 -4159 0
4175 -4174 4159 0
4175 4174 -4159 0
-4176 4175 4160 0
-4176 -4175 -4160 0
4176 -4175 4160 0
4176 4175 -4160 0
-4177 4176 4161 0
-4177 -4176 -4161 0
4177 -4176 4161 0
4177 4176 -4161 0
-4178 4177 4162 0
-4178 -4177 -4162 0
4178 -4177 4162 0
4178 4177 -4162 0
-4179 4178 4163 0
-4179 -4178 -4163 0
4179 -4178 4163 0
4179 4178 -4163 0
-4180 4179 4164 0
-4180 -4179 -4164 0
4180 -4179 4164 0
4180 4179 -4164 0
-4181 4180 4165 0
-4181 -4180 -4165 0
4181 -4180 4165 0
4181 4180 -4165 0
-4182 4181 4166 0
-4182 -4181 -4166 0
4182 -4181 4166 0
4182 4181 -4166 0
-4183 4182 4167 0
-4183 -4182 -4167 0
4183 -4182 4167 0
4183 4182 -4167 0
-4184 4183 4168 0
-4184 -4183 -4168 0
4184 -4183 4168 0
4184 4183 -4168 0
-4185 4184 4169 0
-4185 -4184 -4169 0
4185 -4184 4169 0
4185 4184 -4169 0
-4185 0
-4186 4058 0
-4186 38 0
4186 -4058 -38 0
-4187 4058 0
-4187 48 0
4187 -4058 -48 0
-4188 4060 0
-4188 38 0
4188 -4060 -38 0
-4189 4062 0
-4189 48 0
4189 -4062 -48 0
-4190 4060 0
-4190 43 0
4190 -4060 -43 0
-4191 4062 0
-4191 43 0
4191 -4062 -43 0
-4192 4064 0
-4192 38 0
4192 -4064 -38 0
-4193 4064 0
-4193 48 0
4193 -4064 -48 0
-4194 4066 0
-4194 38 0
4194 -4066 -38 0
-4195 4068 0
-4195 48 0
4195 -4068 -48 0
-4196 4066 0
-4196 43 0
4196 -4066 -43 0
-4197 4068 0
-4197 43 0
4197 -4068 -43 0
-4198 4070 0
-4198 86 0
4198 -4070 -86 0
-4199 4072 0
-4199 86 0
4199 -4072 -86 0
-4200 4072 0
-4200 91 0
4200 -4072 -91 0
-4201 4074 0
-4201 134 0
4201 -4074 -134 0
-4202 4076 0
-4202 182 0
4202 -4076 -182 0
-4203 4186 4187 0
-4203 -4186 -4187 0
4203 -4186 4187 0
4203 4186 -4187 0
-4204 4203 4188 0
-4204 -4203 -4188 0
4204 -4203 4188 0
4204 4203 -4188 0
-4205 4204 4189 0
-4205 -4204 -4189 0
4205 -4204 4189 0
4205 4204 -4189 0
-4206 4205 4190 0
-4206 -4205 -4190 0
4206 -4205 4190 0
4206 4205 -4190 0
-4207 4206 4191 0
-4207 -4206 -4191 0
4207 -4206 4191 0
4207 4206 -4191 0
-4208 4207 4192 0
-4208 -4207 -4192 0
4208 -4207 4192 0
4208 4207 -4192 0
-4209 4208 4193 0
-4209 -4208 -4193 0
4209 -4208 4193 0
4209 4208 -4193 0
-4210 4209 4194 0
-4210 -4209 -4194 0
4210 -4209 4194 0
4210 4209 -4194 0
-4211 4210 4195 0
-4211 -4210 -4195 0
4211 -4210 4195 0
4211 4210 -4195 0
-4212 4211 4196 0
-4212 -4211 -4196 0
4212 -4211 4196 0
4212 4211 -4196 0
-4213 4212 4197 0
-4213 -4212 -4197 0
4213 -4212 4197 0
4213 4212 -4197 0
-4214 4213 4198 0
-4214 -4213 -4198 0
4214 -4213 4198 0
4214 4213 -4198 0
-4215 4214 4199 0
-4215 -4214 -4199 0
4215 -4214 4199 0
4215 4214 -4199 0
-4216 4215 4200 0
-4216 -4215 -4200 0
4216 -4215 4200 0
4216 4215 -4200 0
-4217 4216 4201 0
-4217 -4216 -4201 0
4217 -4216 4201 0
4217 4216 -4201 0
-4218 4217 4202 0
-4218 -4217 -4202 0
4218 -4217 4202 0
4218 4217 -4202 0
-4218 0
-4219 4058 0
-4219 39 0
4219 -4058 -39 0
-4220 4058 0
-4220 47 0
4220 -4058 -47 0
-4221 4060 0
-4221 40 0
4221 -4060 -40 0
-4222 4062 0
-4222 46 0
4222 -4062 -46 0
-4223 4060 0
-4223 44 0
4223 -4060 -44 0
-4224 4062 0
-4224 42 0
4224 -4062 -42 0
-4225 4064 0
-4225 42 0
4225 -4064 -42 0
-4226 4064 0
-4226 44 0
4226 -4064 -44 0
-4227 4066 0
-4227 46 0
4227 -4066 -46 0
-4228 4068 0
-4228 40 0
4228 -4068 -40 0
-4229 4066 0
-4229 47 0
4229 -4066 -47 0
-4230 4068 0
-4230 39 0
4230 -4068 -39 0
-4231 4070 0
-4231 87 0
4231 -4070 -87 0
-4232 4072 0
-4232 88 0
4232 -4072 -88 0
-4233 4072 0
-4233 92 0
4233 -4072 -92 0
-4234 4074 0
-4234 135 0
4234 -4074 -135 0
-4235 4076 0
-4235 183 0
4235 -4076 -183 0
-4236 4219 4220 0
-4236 -4219 -4220 0
4236 -4219 4220 0
4236 4219 -4220 0
-4237 4236 4221 0
-4237 -4236 -4221 0
4237 -4236 4221 0
4237 4236 -4221 0
-4238 4237 4222 0
-4238 -4237 -4222 0
4238 -4237 4222 0
4238 4237 -4222 0
-4239 4238 4223 0
-4239 -4238 -4223 0
4239 -4238 4223 0
4239 4238 -4223 0
-4240 4239 4224 0
-4240 -4239 -4224 0
4240 -4239 4224 0
4240 4239 -4224 0
-4241 4240 4225 0
-4241 -4240 -4225 0
4241 -4240 4225 0
4241 4240 -4225 0
-4242 4241 4226 0
-4242 -4241 -4226 0
4242 -4241 4226 0
4242 4241 -4226 0
-4243 4242 4227 0
-4243 -4242 -4227 0
4243 -4242 4227 0
4243 4242 -4227 0
-4244 4243 4228 0
-4244 -4243 -4228 0
4244 -4243 4228 0
4244 4243 -4228 0
-4245 4244 4229 0
-4245 -4244 -4229 0
4245 -4244 4229 0
4245 4244 -4229 0
-4246 4245 4230 0
-4246 -4245 -4230 0
4246 -4245 4230 0
4246 4245 -4230 0
-4247 4246 4231 0
-4247 -4246 -4231 0
4247 -4246 4231 0
4247 4246 -4231 0
-4248 4247 4232 0
-4248 -4247 -4232 0
4248 -4247 4232 0
4248 4247 -4232 0
-4249 4248 4233 0
-4249 -4248 -4233 0
4249 -4248 4233 0
4249 4248 -4233 0
-4250 4249 4234 0
-4250 -4249 -4234 0
4250 -4249 4234 0
4250 4249 -4234 0
-4251 4250 4235 0
-4251 -4250 -4235 0
4251 -4250 4235 0
4251 4250 -4235 0
-4251 0
-4252 4058 0
-4252 40 0
4252 -4058 -40 0
-4253 4058 0
-4253 46 0
4253 -4058 -46 0
-4254 4060 0
-4254 39 0
4254 -4060 -39 0
-4255 4062 0
-4255 47 0
4255 -4062 -47 0
-4256 4060 0
-4256 42 0
4256 -4060 -42 0
-4257 4062 0
-4257 44 0
4257 -4062 -44 0
-4258 4064 0
-4258 46 0
4258 -4064 -46 0
-4259 4064 0
-4259 40 0
4259 -4064 -40 0
-4260 4066 0
-4260 42 0
4260 -4066 -42 0
-4261 4068 0
-4261 44 0
4261 -4068 -44 0
-4262 4066 0
-4262 39 0
4262 -4066 -39 0
-4263 4068 0
-4263 47 0
4263 -4068 -47 0
-4264 4070 0
-4264 88 0
4264 -4070 -88 0
-4265 4072 0
-4265 87 0
4265 -4072 -87 0
-4266 4072 0
-4266 90 0
4266 -4072 -90 0
-4267 4074 0
-4267 136 0
4267 -4074 -136 0
-4268 4076 0
-4268 184 0
4268 -4076 -184 0
-4269 4252 4253 0
-4269 -4252 -4253 0
4269 -4252 4253 0
4269 4252 -4253 0
-4270 4269 4254 0
-4270 -4269 -4254 0
4270 -4269 4254 0
4270 4269 -4254 0
-4271 4270 4255 0
-4271 -4270 -4255 0
4271 -4270 4255 0
4271 4270 -4255 0
-4272 4271 4256 0
-4272 -4271 -4256 0
4272 -4271 4256 0
4272 4271 -4256 0
-4273 4272 4257 0
-4273 -4272 -4257 0
4273 -4272 4257 0
4273 4272 -4257 0
-4274 4273 4258 0
-4274 -4273 -4258 0
4274 -4273 4258 0
4274 4273 -4258 0
-4275 4274 4259 0
-4275 -4274 -4259 0
4275 -4274 4259 0
4275 4274 -4259 0
-4276 4275 4260 0
-4276 -4275 -4260 0
4276 -4275 4260 0
4276 4275 -4260 0
-4277 4276 4261 0
-4277 -4276 -4261 0
4277 -4276 4261 0
4277 4276 -4261 0
-4278 4277 4262 0
-4278 -4277 -4262 0
4278 -4277 4262 0
4278 4277 -4262 0
-4279 4278 4263 0
-4279 -4278 -4263 0
4279 -4278 4263 0
4279 4278 -4263 0
-4280 4279 4264 0
-4280 -4279 -4264 0
4280 -4279 4264 0
4280 4279 -4264 0
-4281 4280 4265 0
-4281 -4280 -4265 0
4281 -4280 4265 0
4281 4280 -4265 0
-4282 4281 4266 0
-4282 -4281 -4266 0
4282 -4281 4266 0
4282 4281 -4266 0
-4283 4282 4267 0
-4283 -4282 -4267 0
4283 -4282 4267 0
4283 4282 -4267 0
-4284 4283 4268 0
-4284 -4283 -4268 0
4284 -4283 4268 0
4284 4283 -4268 0
-4284 0
-4285 4058 0
-4285 41 0
4285 -4058 -41 0
-4286 4060 0
-4286 45 0
4286 -4060 -45 0
-4287 4062 0
-4287 37 0
4287 -4062 -37 0
-4288 4064 0
-4288 35 0
4288 -4064 -35 0
-4289 4066 0
-4289 36 0
4289 -4066 -36 0
-4290 4068 0
-4290 34 0
4290 -4068 -34 0
-4291 4070 0
-4291 89 0
4291 -4070 -89 0
-4292 4072 0
-4292 93 0
4292 -4072 -93 0
-4293 4074 0
-4293 137 0
4293 -4074 -137 0
-4294 4076 0
-4294 185 0
4294 -4076 -185 0
-4295 4285 4285 0
-4295 -4285 -4285 0
4295 -4285 4285 0
4295 4285 -4285 0
-4296 4295 4286 0
-4296 -4295 -4286 0
4296 -4295 4286 0
4296 4295 -4286 0
-4297 4296 4287 0
-4297 -4296 -4287 0
4297 -4296 4287 0
4297 4296 -4287 0
-4298 4297 4286 0
-4298 -4297 -4286 0
4298 -4297 4286 0
4298 4297 -4286 0
-4299 4298 4287 0
-4299 -4298 -4287 0
4299 -4298 4287 0
4299 4298 -4287 0
-4300 4299 4288 0
-4300 -4299 -4288 0
4300 -4299 4288 0
4300 4299 -4288 0
-4301 4300 4288 0
-4301 -4300 -4288 0
4301 -4300 4288 0
4301 4300 -4288 0
-4302 4301 4289 0
-4302 -4301 -4289 0
4302 -4301 4289 0
4302 4301 -4289 0
-4303 4302 4290 0
-4303 -4302 -4290 0
4303 -4302 4290 0
4303 4302 -4290 0
-4304 4303 4289 0
-4304 -4303 -4289 0
4304 -4303 4289 0
4304 4303 -4289 0
-4305 4304 4290 0
-4305 -4304 -4290 0
4305 -4304 4290 0
4305 4304 -4290 0
-4306 4305 4291 0
-4306 -4305 -4291 0
4306 -4305 4291 0
4306 4305 -4291 0
-4307 4306 4292 0
-4307 -4306 -4292 0
4307 -4306 4292 0
4307 4306 -4292 0
-4308 4307 4292 0
-4308 -4307 -4292 0
4308 -4307 4292 0
4308 4307 -4292 0
-4309 4308 4293 0
-4309 -4308 -4293 0
4309 -4308 4293 0
4309 4308 -4293 0
-4310 4309 4294 0
-4310 -4309 -4294 0
4310 -4309 4294 0
4310 4309 -4294 0
-4310 0
-4311 4058 0
-4311 42 0
4311 -4058 -42 0
-4312 4058 0
-4312 44 0
4312 -4058 -44 0
-4313 4060 0
-4313 46 0
4313 -4060 -46 0
-4314 4062 0
-4314 40 0
4314 -4062 -40 0
-4315 4060 0
-4315 47 0
4315 -4060 -47 0
-4316 4062 0
-4316 39 0
4316 -4062 -39 0
-4317 4064 0
-4317 39 0
4317 -4064 -39 0
-4318 4064 0
-4318 47 0
4318 -4064 -47 0
-4319 4066 0
-4319 40 0
4319 -4066 -40 0
-4320 4068 0
-4320 46 0
4320 -4068 -46 0
-4321 4066 0
-4321 44 0
4321 -4066 -44 0
-4322 4068 0
-4322 42 0
4322 -4068 -42 0
-4323 4070 0
-4323 90 0
4323 -4070 -90 0
-4324 4072 0
-4324 94 0
4324 -4072 -94 0
-4325 4072 0
-4325 95 0
4325 -4072 -95 0
-4326 4074 0
-4326 138 0
4326 -4074 -138 0
-4327 4076 0
-4327 186 0
4327 -4076 -186 0
-4328 4311 4312 0
-4328 -4311 -4312 0
4328 -4311 4312 0
4328 4311 -4312 0
-4329 4328 4313 0
-4329 -4328 -4313 0
4329 -4328 4313 0
4329 4328 -4313 0
-4330 4329 4314 0
-4330 -4329 -4314 0
4330 -4329 4314 0
4330 4329 -4314 0
-4331 4330 4315 0
-4331 -4330 -4315 0
4331 -4330 4315 0
4331 4330 -4315 0
-4332 4331 4316 0
-4332 -4331 -4316 0
4332 -4331 4316 0
4332 4331 -4316 0
-4333 4332 4317 0
-4333 -4332 -4317 0
4333 -4332 4317 0
4333 4332 -4317 0
-4334 4333 4318 0
-4334 -4333 -4318 0
4334 -4333 4318 0
4334 4333 -4318 0
-4335 4334 4319 0
-4335 -4334 -4319 0
4335 -4334 4319 0
4335 4334 -4319 0
-4336 4335 4320 0
-4336 -4335 -4320 0
4336 -4335 4320 0
4336 4335 -4320 0
-4337 4336 4321 0
-4337 -4336 -4321 0
4337 -4336 4321 0
4337 4336 -4321 0
-4338 4337 4322 0
-4338 -4337 -4322 0
4338 -4337 4322 0
4338 4337 -4322 0
-4339 4338 4323 0
-4339 -4338 -4323 0
4339 -4338 4323 0
4339 4338 -4323 0
-4340 4339 4324 0
-4340 -4339 -4324 0
4340 -4339 4324 0
4340 4339 -4324 0
-4341 4340 4325 0
-4341 -4340 -4325 0
4341 -4340 4325 0
4341 4340 -4325 0
-4342 4341 4326 0
-4342 -4341 -4326 0
4342 -4341 4326 0
4342 4341 -4326 0
-4343 4342 4327 0
-4343 -4342 -4327 0
4343 -4342 4327 0
4343 4342 -4327 0
-4343 0
-4344 4058 0
-4344 43 0
4344 -4058 -43 0
-4345 4060 0
-4345 48 0
4345 -4060 -48 0
-4346 4062 0
-4346 38 0
4346 -4062 -38 0
-4347 4064 0
-4347 43 0
4347 -4064 -43 0
-4348 4066 0
-4348 48 0
4348 -4066 -48 0
-4349 4068 0
-4349 38 0
4349 -4068 -38 0
-4350 4070 0
-4350 91 0
4350 -4070 -91 0
-4351 4072 0
-4351 96 0
4351 -4072 -96 0
-4352 4074 0
-4352 139 0
4352 -4074 -139 0
-4353 4076 0
-4353 187 0
4353 -4076 -187 0
-4354 4344 4344 0
-4354 -4344 -4344 0
4354 -4344 4344 0
4354 4344 -4344 0
-4355 4354 4345 0
-4355 -4354 -4345 0
4355 -4354 4345 0
4355 4354 -4345 0
-4356 4355 4346 0
-4356 -4355 -4346 0
4356 -4355 4346 0
4356 4355 -4346 0
-4357 4356 4345 0
-4357 -4356 -4345 0
4357 -4356 4345 0
4357 4356 -4345 0
-4358 4357 4346 0
-4358 -4357 -4346 0
4358 -4357 4346 0
4358 4357 -4346 0
-4359 4358 4347 0
-4359 -4358 -4347 0
4359 -4358 4347 0
4359 4358 -4347 0
-4360 4359 4347 0
-4360 -4359 -4347 0
4360 -4359 4347 0
4360 4359 -4347 0
-4361 4360 4348 0
-4361 -4360 -4348 0
4361 -4360 4348 0
4361 4360 -4348 0
-4362 4361 4349 0
-4362 -4361 -4349 0
4362 -4361 4349 0
4362 4361 -4349 0
-4363 4362 4348 0
-4363 -4362 -4348 0
4363 -4362 4348 0
4363 4362 -4348 0
-4364 4363 4349 0
-4364 -4363 -4349 0
4364 -4363 4349 0
4364 4363 -4349 0
-4365 4364 4350 0
-4365 -4364 -4350 0
4365 -4364 4350 0
4365 4364 -4350 0
-4366 4365 4351 0
-4366 -4365 -4351 0
4366 -4365 4351 0
4366 4365 -4351 0
-4367 4366 4351 0
-4367 -4366 -4351 0
4367 -4366 4351 0
4367 4366 -4351 0
-4368 4367 4352 0
-4368 -4367 -4352 0
4368 -4367 4352 0
4368 4367 -4352 0
-4369 4368 4353 0
-4369 -4368 -4353 0
4369 -4368 4353 0
4369 4368 -4353 0
-4369 0
-4370 4 0
-4370 18 0
4370 -4 -18 0
-4371 4370 0
-4371 33 0
4371 -4370 -33 0
-4372 4 0
-4372 20 0
4372 -4 -20 0
-4373 4372 0
-4373 33 0
4373 -4372 -33 0
-4374 4 0
-4374 22 0
4374 -4 -22 0
-4375 4374 0
-4375 33 0
4375 -4374 -33 0
-4376 4 0
-4376 28 0
4376 -4 -28 0
-4377 4376 0
-4377 33 0
4377 -4376 -33 0
-4378 4 0
-4378 23 0
4378 -4 -23 0
-4379 4378 0
-4379 33 0
4379 -4378 -33 0
-4380 4 0
-4380 27 0
4380 -4 -27 0
-4381 4380 0
-4381 33 0
4381 -4380 -33 0
-4382 29 0
-4382 5 0
4382 -29 -5 0
-4383 4382 0
-4383 33 0
4383 -4382 -33 0
-4384 29 0
-4384 13 0
4384 -29 -13 0
-4385 4384 0
-4385 33 0
4385 -4384 -33 0
-4386 29 0
-4386 6 0
4386 -29 -6 0
-4387 4386 0
-4387 33 0
4387 -4386 -33 0
-4388 29 0
-4388 15 0
4388 -29 -15 0
-4389 4388 0
-4389 33 0
4389 -4388 -33 0
-4390 29 0
-4390 10 0
4390 -29 -10 0
-4391 4390 0
-4391 33 0
4391 -4390 -33 0
-4392 29 0
-4392 11 0
4392 -29 -11 0
-4393 4392 0
-4393 33 0
4393 -4392 -33 0
-4394 52 0
-4394 66 0
4394 -52 -66 0
-4395 4394 0
-4395 81 0
4395 -4394 -81 0
-4396 52 0
-4396 70 0
4396 -52 -70 0
-4397 4396 0
-4397 81 0
4397 -4396 -81 0
-4398 52 0
-4398 71 0
4398 -52 -71 0
-4399 4398 0
-4399 81 0
4399 -4398 -81 0
-4400 100 0
-4400 114 0
4400 -100 -114 0
-4401 4400 0
-4401 129 0
4401 -4400 -129 0
-4402 148 0
-4402 162 0
4402 -148 -162 0
-4403 4402 0
-4403 177 0
4403 -4402 -177 0
-4404 4371 4373 0
-4404 -4371 -4373 0
4404 -4371 4373 0
4404 4371 -4373 0
-4405 4404 4375 0
-4405 -4404 -4375 0
4405 -4404 4375 0
4405 4404 -4375 0
-4406 4405 4377 0
-4406 -4405 -4377 0
4406 -4405 4377 0
4406 4405 -4377 0
-4407 4406 4379 0
-4407 -4406 -4379 0
4407 -4406 4379 0
4407 4406 -4379 0
-4408 4407 4381 0
-4408 -4407 -4381 0
4408 -4407 4381 0
4408 4407 -4381 0
-4409 4408 4383 0
-4409 -4408 -4383 0
4409 -4408 4383 0
4409 4408 -4383 0
-4410 4409 4385 0
-4410 -4409 -4385 0
4410 -4409 4385 0
4410 4409 -4385 0
-4411 4410 4387 0
-4411 -4410 -4387 0
4411 -4410 4387 0
4411 4410 -4387 0
-4412 4411 4389 0
-4412 -4411 -4389 0
4412 -4411 4389 0
4412 4411 -4389 0
-4413 4412 4391 0
-4413 -4412 -4391 0
4413 -4412 4391 0
4413 4412 -4391 0
-4414 4413 4393 0
-4414 -4413 -4393 0
4414 -4413 4393 0
4414 4413 -4393 0
-4415 4414 4395 0
-4415 -4414 -4395 0
4415 -4414 4395 0
4415 4414 -4395 0
-4416 4415 4397 0
-4416 -4415 -4397 0
4416 -4415 4397 0
4416 4415 -4397 0
-4417 4416 4399 0
-4417 -4416 -4399 0
4417 -4416 4399 0
4417 4416 -4399 0
-4418 4417 4401 0
-4418 -4417 -4401 0
4418 -4417 4401 0
4418 4417 -4401 0
-4419 4418 4403 0
-4419 -4418 -4403 0
4419 -4418 4403 0
4419 4418 -4403 0
-4419 0
-4420 4370 0
-4420 34 0
4420 -4370 -34 0
-4421 4372 0
-4421 36 0
4421 -4372 -36 0
-4422 4374 0
-4422 34 0
4422 -4374 -34 0
-4423 4376 0
-4423 36 0
4423 -4376 -36 0
-4424 4378 0
-4424 35 0
4424 -4378 -35 0
-4425 4380 0
-4425 35 0
4425 -4380 -35 0
-4426 4382 0
-4426 37 0
4426 -4382 -37 0
-4427 4384 0
-4427 45 0
4427 -4384 -45 0
-4428 4386 0
-4428 37 0
4428 -4386 -37 0
-4429 4388 0
-4429 45 0
4429 -4388 -45 0
-4430 4390 0
-4430 41 0
4430 -4390 -41 0
-4431 4392 0
-4431 41 0
4431 -4392 -41 0
-4432 4394 0
-4432 82 0
4432 -4394 -82 0
-4433 4396 0
-4433 82 0
4433 -4396 -82 0
-4434 4398 0
-4434 83 0
4434 -4398 -83 0
-4435 4400 0
-4435 130 0
4435 -4400 -130 0
-4436 4402 0
-4436 178 0
4436 -4402 -178 0
-4437 4420 4421 0
-4437 -4420 -4421 0
4437 -4420 4421 0
4437 4420 -4421 0
-4438 4437 4422 0
-4438 -4437 -4422 0
4438 -4437 4422 0
4438 4437 -4422 0
-4439 4438 4423 0
-4439 -4438 -4423 0
4439 -4438 4423 0
4439 4438 -4423 0
-4440 4439 4424 0
-4440 -4439 -4424 0
4440 -4439 4424 0
4440 4439 -4424 0
-4441 4440 4425 0
-4441 -4440 -4425 0
4441 -4440 4425 0
4441 4440 -4425 0
-4442 4441 4426 0
-4442 -4441 -4426 0
4442 -4441 4426 0
4442 4441 -4426 0
-4443 4442 4427 0
-4443 -4442 -4427 0
4443 -4442 4427 0
4443 4442 -4427 0
-4444 4443 4428 0
-4444 -4443 -4428 0
4444 -4443 4428 0
4444 4443 -4428 0
-4445 4444 4429 0
-4445 -4444 -4429 0
4445 -4444 4429 0
4445 4444 -4429 0
-4446 4445 4430 0
-4446 -4445 -4430 0
4446 -4445 4430 0
4446 4445 -4430 0
-4447 4446 4431 0
-4447 -4446 -4431 0
4447 -4446 4431 0
4447 4446 -4431 0
-4448 4447 4432 0
-4448 -4447 -4432 0
4448 -4447 4432 0
4448 4447 -4432 0
-4449 4448 4433 0
-4449 -4448 -4433 0
4449 -4448 4433 0
4449 4448 -4433 0
-4450 4449 4434 0
-4450 -4449 -4434 0
4450 -4449 4434 0
4450 4449 -4434 0
-4451 4450 4435 0
-4451 -4450 -4435 0
4451 -4450 4435 0
4451 4450 -4435 0
-4452 4451 4436 0
-4452 -4451 -4436 0
4452 -4451 4436 0
4452 4451 -4436 0
-4452 0
-4453 4370 0
-4453 35 0
4453 -4370 -35 0
-4454 4372 0
-4454 35 0
4454 -4372 -35 0
-4455 4374 0
-4455 36 0
4455 -4374 -36 0
-4456 4376 0
-4456 34 0
4456 -4376 -34 0
-4457 4378 0
-4457 36 0
4457 -4378 -36 0
-4458 4380 0
-4458 34 0
4458 -4380 -34 0
-4459 4382 0
-4459 41 0
4459 -4382 -41 0
-4460 4384 0
-4460 41 0
4460 -4384 -41 0
-4461 4386 0
-4461 45 0
4461 -4386 -45 0
-4462 4388 0
-4462 37 0
4462 -4388 -37 0
-4463 4390 0
-4463 45 0
4463 -4390 -45 0
-4464 4392 0
-4464 37 0
4464 -4392 -37 0
-4465 4394 0
-4465 83 0
4465 -4394 -83 0
-4466 4396 0
-4466 84 0
4466 -4396 -84 0
-4467 4398 0
-4467 84 0
4467 -4398 -84 0
-4468 4400 0
-4468 131 0
4468 -4400 -131 0
-4469 4402 0
-4469 179 0
4469 -4402 -179 0
-4470 4453 4454 0
-4470 -4453 -4454 0
4470 -4453 4454 0
4470 4453 -4454 0
-4471 4470 4455 0
-4471 -4470 -4455 0
4471 -4470 4455 0
4471 4470 -4455 0
-4472 4471 4456 0
-4472 -4471 -4456 0
4472 -4471 4456 0
4472 4471 -4456 0
-4473 4472 4457 0
-4473 -4472 -4457 0
4473 -4472 4457 0
4473 4472 -4457 0
-4474 4473 4458 0
-4474 -4473 -4458 0
4474 -4473 4458 0
4474 4473 -4458 0
-4475 4474 4459 0
-4475 -4474 -4459 0
4475 -4474 4459 0
4475 4474 -4459 0
-4476 4475 4460 0
-4476 -4475 -4460 0
4476 -4475 4460 0
4476 4475 -4460 0
-4477 4476 4461 0
-4477 -4476 -4461 0
4477 -4476 4461 0
4477 4476 -4461 0
-4478 4477 4462 0
-4478 -4477 -4462 0
4478 -4477 4462 0
4478 4477 -4462 0
-4479 4478 4463 0
-4479 -4478 -4463 0
4479 -4478 4463 0
4479 4478 -4463 0
-4480 4479 4464 0
-4480 -4479 -4464 0
4480 -4479 4464 0
4480 4479 -4464 0
-4481 4480 4465 0
-4481 -4480 -4465 0
4481 -4480 4465 0
4481 4480 -4465 0
-4482 4481 4466 0
-4482 -4481 -4466 0
4482 -4481 4466 0
4482 4481 -4466 0
-4483 4482 4467 0
-4483 -4482 -4467 0
4483 -4482 4467 0
4483 4482 -4467 0
-4484 4483 4468 0
-4484 -4483 -4468 0
4484 -4483 4468 0
4484 4483 -4468 0
-4485 4484 4469 0
-4485 -4484 -4469 0
4485 -4484 4469 0
4485 4484 -4469 0
-4485 0
-4486 4370 0
-4486 36 0
4486 -4370 -36 0
-4487 4372 0
-4487 34 0
4487 -4372 -34 0
-4488 4374 0
-4488 35 0
4488 -4374 -35 0
-4489 4376 0
-4489 35 0
4489 -4376 -35 0
-4490 4378 0
-4490 34 0
4490 -4378 -34 0
-4491 4380 0
-4491 36 0
4491 -4380 -36 0
-4492 4382 0
-4492 45 0
4492 -4382 -45 0
-4493 4384 0
-4493 37 0
4493 -4384 -37 0
-4494 4386 0
-4494 41 0
4494 -4386 -41 0
-4495 4388 0
-4495 41 0
4495 -4388 -41 0
-4496 4390 0
-4496 37 0
4496 -4390 -37 0
-4497 4392 0
-4497 45 0
4497 -4392 -45 0
-4498 4394 0
-4498 84 0
4498 -4394 -84 0
-4499 4396 0
-4499 83 0
4499 -4396 -83 0
-4500 4398 0
-4500 82 0
4500 -4398 -82 0
-4501 4400 0
-4501 132 0
4501 -4400 -132 0
-4502 4402 0
-4502 180 0
4502 -4402 -180 0
-4503 4486 4487 0
-4503 -4486 -4487 0
4503 -4486 4487 0
4503 4486 -4487 0
-4504 4503 4488 0
-4504 -4503 -4488 0
4504 -4503 4488 0
4504 4503 -4488 0
-4505 4504 4489 0
-4505 -4504 -4489 0
4505 -4504 4489 0
4505 4504 -4489 0
-4506 4505 4490 0
-4506 -4505 -4490 0
4506 -4505 4490 0
4506 4505 -4490 0
-4507 4506 4491 0
-4507 -4506 -4491 0
4507 -4506 4491 0
4507 4506 -4491 0
-4508 4507 4492 0
-4508 -4507 -4492 0
4508 -4507 4492 0
4508 4507 -4492 0
-4509 4508 4493 0
-4509 -4508 -4493 0
4509 -4508 4493 0
4509 4508 -4493 0
-4510 4509 4494 0
-4510 -4509 -4494 0
4510 -4509 4494 0
4510 4509 -4494 0
-4511 4510 4495 0
-4511 -4510 -4495 0
4511 -4510 4495 0
4511 4510 -4495 0
-4512 4511 4496 0
-4512 -4511 -4496 0
4512 -4511 4496 0
4512 4511 -4496 0
-4513 4512 4497 0
-4513 -4512 -4497 0
4513 -4512 4497 0
4513 4512 -4497 0
-4514 4513 4498 0
-4514 -4513 -4498 0
4514 -4513 4498 0
4514 4513 -4498 0
-4515 4514 4499 0
-4515 -4514 -4499 0
4515 -4514 4499 0
4515 4514 -4499 0
-4516 4515 4500 0
-4516 -4515 -4500 0
4516 -4515 4500 0
4516 4515 -4500 0
-4517 4516 4501 0
-4517 -4516 -4501 0
4517 -4516 4501 0
4517 4516 -4501 0
-4518 4517 4502 0
-4518 -4517 -4502 0
4518 -4517 4502 0
4518 4517 -4502 0
-4518 0
-4519 4370 0
-4519 37 0
4519 -4370 -37 0
-4520 4372 0
-4520 45 0
4520 -4372 -45 0
-4521 4374 0
-4521 37 0
4521 -4374 -37 0
-4522 4376 0
-4522 45 0
4522 -4376 -45 0
-4523 4378 0
-4523 41 0
4523 -4378 -41 0
-4524 4380 0
-4524 41 0
4524 -4380 -41 0
-4525 4382 0
-4525 34 0
4525 -4382 -34 0
-4526 4384 0
-4526 36 0
4526 -4384 -36 0
-4527 4386 0
-4527 34 0
4527 -4386 -34 0
-4528 4388 0
-4528 36 0
4528 -4388 -36 0
-4529 4390 0
-4529 35 0
4529 -4390 -35 0
-4530 4392 0
-4530 35 0
4530 -4392 -35 0
-4531 4394 0
-4531 85 0
4531 -4394 -85 0
-4532 4396 0
-4532 85 0
4532 -4396 -85 0
-4533 4398 0
-4533 89 0
4533 -4398 -89 0
-4534 4400 0
-4534 133 0
4534 -4400 -133 0
-4535 4402 0
-4535 181 0
4535 -4402 -181 0
-4536 4519 4520 0
-4536 -4519 -4520 0
4536 -4519 4520 0
4536 4519 -4520 0
-4537 4536 4521 0
-4537 -4536 -4521 0
4537 -4536 4521 0
4537 4536 -4521 0
-4538 4537 4522 0
-4538 -4537 -4522 0
4538 -4537 4522 0
4538 4537 -4522 0
-4539 4538 4523 0
-4539 -4538 -4523 0
4539 -4538 4523 0
4539 4538 -4523 0
-4540 4539 4524 0
-4540 -4539 -4524 0
4540 -4539 4524 0
4540 4539 -4524 0
-4541 4540 4525 0
-4541 -4540 -4525 0
4541 -4540 4525 0
4541 4540 -4525 0
-4542 4541 4526 0
-4542 -4541 -4526 0
4542 -4541 4526 0
4542 4541 -4526 0
-4543 4542 4527 0
-4543 -4542 -4527 0
4543 -4542 4527 0
4543 4542 -4527 0
-4544 4543 4528 0
-4544 -4543 -4528 0
4544 -4543 4528 0
4544 4543 -4528 0
-4545 4544 4529 0
-4545 -4544 -4529 0
4545 -4544 4529 0
4545 4544 -4529 0
-4546 4545 4530 0
-4546 -4545 -4530 0
4546 -4545 4530 0
4546 4545 -4530 0
-4547 4546 4531 0
-4547 -4546 -4531 0
4547 -4546 4531 0
4547 4546 -4531 0
-4548 4547 4532 0
-4548 -4547 -4532 0
4548 -4547 4532 0
4548 4547 -4532 0
-4549 4548 4533 0
-4549 -4548 -4533 0
4549 -4548 4533 0
4549 4548 -4533 0
-4550 4549 4534 0
-4550 -4549 -4534 0
4550 -4549 4534 0
4550 4549 -4534 0
-4551 4550 4535 0
-4551 -4550 -4535 0
4551 -4550 4535 0
4551 4550 -4535 0
4551 0
-4552 4370 0
-4552 38 0
4552 -4370 -38 0
-4553 4372 0
-4553 48 0
4553 -4372 -48 0
-4554 4374 0
-4554 38 0
4554 -4374 -38 0
-4555 4376 0
-4555 48 0
4555 -4376 -48 0
-4556 4378 0
-4556 43 0
4556 -4378 -43 0
-4557 4380 0
-4557 43 0
4557 -4380 -43 0
-4558 4382 0
-4558 38 0
4558 -4382 -38 0
-4559 4384 0
-4559 48 0
4559 -4384 -48 0
-4560 4386 0
-4560 38 0
4560 -4386 -38 0
-4561 4388 0
-4561 48 0
4561 -4388 -48 0
-4562 4390 0
-4562 43 0
4562 -4390 -43 0
-4563 4392 0
-4563 43 0
4563 -4392 -43 0
-4564 4394 0
-4564 86 0
4564 -4394 -86 0
-4565 4396 0
-4565 86 0
4565 -4396 -86 0
-4566 4398 0
-4566 91 0
4566 -4398 -91 0
-4567 4400 0
-4567 134 0
4567 -4400 -134 0
-4568 4402 0
-4568 182 0
4568 -4402 -182 0
-4569 4552 4553 0
-4569 -4552 -4553 0
4569 -4552 4553 0
4569 4552 -4553 0
-4570 4569 4554 0
-4570 -4569 -4554 0
4570 -4569 4554 0
4570 4569 -4554 0
-4571 4570 4555 0
-4571 -4570 -4555 0
4571 -4570 4555 0
4571 4570 -4555 0
-4572 4571 4556 0
-4572 -4571 -4556 0
4572 -4571 4556 0
4572 4571 -4556 0
-4573 4572 4557 0
-4573 -4572 -4557 0
4573 -4572 4557 0
4573 4572 -4557 0
-4574 4573 4558 0
-4574 -4573 -4558 0
4574 -4573 4558 0
4574 4573 -4558 0
-4575 4574 4559 0
-4575 -4574 -4559 0
4575 -4574 4559 0
4575 4574 -4559 0
-4576 4575 4560 0
-4576 -4575 -4560 0
4576 -4575 4560 0
4576 4575 -4560 0
-4577 4576 4561 0
-4577 -4576 -4561 0
4577 -4576 4561 0
4577 4576 -4561 0
-4578 4577 4562 0
-4578 -4577 -4562 0
4578 -4577 4562 0
4578 4577 -4562 0
-4579 4578 4563 0
-4579 -4578 -4563 0
4579 -4578 4563 0
4579 4578 -4563 0
-4580 4579 4564 0
-4580 -4579 -4564 0
4580 -4579 4564 0
4580 4579 -4564 0
-4581 4580 4565 0
-4581 -4580 -4565 0
4581 -4580 4565 0
4581 4580 -4565 0
-4582 4581 4566 0
-4582 -4581 -4566 0
4582 -4581 4566 0
4582 4581 -4566 0
-4583 4582 4567 0
-4583 -4582 -4567 0
4583 -4582 4567 0
4583 4582 -4567 0
-4584 4583 4568 0
-4584 -4583 -4568 0
4584 -4583 4568 0
4584 4583 -4568 0
-4584 0
-4585 4370 0
-4585 39 0
4585 -4370 -39 0
-4586 4372 0
-4586 47 0
4586 -4372 -47 0
-4587 4374 0
-4587 40 0
4587 -4374 -40 0
-4588 4376 0
-4588 46 0
4588 -4376 -46 0
-4589 4378 0
-4589 44 0
4589 -4378 -44 0
-4590 4380 0
-4590 42 0
4590 -4380 -42 0
-4591 4382 0
-4591 42 0
4591 -4382 -42 0
-4592 4384 0
-4592 44 0
4592 -4384 -44 0
-4593 4386 0
-4593 46 0
4593 -4386 -46 0
-4594 4388 0
-4594 40 0
4594 -4388 -40 0
-4595 4390 0
-4595 47 0
4595 -4390 -47 0
-4596 4392 0
-4596 39 0
4596 -4392 -39 0
-4597 4394 0
-4597 87 0
4597 -4394 -87 0
-4598 4396 0
-4598 88 0
4598 -4396 -88 0
-4599 4398 0
-4599 92 0
4599 -4398 -92 0
-4600 4400 0
-4600 135 0
4600 -4400 -135 0
-4601 4402 0
-4601 183 0
4601 -4402 -183 0
-4602 4585 4586 0
-4602 -4585 -4586 0
4602 -4585 4586 0
4602 4585 -4586 0
-4603 4602 4587 0
-4603 -4602 -4587 0
4603 -4602 4587 0
4603 4602 -4587 0
-4604 4603 4588 0
-4604 -4603 -4588 0
4604 -4603 4588 0
4604 4603 -4588 0
-4605 4604 4589 0
-4605 -4604 -4589 0
4605 -4604 4589 0
4605 4604 -4589 0
-4606 4605 4590 0
-4606 -4605 -4590 0
4606 -4605 4590 0
4606 4605 -4590 0
-4607 4606 4591 0
-4607 -4606 -4591 0
4607 -4606 4591 0
4607 4606 -4591 0
-4608 4607 4592 0
-4608 -4607 -4592 0
4608 -4607 4592 0
4608 4607 -4592 0
-4609 4608 4593 0
-4609 -4608 -4593 0
4609 -4608 4593 0
4609 4608 -4593 0
-4610 4609 4594 0
-4610 -4609 -4594 0
4610 -4609 4594 0
4610 4609 -4594 0
-4611 4610 4595 0
-4611 -4610 -4595 0
4611 -4610 4595 0
4611 4610 -4595 0
-4612 4611 4596 0
-4612 -4611 -4596 0
4612 -4611 4596 0
4612 4611 -4596 0
-4613 4612 4597 0
-4613 -4612 -4597 0
4613 -4612 4597 0
4613 4612 -4597 0
-4614 4613 4598 0
-4614 -4613 -4598 0
4614 -4613 4598 0
4614 4613 -4598 0
-4615 4614 4599 0
-4615 -4614 -4599 0
4615 -4614 4599 0
4615 4614 -4599 0
-4616 4615 4600 0
-4616 -4615 -4600 0
4616 -4615 4600 0
4616 4615 -4600 0
-4617 4616 4601 0
-4617 -4616 -4601 0
4617 -4616 4601 0
4617 4616 -4601 0
4617 0
-4618 4370 0
-4618 40 0
4618 -4370 -40 0
-4619 4372 0
-4619 46 0
4619 -4372 -46 0
-4620 4374 0
-4620 39 0
4620 -4374 -39 0
-4621 4376 0
-4621 47 0
4621 -4376 -47 0
-4622 4378 0
-4622 42 0
4622 -4378 -42 0
-4623 4380 0
-4623 44 0
4623 -4380 -44 0
-4624 4382 0
-4624 46 0
4624 -4382 -46 0
-4625 4384 0
-4625 40 0
4625 -4384 -40 0
-4626 4386 0
-4626 42 0
4626 -4386 -42 0
-4627 4388 0
-4627 44 0
4627 -4388 -44 0
-4628 4390 0
-4628 39 0
4628 -4390 -39 0
-4629 4392 0
-4629 47 0
4629 -4392 -47 0
-4630 4394 0
-4630 88 0
4630 -4394 -88 0
-4631 4396 0
-4631 87 0
4631 -4396 -87 0
-4632 4398 0
-4632 90 0
4632 -4398 -90 0
-4633 4400 0
-4633 136 0
4633 -4400 -136 0
-4634 4402 0
-4634 184 0
4634 -4402 -184 0
-4635 4618 4619 0
-4635 -4618 -4619 0
4635 -4618 4619 0
4635 4618 -4619 0
-4636 4635 4620 0
-4636 -4635 -4620 0
4636 -4635 4620 0
4636 4635 -4620 0
-4637 4636 4621 0
-4637 -4636 -4621 0
4637 -4636 4621 0
4637 4636 -4621 0
-4638 4637 4622 0
-4638 -4637 -4622 0
4638 -4637 4622 0
4638 4637 -4622 0
-4639 4638 4623 0
-4639 -4638 -4623 0
4639 -4638 4623 0
4639 4638 -4623 0
-4640 4639 4624 0
-4640 -4639 -4624 0
4640 -4639 4624 0
4640 4639 -4624 0
-4641 4640 4625 0
-4641 -4640 -4625 0
4641 -4640 4625 0
4641 4640 -4625 0
-4642 4641 4626 0
-4642 -4641 -4626 0
4642 -4641 4626 0
4642 4641 -4626 0
-4643 4642 4627 0
-4643 -4642 -4627 0
4643 -4642 4627 0
4643 4642 -4627 0
-4644 4643 4628 0
-4644 -4643 -4628 0
4644 -4643 4628 0
4644 4643 -4628 0
-4645 4644 4629 0
-4645 -4644 -4629 0
4645 -4644 4629 0
4645 4644 -4629 0
-4646 4645 4630 0
-4646 -4645 -4630 0
4646 -4645 4630 0
4646 4645 -4630 0
-4647 4646 4631 0
-4647 -4646 -4631 0
4647 -4646 4631 0
4647 4646 -4631 0
-4648 4647 4632 0
-4648 -4647 -4632 0
4648 -4647 4632 0
4648 4647 -4632 0
-4649 4648 4633 0
-4649 -4648 -4633 0
4649 -4648 4633 0
4649 4648 -4633 0
-4650 4649 4634 0
-4650 -4649 -4634 0
4650 -4649 4634 0
4650 4649 -4634 0
-4650 0
-4651 4370 0
-4651 41 0
4651 -4370 -41 0
-4652 4372 0
-4652 41 0
4652 -4372 -41 0
-4653 4374 0
-4653 45 0
4653 -4374 -45 0
-4654 4376 0
-4654 37 0
4654 -4376 -37 0
-4655 4378 0
-4655 45 0
4655 -4378 -45 0
-4656 4380 0
-4656 37 0
4656 -4380 -37 0
-4657 4382 0
-4657 35 0
4657 -4382 -35 0
-4658 4384 0
-4658 35 0
4658 -4384 -35 0
-4659 4386 0
-4659 36 0
4659 -4386 -36 0
-4660 4388 0
-4660 34 0
4660 -4388 -34 0
-4661 4390 0
-4661 36 0
4661 -4390 -36 0
-4662 4392 0
-4662 34 0
4662 -4392 -34 0
-4663 4394 0
-4663 89 0
4663 -4394 -89 0
-4664 4396 0
-4664 93 0
4664 -4396 -93 0
-4665 4398 0
-4665 93 0
4665 -4398 -93 0
-4666 4400 0
-4666 137 0
4666 -4400 -137 0
-4667 4402 0
-4667 185 0
4667 -4402 -185 0
-4668 4651 4652 0
-4668 -4651 -4652 0
4668 -4651 4652 0
4668 4651 -4652 0
-4669 4668 4653 0
-4669 -4668 -4653 0
4669 -4668 4653 0
4669 4668 -4653 0
-4670 4669 4654 0
-4670 -4669 -4654 0
4670 -4669 4654 0
4670 4669 -4654 0
-4671 4670 4655 0
-4671 -4670 -4655 0
4671 -4670 4655 0
4671 4670 -4655 0
-4672 4671 4656 0
-4672 -4671 -4656 0
4672 -4671 4656 0
4672 4671 -4656 0
-4673 4672 4657 0
-4673 -4672 -4657 0
4673 -4672 4657 0
4673 4672 -4657 0
-4674 4673 4658 0
-4674 -4673 -4658 0
4674 -4673 4658 0
4674 4673 -4658 0
-4675 4674 4659 0
-4675 -4674 -4659 0
4675 -4674 4659 0
4675 4674 -4659 0
-4676 4675 4660 0
-4676 -4675 -4660 0
4676 -4675 4660 0
4676 4675 -4660 0
-4677 4676 4661 0
-4677 -4676 -4661 0
4677 -4676 4661 0
4677 4676 -4661 0
-4678 4677 4662 0
-4678 -4677 -4662 0
4678 -4677 4662 0
4678 4677 -4662 0
-4679 4678 4663 0
-4679 -4678 -4663 0
4679 -4678 4663 0
4679 4678 -4663 0
-4680 4679 4664 0
-4680 -4679 -4664 0
4680 -4679 4664 0
4680 4679 -4664 0
-4681 4680 4665 0
-4681 -4680 -4665 0
4681 -4680 4665 0
4681 4680 -4665 0
-4682 4681 4666 0
-4682 -4681 -4666 0
4682 -4681 4666 0
4682 4681 -4666 0
-4683 4682 4667 0
-4683 -4682 -4667 0
4683 -4682 4667 0
4683 4682 -4667 0
-4683 0
-4684 4370 0
-4684 42 0
4684 -4370 -42 0
-4685 4372 0
-4685 44 0
4685 -4372 -44 0
-4686 4374 0
-4686 46 0
4686 -4374 -46 0
-4687 4376 0
-4687 40 0
4687 -4376 -40 0
-4688 4378 0
-4688 47 0
4688 -4378 -47 0
-4689 4380 0
-4689 39 0
4689 -4380 -39 0
-4690 4382 0
-4690 39 0
4690 -4382 -39 0
-4691 4384 0
-4691 47 0
4691 -4384 -47 0
-4692 4386 0
-4692 40 0
4692 -4386 -40 0
-4693 4388 0
-4693 46 0
4693 -4388 -46 0
-4694 4390 0
-4694 44 0
4694 -4390 -44 0
-4695 4392 0
-4695 42 0
4695 -4392 -42 0
-4696 4394 0
-4696 90 0
4696 -4394 -90 0
-4697 4396 0
-4697 94 0
4697 -4396 -94 0
-4698 4398 0
-4698 95 0
4698 -4398 -95 0
-4699 4400 0
-4699 138 0
4699 -4400 -138 0
-4700 4402 0
-4700 186 0
4700 -4402 -186 0
-4701 4684 4685 0
-4701 -4684 -4685 0
4701 -4684 4685 0
4701 4684 -4685 0
-4702 4701 4686 0
-4702 -4701 -4686 0
4702 -4701 4686 0
4702 4701 -4686 0
-4703 4702 4687 0
-4703 -4702 -4687 0
4703 -4702 4687 0
4703 4702 -4687 0
-4704 4703 4688 0
-4704 -4703 -4688 0
4704 -4703 4688 0
4704 4703 -4688 0
-4705 4704 4689 0
-4705 -4704 -4689 0
4705 -4704 4689 0
4705 4704 -4689 0
-4706 4705 4690 0
-4706 -4705 -4690 0
4706 -4705 4690 0
4706 4705 -4690 0
-4707 4706 4691 0
-4707 -4706 -4691 0
4707 -4706 4691 0
4707 4706 -4691 0
-4708 4707 4692 0
-4708 -4707 -4692 0
4708 -4707 4692 0
4708 4707 -4692 0
-4709 4708 4693 0
-4709 -4708 -4693 0
4709 -4708 4693 0
4709 4708 -4693 0
-4710 4709 4694 0
-4710 -4709 -4694 0
4710 -4709 4694 0
4710 4709 -4694 0
-4711 4710 4695 0
-4711 -4710 -4695 0
4711 -4710 4695 0
4711 4710 -4695 0
-4712 4711 4696 0
-4712 -4711 -4696 0
4712 -4711 4696 0
4712 4711 -4696 0
-4713 4712 4697 0
-4713 -4712 -4697 0
4713 -4712 4697 0
4713 4712 -4697 0
-4714 4713 4698 0
-4714 -4713 -4698 0
4714 -4713 4698 0
4714 4713 -4698 0
-4715 4714 4699 0
-4715 -4714 -4699 0
4715 -4714 4699 0
4715 4714 -4699 0
-4716 4715 4700 0
-4716 -4715 -4700 0
4716 -4715 4700 0
4716 4715 -4700 0
-4716 0
-4717 4370 0
-4717 43 0
4717 -4370 -43 0
-4718 4372 0
-4718 43 0
4718 -4372 -43 0
-4719 4374 0
-4719 48 0
4719 -4374 -48 0
-4720 4376 0
-4720 38 0
4720 -4376 -38 0
-4721 4378 0
-4721 48 0
4721 -4378 -48 0
-4722 4380 0
-4722 38 0
4722 -4380 -38 0
-4723 4382 0
-4723 43 0
4723 -4382 -43 0
-4724 4384 0
-4724 43 0
4724 -4384 -43 0
-4725 4386 0
-4725 48 0
4725 -4386 -48 0
-4726 4388 0
-4726 38 0
4726 -4388 -38 0
-4727 4390 0
-4727 48 0
4727 -4390 -48 0
-4728 4392 0
-4728 38 0
4728 -4392 -38 0
-4729 4394 0
-4729 91 0
4729 -4394 -91 0
-4730 4396 0
-4730 96 0
4730 -4396 -96 0
-4731 4398 0
-4731 96 0
4731 -4398 -96 0
-4732 4400 0
-4732 139 0
4732 -4400 -139 0
-4733 4402 0
-4733 187 0
4733 -4402 -187 0
-4734 4717 4718 0
-4734 -4717 -4718 0
4734 -4717 4718 0
4734 4717 -4718 0
-4735 4734 4719 0
-4735 -4734 -4719 0
4735 -4734 4719 0
4735 4734 -4719 0
-4736 4735 4720 0
-4736 -4735 -4720 0
4736 -4735 4720 0
4736 4735 -4720 0
-4737 4736 4721 0
-4737 -4736 -4721 0
4737 -4736 4721 0
4737 4736 -4721 0
-4738 4737 4722 0
-4738 -4737 -4722 0
4738 -4737 4722 0
4738 4737 -4722 0
-4739 4738 4723 0
-4739 -4738 -4723 0
4739 -4738 4723 0
4739 4738 -4723 0
-4740 4739 4724 0
-4740 -4739 -4724 0
4740 -4739 4724 0
4740 4739 -4724 0
-4741 4740 4725 0
-4741 -4740 -4725 0
4741 -4740 4725 0
4741 4740 -4725 0
-4742 4741 4726 0
-4742 -4741 -4726 0
4742 -4741 4726 0
4742 4741 -4726 0
-4743 4742 4727 0
-4743 -4742 -4727 0
4743 -4742 4727 0
4743 4742 -4727 0
-4744 4743 4728 0
-4744 -4743 -4728 0
4744 -4743 4728 0
4744 4743 -4728 0
-4745 4744 4729 0
-4745 -4744 -4729 0
4745 -4744 4729 0
4745 4744 -4729 0
-4746 4745 4730 0
-4746 -4745 -4730 0
4746 -4745 4730 0
4746 4745 -4730 0
-4747 4746 4731 0
-4747 -4746 -4731 0
4747 -4746 4731 0
4747 4746 -4731 0
-4748 4747 4732 0
-4748 -4747 -4732 0
4748 -4747 4732 0
4748 4747 -4732 0
-4749 4748 4733 0
-4749 -4748 -4733 0
4749 -4748 4733 0
4749 4748 -4733 0
4749 0
-4750 4370 0
-4750 44 0
4750 -4370 -44 0
-4751 4372 0
-4751 42 0
4751 -4372 -42 0
-4752 4374 0
-4752 47 0
4752 -4374 -47 0
-4753 4376 0
-4753 39 0
4753 -4376 -39 0
-4754 4378 0
-4754 46 0
4754 -4378 -46 0
-4755 4380 0
-4755 40 0
4755 -4380 -40 0
-4756 4382 0
-4756 47 0
4756 -4382 -47 0
-4757 4384 0
-4757 39 0
4757 -4384 -39 0
-4758 4386 0
-4758 44 0
4758 -4386 -44 0
-4759 4388 0
-4759 42 0
4759 -4388 -42 0
-4760 4390 0
-4760 40 0
4760 -4390 -40 0
-4761 4392 0
-4761 46 0
4761 -4392 -46 0
-4762 4394 0
-4762 92 0
4762 -4394 -92 0
-4763 4396 0
-4763 95 0
4763 -4396 -95 0
-4764 4398 0
-4764 94 0
4764 -4398 -94 0
-4765 4400 0
-4765 140 0
4765 -4400 -140 0
-4766 4402 0
-4766 188 0
4766 -4402 -188 0
-4767 4750 4751 0
-4767 -4750 -4751 0
4767 -4750 4751 0
4767 4750 -4751 0
-4768 4767 4752 0
-4768 -4767 -4752 0
4768 -4767 4752 0
4768 4767 -4752 0
-4769 4768 4753 0
-4769 -4768 -4753 0
4769 -4768 4753 0
4769 4768 -4753 0
-4770 4769 4754 0
-4770 -4769 -4754 0
4770 -4769 4754 0
4770 4769 -4754 0
-4771 4770 4755 0
-4771 -4770 -4755 0
4771 -4770 4755 0
4771 4770 -4755 0
-4772 4771 4756 0
-4772 -4771 -4756 0
4772 -4771 4756 0
4772 4771 -4756 0
-4773 4772 4757 0
-4773 -4772 -4757 0
4773 -4772 4757 0
4773 4772 -4757 0
-4774 4773 4758 0
-4774 -4773 -4758 0
4774 -4773 4758 0
4774 4773 -4758 0
-4775 4774 4759 0
-4775 -4774 -4759 0
4775 -4774 4759 0
4775 4774 -4759 0
-4776 4775 4760 0
-4776 -4775 -4760 0
4776 -4775 4760 0
4776 4775 -4760 0
-4777 4776 4761 0
-4777 -4776 -4761 0
4777 -4776 4761 0
4777 4776 -4761 0
-4778 4777 4762 0
-4778 -4777 -4762 0
4778 -4777 4762 0
4778 4777 -4762 0
-4779 4778 4763 0
-4779 -4778 -4763 0
4779 -4778 4763 0
4779 4778 -4763 0
-4780 4779 4764 0
-4780 -4779 -4764 0
4780 -4779 4764 0
4780 4779 -4764 0
-4781 4780 4765 0
-4781 -4780 -4765 0
4781 -4780 4765 0
4781 4780 -4765 0
-4782 4781 4766 0
-4782 -4781 -4766 0
4782 -4781 4766 0
4782 4781 -4766 0
-4782 0
-4783 4370 0
-4783 45 0
4783 -4370 -45 0
-4784 4372 0
-4784 37 0
4784 -4372 -37 0
-4785 4374 0
-4785 41 0
4785 -4374 -41 0
-4786 4376 0
-4786 41 0
4786 -4376 -41 0
-4787 4378 0
-4787 37 0
4787 -4378 -37 0
-4788 4380 0
-4788 45 0
4788 -4380 -45 0
-4789 4382 0
-4789 36 0
4789 -4382 -36 0
-4790 4384 0
-4790 34 0
4790 -4384 -34 0
-4791 4386 0
-4791 35 0
4791 -4386 -35 0
-4792 4388 0
-4792 35 0
4792 -4388 -35 0
-4793 4390 0
-4793 34 0
4793 -4390 -34 0
-4794 4392 0
-4794 36 0
4794 -4392 -36 0
-4795 4394 0
-4795 93 0
4795 -4394 -93 0
-4796 4396 0
-4796 89 0
4796 -4396 -89 0
-4797 4398 0
-4797 85 0
4797 -4398 -85 0
-4798 4400 0
-4798 141 0
4798 -4400 -141 0
-4799 4402 0
-4799 189 0
4799 -4402 -189 0
-4800 4783 4784 0
-4800 -4783 -4784 0
4800 -4783 4784 0
4800 4783 -4784 0
-4801 4800 4785 0
-4801 -4800 -4785 0
4801 -4800 4785 0
4801 4800 -4785 0
-4802 4801 4786 0
-4802 -4801 -4786 0
4802 -4801 4786 0
4802 4801 -4786 0
-4803 4802 4787 0
-4803 -4802 -4787 0
4803 -4802 4787 0
4803 4802 -4787 0
-4804 4803 4788 0
-4804 -4803 -4788 0
4804 -4803 4788 0
4804 4803 -4788 0
-4805 4804 4789 0
-4805 -4804 -4789 0
4805 -4804 4789 0
4805 4804 -4789 0
-4806 4805 4790 0
-4806 -4805 -4790 0
4806 -4805 4790 0
4806 4805 -4790 0
-4807 4806 4791 0
-4807 -4806 -4791 0
4807 -4806 4791 0
4807 4806 -4791 0
-4808 4807 4792 0
-4808 -4807 -4792 0
4808 -4807 4792 0
4808 4807 -4792 0
-4809 4808 4793 0
-4809 -4808 -4793 0
4809 -4808 4793 0
4809 4808 -4793 0
-4810 4809 4794 0
-4810 -4809 -4794 0
4810 -4809 4794 0
4810 4809 -4794 0
-4811 4810 4795 0
-4811 -4810 -4795 0
4811 -4810 4795 0
4811 4810 -4795 0
-4812 4811 4796 0
-4812 -4811 -4796 0
4812 -4811 4796 0
4812 4811 -4796 0
-4813 4812 4797 0
-4813 -4812 -4797 0
4813 -4812 4797 0
4813 4812 -4797 0
-4814 4813 4798 0
-4814 -4813 -4798 0
4814 -4813 4798 0
4814 4813 -4798 0
-4815 4814 4799 0
-4815 -4814 -4799 0
4815 -4814 4799 0
4815 4814 -4799 0
-4815 0
-4816 4370 0
-4816 46 0
4816 -4370 -46 0
-4817 4372 0
-4817 40 0
4817 -4372 -40 0
-4818 4374 0
-4818 42 0
4818 -4374 -42 0
-4819 4376 0
-4819 44 0
4819 -4376 -44 0
-4820 4378 0
-4820 39 0
4820 -4378 -39 0
-4821 4380 0
-4821 47 0
4821 -4380 -47 0
-4822 4382 0
-4822 40 0
4822 -4382 -40 0
-4823 4384 0
-4823 46 0
4823 -4384 -46 0
-4824 4386 0
-4824 39 0
4824 -4386 -39 0
-4825 4388 0
-4825 47 0
4825 -4388 -47 0
-4826 4390 0
-4826 42 0
4826 -4390 -42 0
-4827 4392 0
-4827 44 0
4827 -4392 -44 0
-4828 4394 0
-4828 94 0
4828 -4394 -94 0
-4829 4396 0
-4829 90 0
4829 -4396 -90 0
-4830 4398 0
-4830 87 0
4830 -4398 -87 0
-4831 4400 0
-4831 142 0
4831 -4400 -142 0
-4832 4402 0
-4832 190 0
4832 -4402 -190 0
-4833 4816 4817 0
-4833 -4816 -4817 0
4833 -4816 4817 0
4833 4816 -4817 0
-4834 4833 4818 0
-4834 -4833 -4818 0
4834 -4833 4818 0
4834 4833 -4818 0
-4835 4834 4819 0
-4835 -4834 -4819 0
4835 -4834 4819 0
4835 4834 -4819 0
-4836 4835 4820 0
-4836 -4835 -4820 0
4836 -4835 4820 0
4836 4835 -4820 0
-4837 4836 4821 0
-4837 -4836 -4821 0
4837 -4836 4821 0
4837 4836 -4821 0
-4838 4837 4822 0
-4838 -4837 -4822 0
4838 -4837 4822 0
4838 4837 -4822 0
-4839 4838 4823 0
-4839 -4838 -4823 0
4839 -4838 4823 0
4839 4838 -4823 0
-4840 4839 4824 0
-4840 -4839 -4824 0
4840 -4839 4824 0
4840 4839 -4824 0
-4841 4840 4825 0
-4841 -4840 -4825 0
4841 -4840 4825 0
4841 4840 -4825 0
-4842 4841 4826 0
-4842 -4841 -4826 0
4842 -4841 4826 0
4842 4841 -4826 0
-4843 4842 4827 0
-4843 -4842 -4827 0
4843 -4842 4827 0
4843 4842 -4827 0
-4844 4843 4828 0
-4844 -4843 -4828 0
4844 -4843 4828 0
4844 4843 -4828 0
-4845 4844 4829 0
-4845 -4844 -4829 0
4845 -4844 4829 0
4845 4844 -4829 0
-4846 4845 4830 0
-4846 -4845 -4830 0
4846 -4845 4830 0
4846 4845 -4830 0
-4847 4846 4831 0
-4847 -4846 -4831 0
4847 -4846 4831 0
4847 4846 -4831 0
-4848 4847 4832 0
-4848 -4847 -4832 0
4848 -4847 4832 0
4848 4847 -4832 0
-4848 0
-4849 4370 0
-4849 47 0
4849 -4370 -47 0
-4850 4372 0
-4850 39 0
4850 -4372 -39 0
-4851 4374 0
-4851 44 0
4851 -4374 -44 0
-4852 4376 0
-4852 42 0
4852 -4376 -42 0
-4853 4378 0
-4853 40 0
4853 -4378 -40 0
-4854 4380 0
-4854 46 0
4854 -4380 -46 0
-4855 4382 0
-4855 44 0
4855 -4382 -44 0
-4856 4384 0
-4856 42 0
4856 -4384 -42 0
-4857 4386 0
-4857 47 0
4857 -4386 -47 0
-4858 4388 0
-4858 39 0
4858 -4388 -39 0
-4859 4390 0
-4859 46 0
4859 -4390 -46 0
-4860 4392 0
-4860 40 0
4860 -4392 -40 0
-4861 4394 0
-4861 95 0
4861 -4394 -95 0
-4862 4396 0
-4862 92 0
4862 -4396 -92 0
-4863 4398 0
-4863 88 0
4863 -4398 -88 0
-4864 4400 0
-4864 143 0
4864 -4400 -143 0
-4865 4402 0
-4865 191 0
4865 -4402 -191 0
-4866 4849 4850 0
-4866 -4849 -4850 0
4866 -4849 4850 0
4866 4849 -4850 0
-4867 4866 4851 0
-4867 -4866 -4851 0
4867 -4866 4851 0
4867 4866 -4851 0
-4868 4867 4852 0
-4868 -4867 -4852 0
4868 -4867 4852 0
4868 4867 -4852 0
-4869 4868 4853 0
-4869 -4868 -4853 0
4869 -4868 4853 0
4869 4868 -4853 0
-4870 4869 4854 0
-4870 -4869 -4854 0
4870 -4869 4854 0
4870 4869 -4854 0
-4871 4870 4855 0
-4871 -4870 -4855 0
4871 -4870 4855 0
4871 4870 -4855 0
-4872 4871 4856 0
-4872 -4871 -4856 0
4872 -4871 4856 0
4872 4871 -4856 0
-4873 4872 4857 0
-4873 -4872 -4857 0
4873 -4872 4857 0
4873 4872 -4857 0
-4874 4873 4858 0
-4874 -4873 -4858 0
4874 -4873 4858 0
4874 4873 -4858 0
-4875 4874 4859 0
-4875 -4874 -4859 0
4875 -4874 4859 0
4875 4874 -4859 0
-4876 4875 4860 0
-4876 -4875 -4860 0
4876 -4875 4860 0
4876 4875 -4860 0
-4877 4876 4861 0
-4877 -4876 -4861 0
4877 -4876 4861 0
4877 4876 -4861 0
-4878 4877 4862 0
-4878 -4877 -4862 0
4878 -4877 4862 0
4878 4877 -4862 0
-4879 4878 4863 0
-4879 -4878 -4863 0
4879 -4878 4863 0
4879 4878 -4863 0
-4880 4879 4864 0
-4880 -4879 -4864 0
4880 -4879 4864 0
4880 4879 -4864 0
-4881 4880 4865 0
-4881 -4880 -4865 0
4881 -4880 4865 0
4881 4880 -4865 0
-4881 0
-4882 4370 0
-4882 48 0
4882 -4370 -48 0
-4883 4372 0
-4883 38 0
4883 -4372 -38 0
-4884 4374 0
-4884 43 0
4884 -4374 -43 0
-4885 4376 0
-4885 43 0
4885 -4376 -43 0
-4886 4378 0
-4886 38 0
4886 -4378 -38 0
-4887 4380 0
-4887 48 0
4887 -4380 -48 0
-4888 4382 0
-4888 48 0
4888 -4382 -48 0
-4889 4384 0
-4889 38 0
4889 -4384 -38 0
-4890 4386 0
-4890 43 0
4890 -4386 -43 0
-4891 4388 0
-4891 43 0
4891 -4388 -43 0
-4892 4390 0
-4892 38 0
4892 -4390 -38 0
-4893 4392 0
-4893 48 0
4893 -4392 -48 0
-4894 4394 0
-4894 96 0
4894 -4394 -96 0
-4895 4396 0
-4895 91 0
4895 -4396 -91 0
-4896 4398 0
-4896 86 0
4896 -4398 -86 0
-4897 4400 0
-4897 144 0
4897 -4400 -144 0
-4898 4402 0
-4898 192 0
4898 -4402 -192 0
-4899 4882 4883 0
-4899 -4882 -4883 0
4899 -4882 4883 0
4899 4882 -4883 0
-4900 4899 4884 0
-4900 -4899 -4884 0
4900 -4899 4884 0
4900 4899 -4884 0
-4901 4900 4885 0
-4901 -4900 -4885 0
4901 -4900 4885 0
4901 4900 -4885 0
-4902 4901 4886 0
-4902 -4901 -4886 0
4902 -4901 4886 0
4902 4901 -4886 0
-4903 4902 4887 0
-4903 -4902 -4887 0
4903 -4902 4887 0
4903 4902 -4887 0
-4904 4903 4888 0
-4904 -4903 -4888 0
4904 -4903 4888 0
4904 4903 -4888 0
-4905 4904 4889 0
-4905 -4904 -4889 0
4905 -4904 4889 0
4905 4904 -4889 0
-4906 4905 4890 0
-4906 -4905 -4890 0
4906 -4905 4890 0
4906 4905 -4890 0
-4907 4906 4891 0
-4907 -4906 -4891 0
4907 -4906 4891 0
4907 4906 -4891 0
-4908 4907 4892 0
-4908 -4907 -4892 0
4908 -4907 4892 0
4908 4907 -4892 0
-4909 4908 4893 0
-4909 -4908 -4893 0
4909 -4908 4893 0
4909 4908 -4893 0
-4910 4909 4894 0
-4910 -4909 -4894 0
4910 -4909 4894 0
4910 4909 -4894 0
-4911 4910 4895 0
-4911 -4910 -4895 0
4911 -4910 4895 0
4911 4910 -4895 0
-4912 4911 4896 0
-4912 -4911 -4896 0
4912 -4911 4896 0
4912 4911 -4896 0
-4913 4912 4897 0
-4913 -4912 -4897 0
4913 -4912 4897 0
4913 4912 -4897 0
-4914 4913 4898 0
-4914 -4913 -4898 0
4914 -4913 4898 0
4914 4913 -4898 0
-4914 0
-4915 4 0
-4915 19 0
4915 -4 -19 0
-4916 4915 0
-4916 33 0
4916 -4915 -33 0
-4917 4 0
-4917 24 0
4917 -4 -24 0
-4918 4917 0
-4918 33 0
4918 -4917 -33 0
-4919 4 0
-4919 26 0
4919 -4 -26 0
-4920 4919 0
-4920 33 0
4920 -4919 -33 0
-4921 29 0
-4921 9 0
4921 -29 -9 0
-4922 4921 0
-4922 33 0
4922 -4921 -33 0
-4923 29 0
-4923 14 0
4923 -29 -14 0
-4924 4923 0
-4924 33 0
4924 -4923 -33 0
-4925 29 0
-4925 7 0
4925 -29 -7 0
-4926 4925 0
-4926 33 0
4926 -4925 -33 0
-4927 52 0
-4927 67 0
4927 -52 -67 0
-4928 4927 0
-4928 81 0
4928 -4927 -81 0
-4929 52 0
-4929 72 0
4929 -52 -72 0
-4930 4929 0
-4930 81 0
4930 -4929 -81 0
-4931 100 0
-4931 115 0
4931 -100 -115 0
-4932 4931 0
-4932 129 0
4932 -4931 -129 0
-4933 148 0
-4933 163 0
4933 -148 -163 0
-4934 4933 0
-4934 177 0
4934 -4933 -177 0
-4935 4916 4916 0
-4935 -4916 -4916 0
4935 -4916 4916 0
4935 4916 -4916 0
-4936 4935 4918 0
-4936 -4935 -4918 0
4936 -4935 4918 0
4936 4935 -4918 0
-4937 4936 4920 0
-4937 -4936 -4920 0
4937 -4936 4920 0
4937 4936 -4920 0
-4938 4937 4918 0
-4938 -4937 -4918 0
4938 -4937 4918 0
4938 4937 -4918 0
-4939 4938 4920 0
-4939 -4938 -4920 0
4939 -4938 4920 0
4939 4938 -4920 0
-4940 4939 4922 0
-4940 -4939 -4922 0
4940 -4939 4922 0
4940 4939 -4922 0
-4941 4940 4922 0
-4941 -4940 -4922 0
4941 -4940 4922 0
4941 4940 -4922 0
-4942 4941 4924 0
-4942 -4941 -4924 0
4942 -4941 4924 0
4942 4941 -4924 0
-4943 4942 4926 0
-4943 -4942 -4926 0
4943 -4942 4926 0
4943 4942 -4926 0
-4944 4943 4924 0
-4944 -4943 -4924 0
4944 -4943 4924 0
4944 4943 -4924 0
-4945 4944 4926 0
-4945 -4944 -4926 0
4945 -4944 4926 0
4945 4944 -4926 0
-4946 4945 4928 0
-4946 -4945 -4928 0
4946 -4945 4928 0
4946 4945 -4928 0
-4947 4946 4930 0
-4947 -4946 -4930 0
4947 -4946 4930 0
4947 4946 -4930 0
-4948 4947 4930 0
-4948 -4947 -4930 0
4948 -4947 4930 0
4948 4947 -4930 0
-4949 4948 4932 0
-4949 -4948 -4932 0
4949 -4948 4932 0
4949 4948 -4932 0
-4950 4949 4934 0
-4950 -4949 -4934 0
4950 -4949 4934 0
4950 4949 -4934 0
-4950 0
-4951 4915 0
-4951 34 0
4951 -4915 -34 0
-4952 4915 0
-4952 36 0
4952 -4915 -36 0
-4953 4917 0
-4953 34 0
4953 -4917 -34 0
-4954 4919 0
-4954 36 0
4954 -4919 -36 0
-4955 4917 0
-4955 35 0
4955 -4917 -35 0
-4956 4919 0
-4956 35 0
4956 -4919 -35 0
-4957 4921 0
-4957 37 0
4957 -4921 -37 0
-4958 4921 0
-4958 45 0
4958 -4921 -45 0
-4959 4923 0
-4959 37 0
4959 -4923 -37 0
-4960 4925 0
-4960 45 0
4960 -4925 -45 0
-4961 4923 0
-4961 41 0
4961 -4923 -41 0
-4962 4925 0
-4962 41 0
4962 -4925 -41 0
-4963 4927 0
-4963 82 0
4963 -4927 -82 0
-4964 4929 0
-4964 82 0
4964 -4929 -82 0
-4965 4929 0
-4965 83 0
4965 -4929 -83 0
-4966 4931 0
-4966 130 0
4966 -4931 -130 0
-4967 4933 0
-4967 178 0
4967 -4933 -178 0
-4968 4951 4952 0
-4968 -4951 -4952 0
4968 -4951 4952 0
4968 4951 -4952 0
-4969 4968 4953 0
-4969 -4968 -4953 0
4969 -4968 4953 0
4969 4968 -4953 0
-4970 4969 4954 0
-4970 -4969 -4954 0
4970 -4969 4954 0
4970 4969 -4954 0
-4971 4970 4955 0
-4971 -4970 -4955 0
4971 -4970 4955 0
4971 4970 -4955 0
-4972 4971 4956 0
-4972 -4971 -4956 0
4972 -4971 4956 0
4972 4971 -4956 0
-4973 4972 4957 0
-4973 -4972 -4957 0
4973 -4972 4957 0
4973 4972 -4957 0
-4974 4973 4958 0
-4974 -4973 -4958 0
4974 -4973 4958 0
4974 4973 -4958 0
-4975 4974 4959 0
-4975 -4974 -4959 0
4975 -4974 4959 0
4975 4974 -4959 0
-4976 4975 4960 0
-4976 -4975 -4960 0
4976 -4975 4960 0
4976 4975 -4960 0
-4977 4976 4961 0
-4977 -4976 -4961 0
4977 -4976 4961 0
4977 4976 -4961 0
-4978 4977 4962 0
-4978 -4977 -4962 0
4978 -4977 4962 0
4978 4977 -4962 0
-4979 4978 4963 0
-4979 -4978 -4963 0
4979 -4978 4963 0
4979 4978 -4963 0
-4980 4979 4964 0
-4980 -4979 -4964 0
4980 -4979 4964 0
4980 4979 -4964 0
-4981 4980 4965 0
-4981 -4980 -4965 0
4981 -4980 4965 0
4981 4980 -4965 0
-4982 4981 4966 0
-4982 -4981 -4966 0
4982 -4981 4966 0
4982 4981 -4966 0
-4983 4982 4967 0
-4983 -4982 -4967 0
4983 -4982 4967 0
4983 4982 -4967 0
-4983 0
-4984 4915 0
-4984 35 0
4984 -4915 -35 0
-4985 4917 0
-4985 36 0
4985 -4917 -36 0
-4986 4919 0
-4986 34 0
4986 -4919 -34 0
-4987 4921 0
-4987 41 0
4987 -4921 -41 0
-4988 4923 0
-4988 45 0
4988 -4923 -45 0
-4989 4925 0
-4989 37 0
4989 -4925 -37 0
-4990 4927 0
-4990 83 0
4990 -4927 -83 0
-4991 4929 0
-4991 84 0
4991 -4929 -84 0
-4992 4931 0
-4992 131 0
4992 -4931 -131 0
-4993 4933 0
-4993 179 0
4993 -4933 -179 0
-4994 4984 4984 0
-4994 -4984 -4984 0
4994 -4984 4984 0
4994 4984 -4984 0
-4995 4994 4985 0
-4995 -4994 -4985 0
4995 -4994 4985 0
4995 4994 -4985 0
-4996 4995 4986 0
-4996 -4995 -4986 0
4996 -4995 4986 0
4996 4995 -4986 0
-4997 4996 4985 0
-4997 -4996 -4985 0
4997 -4996 4985 0
4997 4996 -4985 0
-4998 4997 4986 0
-4998 -4997 -4986 0
4998 -4997 4986 0
4998 4997 -4986 0
-4999 4998 4987 0
-4999 -4998 -4987 0
4999 -4998 4987 0
4999 4998 -4987 0
-5000 4999 4987 0
-5000 -4999 -4987 0
5000 -4999 4987 0
5000 4999 -4987 0
-5001 5000 4988 0
-5001 -5000 -4988 0
5001 -5000 4988 0
5001 5000 -4988 0
-5002 5001 4989 0
-5002 -5001 -4989 0
5002 -5001 4989 0
5002 5001 -4989 0
-5003 5002 4988 0
-5003 -5002 -4988 0
5003 -5002 4988 0
5003 5002 -4988 0
-5004 5003 4989 0
-5004 -5003 -4989 0
5004 -5003 4989 0
5004 5003 -4989 0
-5005 5004 4990 0
-5005 -5004 -4990 0
5005 -5004 4990 0
5005 5004 -4990 0
-5006 5005 4991 0
-5006 -5005 -4991 0
5006 -5005 4991 0
5006 5005 -4991 0
-5007 5006 4991 0
-5007 -5006 -4991 0
5007 -5006 4991 0
5007 5006 -4991 0
-5008 5007 4992 0
-5008 -5007 -4992 0
5008 -5007 4992 0
5008 5007 -4992 0
-5009 5008 4993 0
-5009 -5008 -4993 0
5009 -5008 4993 0
5009 5008 -4993 0
-5009 0
-5010 4915 0
-5010 37 0
5010 -4915 -37 0
-5011 4915 0
-5011 45 0
5011 -4915 -45 0
-5012 4917 0
-5012 37 0
5012 -4917 -37 0
-5013 4919 0
-5013 45 0
5013 -4919 -45 0
-5014 4917 0
-5014 41 0
5014 -4917 -41 0
-5015 4919 0
-5015 41 0
5015 -4919 -41 0
-5016 4921 0
-5016 34 0
5016 -4921 -34 0
-5017 4921 0
-5017 36 0
5017 -4921 -36 0
-5018 4923 0
-5018 34 0
5018 -4923 -34 0
-5019 4925 0
-5019 36 0
5019 -4925 -36 0
-5020 4923 0
-5020 35 0
5020 -4923 -35 0
-5021 4925 0
-5021 35 0
5021 -4925 -35 0
-5022 4927 0
-5022 85 0
5022 -4927 -85 0
-5023 4929 0
-5023 85 0
5023 -4929 -85 0
-5024 4929 0
-5024 89 0
5024 -4929 -89 0
-5025 4931 0
-5025 133 0
5025 -4931 -133 0
-5026 4933 0
-5026 181 0
5026 -4933 -181 0
-5027 5010 5011 0
-5027 -5010 -5011 0
5027 -5010 5011 0
5027 5010 -5011 0
-5028 5027 5012 0
-5028 -5027 -5012 0
5028 -5027 5012 0
5028 5027 -5012 0
-5029 5028 5013 0
-5029 -5028 -5013 0
5029 -5028 5013 0
5029 5028 -5013 0
-5030 5029 5014 0
-5030 -5029 -5014 0
5030 -5029 5014 0
5030 5029 -5014 0
-5031 5030 5015 0
-5031 -5030 -5015 0
5031 -5030 5015 0
5031 5030 -5015 0
-5032 5031 5016 0
-5032 -5031 -5016 0
5032 -5031 5016 0
5032 5031 -5016 0
-5033 5032 5017 0
-5033 -5032 -5017 0
5033 -5032 5017 0
5033 5032 -5017 0
-5034 5033 5018 0
-5034 -5033 -5018 0
5034 -5033 5018 0
5034 5033 -5018 0
-5035 5034 5019 0
-5035 -5034 -5019 0
5035 -5034 5019 0
5035 5034 -5019 0
-5036 5035 5020 0
-5036 -5035 -5020 0
5036 -5035 5020 0
5036 5035 -5020 0
-5037 5036 5021 0
-5037 -5036 -5021 0
5037 -5036 5021 0
5037 5036 -5021 0
-5038 5037 5022 0
-5038 -5037 -5022 0
5038 -5037 5022 0
5038 5037 -5022 0
-5039 5038 5023 0
-5039 -5038 -5023 0
5039 -5038 5023 0
5039 5038 -5023 0
-5040 5039 5024 0
-5040 -5039 -5024 0
5040 -5039 5024 0
5040 5039 -5024 0
-5041 5040 5025 0
-5041 -5040 -5025 0
5041 -5040 5025 0
5041 5040 -5025 0
-5042 5041 5026 0
-5042 -5041 -5026 0
5042 -5041 5026 0
5042 5041 -5026 0
-5042 0
-5043 4915 0
-5043 38 0
5043 -4915 -38 0
-5044 4915 0
-5044 48 0
5044 -4915 -48 0
-5045 4917 0
-5045 38 0
5045 -4917 -38 0
-5046 4919 0
-5046 48 0
5046 -4919 -48 0
-5047 4917 0
-5047 43 0
5047 -4917 -43 0
-5048 4919 0
-5048 43 0
5048 -4919 -43 0
-5049 4921 0
-5049 38 0
5049 -4921 -38 0
-5050 4921 0
-5050 48 0
5050 -4921 -48 0
-5051 4923 0
-5051 38 0
5051 -4923 -38 0
-5052 4925 0
-5052 48 0
5052 -4925 -48 0
-5053 4923 0
-5053 43 0
5053 -4923 -43 0
-5054 4925 0
-5054 43 0
5054 -4925 -43 0
-5055 4927 0
-5055 86 0
5055 -4927 -86 0
-5056 4929 0
-5056 86 0
5056 -4929 -86 0
-5057 4929 0
-5057 91 0
5057 -4929 -91 0
-5058 4931 0
-5058 134 0
5058 -4931 -134 0
-5059 4933 0
-5059 182 0
5059 -4933 -182 0
-5060 5043 5044 0
-5060 -5043 -5044 0
5060 -5043 5044 0
5060 5043 -5044 0
-5061 5060 5045 0
-5061 -5060 -5045 0
5061 -5060 5045 0
5061 5060 -5045 0
-5062 5061 5046 0
-5062 -5061 -5046 0
5062 -5061 5046 0
5062 5061 -5046 0
-5063 5062 5047 0
-5063 -5062 -5047 0
5063 -5062 5047 0
5063 5062 -5047 0
-5064 5063 5048 0
-5064 -5063 -5048 0
5064 -5063 5048 0
5064 5063 -5048 0
-5065 5064 5049 0
-5065 -5064 -5049 0
5065 -5064 5049 0
5065 5064 -5049 0
-5066 5065 5050 0
-5066 -5065 -5050 0
5066 -5065 5050 0
5066 5065 -5050 0
-5067 5066 5051 0
-5067 -5066 -5051 0
5067 -5066 5051 0
5067 5066 -5051 0
-5068 5067 5052 0
-5068 -5067 -5052 0
5068 -5067 5052 0
5068 5067 -5052 0
-5069 5068 5053 0
-5069 -5068 -5053 0
5069 -5068 5053 0
5069 5068 -5053 0
-5070 5069 5054 0
-5070 -5069 -5054 0
5070 -5069 5054 0
5070 5069 -5054 0
-5071 5070 5055 0
-5071 -5070 -5055 0
5071 -5070 5055 0
5071 5070 -5055 0
-5072 5071 5056 0
-5072 -5071 -5056 0
5072 -5071 5056 0
5072 5071 -5056 0
-5073 5072 5057 0
-5073 -5072 -5057 0
5073 -5072 5057 0
5073 5072 -5057 0
-5074 5073 5058 0
-5074 -5073 -5058 0
5074 -5073 5058 0
5074 5073 -5058 0
-5075 5074 5059 0
-5075 -5074 -5059 0
5075 -5074 5059 0
5075 5074 -5059 0
-5075 0
-5076 4915 0
-5076 39 0
5076 -4915 -39 0
-5077 4915 0
-5077 47 0
5077 -4915 -47 0
-5078 4917 0
-5078 40 0
5078 -4917 -40 0
-5079 4919 0
-5079 46 0
5079 -4919 -46 0
-5080 4917 0
-5080 44 0
5080 -4917 -44 0
-5081 4919 0
-5081 42 0
5081 -4919 -42 0
-5082 4921 0
-5082 42 0
5082 -4921 -42 0
-5083 4921 0
-5083 44 0
5083 -4921 -44 0
-5084 4923 0
-5084 46 0
5084 -4923 -46 0
-5085 4925 0
-5085 40 0
5085 -4925 -40 0
-5086 4923 0
-5086 47 0
5086 -4923 -47 0
-5087 4925 0
-5087 39 0
5087 -4925 -39 0
-5088 4927 0
-5088 87 0
5088 -4927 -87 0
-5089 4929 0
-5089 88 0
5089 -4929 -88 0
-5090 4929 0
-5090 92 0
5090 -4929 -92 0
-5091 4931 0
-5091 135 0
5091 -4931 -135 0
-5092 4933 0
-5092 183 0
5092 -4933 -183 0
-5093 5076 5077 0
-5093 -5076 -5077 0
5093 -5076 5077 0
5093 5076 -5077 0
-5094 5093 5078 0
-5094 -5093 -5078 0
5094 -5093 5078 0
5094 5093 -5078 0
-5095 5094 5079 0
-5095 -5094 -5079 0
5095 -5094 5079 0
5095 5094 -5079 0
-5096 5095 5080 0
-5096 -5095 -5080 0
5096 -5095 5080 0
5096 5095 -5080 0
-5097 5096 5081 0
-5097 -5096 -5081 0
5097 -5096 5081 0
5097 5096 -5081 0
-5098 5097 5082 0
-5098 -5097 -5082 0
5098 -5097 5082 0
5098 5097 -5082 0
-5099 5098 5083 0
-5099 -5098 -5083 0
5099 -5098 5083 0
5099 5098 -5083 0
-5100 5099 5084 0
-5100 -5099 -5084 0
5100 -5099 5084 0
5100 5099 -5084 0
-5101 5100 5085 0
-5101 -5100 -5085 0
5101 -5100 5085 0
5101 5100 -5085 0
-5102 5101 5086 0
-5102 -5101 -5086 0
5102 -5101 5086 0
5102 5101 -5086 0
-5103 5102 5087 0
-5103 -5102 -5087 0
5103 -5102 5087 0
5103 5102 -5087 0
-5104 5103 5088 0
-5104 -5103 -5088 0
5104 -5103 5088 0
5104 5103 -5088 0
-5105 5104 5089 0
-5105 -5104 -5089 0
5105 -5104 5089 0
5105 5104 -5089 0
-5106 5105 5090 0
-5106 -5105 -5090 0
5106 -5105 5090 0
5106 5105 -5090 0
-5107 5106 5091 0
-5107 -5106 -5091 0
5107 -5106 5091 0
5107 5106 -5091 0
-5108 5107 5092 0
-5108 -5107 -5092 0
5108 -5107 5092 0
5108 5107 -5092 0
-5108 0
-5109 4915 0
-5109 40 0
5109 -4915 -40 0
-5110 4915 0
-5110 46 0
5110 -4915 -46 0
-5111 4917 0
-5111 39 0
5111 -4917 -39 0
-5112 4919 0
-5112 47 0
5112 -4919 -47 0
-5113 4917 0
-5113 42 0
5113 -4917 -42 0
-5114 4919 0
-5114 44 0
5114 -4919 -44 0
-5115 4921 0
-5115 46 0
5115 -4921 -46 0
-5116 4921 0
-5116 40 0
5116 -4921 -40 0
-5117 4923 0
-5117 42 0
5117 -4923 -42 0
-5118 4925 0
-5118 44 0
5118 -4925 -44 0
-5119 4923 0
-5119 39 0
5119 -4923 -39 0
-5120 4925 0
-5120 47 0
5120 -4925 -47 0
-5121 4927 0
-5121 88 0
5121 -4927 -88 0
-5122 4929 0
-5122 87 0
5122 -4929 -87 0
-5123 4929 0
-5123 90 0
5123 -4929 -90 0
-5124 4931 0
-5124 136 0
5124 -4931 -136 0
-5125 4933 0
-5125 184 0
5125 -4933 -184 0
-5126 5109 5110 0
-5126 -5109 -5110 0
5126 -5109 5110 0
5126 5109 -5110 0
-5127 5126 5111 0
-5127 -5126 -5111 0
5127 -5126 5111 0
5127 5126 -5111 0
-5128 5127 5112 0
-5128 -5127 -5112 0
5128 -5127 5112 0
5128 5127 -5112 0
-5129 5128 5113 0
-5129 -5128 -5113 0
5129 -5128 5113 0
5129 5128 -5113 0
-5130 5129 5114 0
-5130 -5129 -5114 0
5130 -5129 5114 0
5130 5129 -5114 0
-5131 5130 5115 0
-5131 -5130 -5115 0
5131 -5130 5115 0
5131 5130 -5115 0
-5132 5131 5116 0
-5132 -5131 -5116 0
5132 -5131 5116 0
5132 5131 -5116 0
-5133 5132 5117 0
-5133 -5132 -5117 0
5133 -5132 5117 0
5133 5132 -5117 0
-5134 5133 5118 0
-5134 -5133 -5118 0
5134 -5133 5118 0
5134 5133 -5118 0
-5135 5134 5119 0
-5135 -5134 -5119 0
5135 -5134 5119 0
5135 5134 -5119 0
-5136 5135 5120 0
-5136 -5135 -5120 0
5136 -5135 5120 0
5136 5135 -5120 0
-5137 5136 5121 0
-5137 -5136 -5121 0
5137 -5136 5121 0
5137 5136 -5121 0
-5138 5137 5122 0
-5138 -5137 -5122 0
5138 -5137 5122 0
5138 5137 -5122 0
-5139 5138 5123 0
-5139 -5138 -5123 0
5139 -5138 5123 0
5139 5138 -5123 0
-5140 5139 5124 0
-5140 -5139 -5124 0
5140 -5139 5124 0
5140 5139 -5124 0
-5141 5140 5125 0
-5141 -5140 -5125 0
5141 -5140 5125 0
5141 5140 -5125 0
-5141 0
-5142 4915 0
-5142 41 0
5142 -4915 -41 0
-5143 4917 0
-5143 45 0
5143 -4917 -45 0
-5144 4919 0
-5144 37 0
5144 -4919 -37 0
-5145 4921 0
-5145 35 0
5145 -4921 -35 0
-5146 4923 0
-5146 36 0
5146 -4923 -36 0
-5147 4925 0
-5147 34 0
5147 -4925 -34 0
-5148 4927 0
-5148 89 0
5148 -4927 -89 0
-5149 4929 0
-5149 93 0
5149 -4929 -93 0
-5150 4931 0
-5150 137 0
5150 -4931 -137 0
-5151 4933 0
-5151 185 0
5151 -4933 -185 0
-5152 5142 5142 0
-5152 -5142 -5142 0
5152 -5142 5142 0
5152 5142 -5142 0
-5153 5152 5143 0
-5153 -5152 -5143 0
5153 -5152 5143 0
5153 5152 -5143 0
-5154 5153 5144 0
-5154 -5153 -5144 0
5154 -5153 5144 0
5154 5153 -5144 0
-5155 5154 5143 0
-5155 -5154 -5143 0
5155 -5154 5143 0
5155 5154 -5143 0
-5156 5155 5144 0
-5156 -5155 -5144 0
5156 -5155 5144 0
5156 5155 -5144 0
-5157 5156 5145 0
-5157 -5156 -5145 0
5157 -5156 5145 0
5157 5156 -5145 0
-5158 5157 5145 0
-5158 -5157 -5145 0
5158 -5157 5145 0
5158 5157 -5145 0
-5159 5158 5146 0
-5159 -5158 -5146 0
5159 -5158 5146 0
5159 5158 -5146 0
-5160 5159 5147 0
-5160 -5159 -5147 0
5160 -5159 5147 0
5160 5159 -5147 0
-5161 5160 5146 0
-5161 -5160 -5146 0
5161 -5160 5146 0
5161 5160 -5146 0
-5162 5161 5147 0
-5162 -5161 -5147 0
5162 -5161 5147 0
5162 5161 -5147 0
-5163 5162 5148 0
-5163 -5162 -5148 0
5163 -5162 5148 0
5163 5162 -5148 0
-5164 5163 5149 0
-5164 -5163 -5149 0
5164 -5163 5149 0
5164 5163 -5149 0
-5165 5164 5149 0
-5165 -5164 -5149 0
5165 -5164 5149 0
5165 5164 -5149 0
-5166 5165 5150 0
-5166 -5165 -5150 0
5166 -5165 5150 0
5166 5165 -5150 0
-5167 5166 5151 0
-5167 -5166 -5151 0
5167 -5166 5151 0
5167 5166 -5151 0
-5167 0
-5168 4915 0
-5168 42 0
5168 -4915 -42 0
-5169 4915 0
-5169 44 0
5169 -4915 -44 0
-5170 4917 0
-5170 46 0
5170 -4917 -46 0
-5171 4919 0
-5171 40 0
5171 -4919 -40 0
-5172 4917 0
-5172 47 0
5172 -4917 -47 0
-5173 4919 0
-5173 39 0
5173 -4919 -39 0
-5174 4921 0
-5174 39 0
5174 -4921 -39 0
-5175 4921 0
-5175 47 0
5175 -4921 -47 0
-5176 4923 0
-5176 40 0
5176 -4923 -40 0
-5177 4925 0
-5177 46 0
5177 -4925 -46 0
-5178 4923 0
-5178 44 0
5178 -4923 -44 0
-5179 4925 0
-5179 42 0
5179 -4925 -42 0
-5180 4927 0
-5180 90 0
5180 -4927 -90 0
-5181 4929 0
-5181 94 0
5181 -4929 -94 0
-5182 4929 0
-5182 95 0
5182 -4929 -95 0
-5183 4931 0
-5183 138 0
5183 -4931 -138 0
-5184 4933 0
-5184 186 0
5184 -4933 -186 0
-5185 5168 5169 0
-5185 -5168 -5169 0
5185 -5168 5169 0
5185 5168 -5169 0
-5186 5185 5170 0
-5186 -5185 -5170 0
5186 -5185 5170 0
5186 5185 -5170 0
-5187 5186 5171 0
-5187 -5186 -5171 0
5187 -5186 5171 0
5187 5186 -5171 0
-5188 5187 5172 0
-5188 -5187 -5172 0
5188 -5187 5172 0
5188 5187 -5172 0
-5189 5188 5173 0
-5189 -5188 -5173 0
5189 -5188 5173 0
5189 5188 -5173 0
-5190 5189 5174 0
-5190 -5189 -5174 0
5190 -5189 5174 0
5190 5189 -5174 0
-5191 5190 5175 0
-5191 -5190 -5175 0
5191 -5190 5175 0
5191 5190 -5175 0
-5192 5191 5176 0
-5192 -5191 -5176 0
5192 -5191 5176 0
5192 5191 -5176 0
-5193 5192 5177 0
-5193 -5192 -5177 0
5193 -5192 5177 0
5193 5192 -5177 0
-5194 5193 5178 0
-5194 -5193 -5178 0
5194 -5193 5178 0
5194 5193 -5178 0
-5195 5194 5179 0
-5195 -5194 -5179 0
5195 -5194 5179 0
5195 5194 -5179 0
-5196 5195 5180 0
-5196 -5195 -5180 0
5196 -5195 5180 0
5196 5195 -5180 0
-5197 5196 5181 0
-5197 -5196 -5181 0
5197 -5196 5181 0
5197 5196 -5181 0
-5198 5197 5182 0
-5198 -5197 -5182 0
5198 -5197 5182 0
5198 5197 -5182 0
-5199 5198 5183 0
-5199 -5198 -5183 0
5199 -5198 5183 0
5199 5198 -5183 0
-5200 5199 5184 0
-5200 -5199 -5184 0
5200 -5199 5184 0
5200 5199 -5184 0
-5200 0
-5201 4915 0
-5201 43 0
5201 -4915 -43 0
-5202 4917 0
-5202 48 0
5202 -4917 -48 0
-5203 4919 0
-5203 38 0
5203 -4919 -38 0
-5204 4921 0
-5204 43 0
5204 -4921 -43 0
-5205 4923 0
-5205 48 0
5205 -4923 -48 0
-5206 4925 0
-5206 38 0
5206 -4925 -38 0
-5207 4927 0
-5207 91 0
5207 -4927 -91 0
-5208 4929 0
-5208 96 0
5208 -4929 -96 0
-5209 4931 0
-5209 139 0
5209 -4931 -139 0
-5210 4933 0
-5210 187 0
5210 -4933 -187 0
-5211 5201 5201 0
-5211 -5201 -5201 0
5211 -5201 5201 0
5211 5201 -5201 0
-5212 5211 5202 0
-5212 -5211 -5202 0
5212 -5211 5202 0
5212 5211 -5202 0
-5213 5212 5203 0
-5213 -5212 -5203 0
5213 -5212 5203 0
5213 5212 -5203 0
-5214 5213 5202 0
-5214 -5213 -5202 0
5214 -5213 5202 0
5214 5213 -5202 0
-5215 5214 5203 0
-5215 -5214 -5203 0
5215 -5214 5203 0
5215 5214 -5203 0
-5216 5215 5204 0
-5216 -5215 -5204 0
5216 -5215 5204 0
5216 5215 -5204 0
-5217 5216 5204 0
-5217 -5216 -5204 0
5217 -5216 5204 0
5217 5216 -5204 0
-5218 5217 5205 0
-5218 -5217 -5205 0
5218 -5217 5205 0
5218 5217 -5205 0
-5219 5218 5206 0
-5219 -5218 -5206 0
5219 -5218 5206 0
5219 5218 -5206 0
-5220 5219 5205 0
-5220 -5219 -5205 0
5220 -5219 5205 0
5220 5219 -5205 0
-5221 5220 5206 0
-5221 -5220 -5206 0
5221 -5220 5206 0
5221 5220 -5206 0
-5222 5221 5207 0
-5222 -5221 -5207 0
5222 -5221 5207 0
5222 5221 -5207 0
-5223 5222 5208 0
-5223 -5222 -5208 0
5223 -5222 5208 0
5223 5222 -5208 0
-5224 5223 5208 0
-5224 -5223 -5208 0
5224 -5223 5208 0
5224 5223 -5208 0
-5225 5224 5209 0
-5225 -5224 -5209 0
5225 -5224 5209 0
5225 5224 -5209 0
-5226 5225 5210 0
-5226 -5225 -5210 0
5226 -5225 5210 0
5226 5225 -5210 0
-5226 0
-5227 4 0
-5227 29 0
5227 -4 -29 0
-5228 5227 0
-5228 33 0
5228 -5227 -33 0
-5229 52 0
-5229 77 0
5229 -52 -77 0
-5230 5229 0
-5230 81 0
5230 -5229 -81 0
-5231 100 0
-5231 125 0
5231 -100 -125 0
-5232 5231 0
-5232 129 0
5232 -5231 -129 0
-5233 148 0
-5233 173 0
5233 -148 -173 0
-5234 5233 0
-5234 177 0
5234 -5233 -177 0
-5235 5228 5228 0
-5235 -5228 -5228 0
5235 -5228 5228 0
5235 5228 -5228 0
-5236 5235 5228 0
-5236 -5235 -5228 0
5236 -5235 5228 0
5236 5235 -5228 0
-5237 5236 5228 0
-5237 -5236 -5228 0
5237 -5236 5228 0
5237 5236 -5228 0
-5238 5237 5228 0
-5238 -5237 -5228 0
5238 -5237 5228 0
5238 5237 -5228 0
-5239 5238 5228 0
-5239 -5238 -5228 0
5239 -5238 5228 0
5239 5238 -5228 0
-5240 5239 5228 0
-5240 -5239 -5228 0
5240 -5239 5228 0
5240 5239 -5228 0
-5241 5240 5228 0
-5241 -5240 -5228 0
5241 -5240 5228 0
5241 5240 -5228 0
-5242 5241 5228 0
-5242 -5241 -5228 0
5242 -5241 5228 0
5242 5241 -5228 0
-5243 5242 5228 0
-5243 -5242 -5228 0
5243 -5242 5228 0
5243 5242 -5228 0
-5244 5243 5228 0
-5244 -5243 -5228 0
5244 -5243 5228 0
5244 5243 -5228 0
-5245 5244 5228 0
-5245 -5244 -5228 0
5245 -5244 5228 0
5245 5244 -5228 0
-5246 5245 5230 0
-5246 -5245 -5230 0
5246 -5245 5230 0
5246 5245 -5230 0
-5247 5246 5230 0
-5247 -5246 -5230 0
5247 -5246 5230 0
5247 5246 -5230 0
-5248 5247 5230 0
-5248 -5247 -5230 0
5248 -5247 5230 0
5248 5247 -5230 0
-5249 5248 5232 0
-5249 -5248 -5232 0
5249 -5248 5232 0
5249 5248 -5232 0
-5250 5249 5234 0
-5250 -5249 -5234 0
5250 -5249 5234 0
5250 5249 -5234 0
-5250 0
-5251 5227 0
-5251 34 0
5251 -5227 -34 0
-5252 5227 0
-5252 36 0
5252 -5227 -36 0
-5253 5227 0
-5253 35 0
5253 -5227 -35 0
-5254 5227 0
-5254 37 0
5254 -5227 -37 0
-5255 5227 0
-5255 45 0
5255 -5227 -45 0
-5256 5227 0
-5256 41 0
5256 -5227 -41 0
-5257 5229 0
-5257 82 0
5257 -5229 -82 0
-5258 5229 0
-5258 83 0
5258 -5229 -83 0
-5259 5231 0
-5259 130 0
5259 -5231 -130 0
-5260 5233 0
-5260 178 0
5260 -5233 -178 0
-5261 5251 5252 0
-5261 -5251 -5252 0
5261 -5251 5252 0
5261 5251 -5252 0
-5262 5261 5251 0
-5262 -5261 -5251 0
5262 -5261 5251 0
5262 5261 -5251 0
-5263 5262 5252 0
-5263 -5262 -5252 0
5263 -5262 5252 0
5263 5262 -5252 0
-5264 5263 5253 0
-5264 -5263 -5253 0
5264 -5263 5253 0
5264 5263 -5253 0
-5265 5264 5253 0
-5265 -5264 -5253 0
5265 -5264 5253 0
5265 5264 -5253 0
-5266 5265 5254 0
-5266 -5265 -5254 0
5266 -5265 5254 0
5266 5265 -5254 0
-5267 5266 5255 0
-5267 -5266 -5255 0
5267 -5266 5255 0
5267 5266 -5255 0
-5268 5267 5254 0
-5268 -5267 -5254 0
5268 -5267 5254 0
5268 5267 -5254 0
-5269 5268 5255 0
-5269 -5268 -5255 0
5269 -5268 5255 0
5269 5268 -5255 0
-5270 5269 5256 0
-5270 -5269 -5256 0
5270 -5269 5256 0
5270 5269 -5256 0
-5271 5270 5256 0
-5271 -5270 -5256 0
5271 -5270 5256 0
5271 5270 -5256 0
-5272 5271 5257 0
-5272 -5271 -5257 0
5272 -5271 5257 0
5272 5271 -5257 0
-5273 5272 5257 0
-5273 -5272 -5257 0
5273 -5272 5257 0
5273 5272 -5257 0
-5274 5273 5258 0
-5274 -5273 -5258 0
5274 -5273 5258 0
5274 5273 -5258 0
-5275 5274 5259 0
-5275 -5274 -5259 0
5275 -5274 5259 0
5275 5274 -5259 0
-5276 5275 5260 0
-5276 -5275 -5260 0
5276 -5275 5260 0
5276 5275 -5260 0
-5276 0
-5277 5227 0
-5277 38 0
5277 -5227 -38 0
-5278 5227 0
-5278 48 0
5278 -5227 -48 0
-5279 5227 0
-5279 43 0
5279 -5227 -43 0
-5280 5229 0
-5280 86 0
5280 -5229 -86 0
-5281 5229 0
-5281 91 0
5281 -5229 -91 0
-5282 5231 0
-5282 134 0
5282 -5231 -134 0
-5283 5233 0
-5283 182 0
5283 -5233 -182 0
-5284 5277 5278 0
-5284 -5277 -5278 0
5284 -5277 5278 0
5284 5277 -5278 0
-5285 5284 5277 0
-5285 -5284 -5277 0
5285 -5284 5277 0
5285 5284 -5277 0
-5286 5285 5278 0
-5286 -5285 -5278 0
5286 -5285 5278 0
5286 5285 -5278 0
-5287 5286 5279 0
-5287 -5286 -5279 0
5287 -5286 5279 0
5287 5286 -5279 0
-5288 5287 5279 0
-5288 -5287 -5279 0
5288 -5287 5279 0
5288 5287 -5279 0
-5289 5288 5277 0
-5289 -5288 -5277 0
5289 -5288 5277 0
5289 5288 -5277 0
-5290 5289 5278 0
-5290 -5289 -5278 0
5290 -5289 5278 0
5290 5289 -5278 0
-5291 5290 5277 0
-5291 -5290 -5277 0
5291 -5290 5277 0
5291 5290 -5277 0
-5292 5291 5278 0
-5292 -5291 -5278 0
5292 -5291 5278 0
5292 5291 -5278 0
-5293 5292 5279 0
-5293 -5292 -5279 0
5293 -5292 5279 0
5293 5292 -5279 0
-5294 5293 5279 0
-5294 -5293 -5279 0
5294 -5293 5279 0
5294 5293 -5279 0
-5295 5294 5280 0
-5295 -5294 -5280 0
5295 -5294 5280 0
5295 5294 -5280 0
-5296 5295 5280 0
-5296 -5295 -5280 0
5296 -5295 5280 0
5296 5295 -5280 0
-5297 5296 5281 0
-5297 -5296 -5281 0
5297 -5296 5281 0
5297 5296 -5281 0
-5298 5297 5282 0
-5298 -5297 -5282 0
5298 -5297 5282 0
5298 5297 -5282 0
-5299 5298 5283 0
-5299 -5298 -5283 0
5299 -5298 5283 0
5299 5298 -5283 0
-5299 0
-5300 5227 0
-5300 39 0
5300 -5227 -39 0
-5301 5227 0
-5301 47 0
5301 -5227 -47 0
-5302 5227 0
-5302 40 0
5302 -5227 -40 0
-5303 5227 0
-5303 46 0
5303 -5227 -46 0
-5304 5227 0
-5304 44 0
5304 -5227 -44 0
-5305 5227 0
-5305 42 0
5305 -5227 -42 0
-5306 5229 0
-5306 87 0
5306 -5229 -87 0
-5307 5229 0
-5307 88 0
5307 -5229 -88 0
-5308 5229 0
-5308 92 0
5308 -5229 -92 0
-5309 5231 0
-5309 135 0
5309 -5231 -135 0
-5310 5233 0
-5310 183 0
5310 -5233 -183 0
-5311 5300 5301 0
-5311 -5300 -5301 0
5311 -5300 5301 0
5311 5300 -5301 0
-5312 5311 5302 0
-5312 -5311 -5302 0
5312 -5311 5302 0
5312 5311 -5302 0
-5313 5312 5303 0
-5313 -5312 -5303 0
5313 -5312 5303 0
5313 5312 -5303 0
-5314 5313 5304 0
-5314 -5313 -5304 0
5314 -5313 5304 0
5314 5313 -5304 0
-5315 5314 5305 0
-5315 -5314 -5305 0
5315 -5314 5305 0
5315 5314 -5305 0
-5316 5315 5305 0
-5316 -5315 -5305 0
5316 -5315 5305 0
5316 5315 -5305 0
-5317 5316 5304 0
-5317 -5316 -5304 0
5317 -5316 5304 0
5317 5316 -5304 0
-5318 5317 5303 0
-5318 -5317 -5303 0
5318 -5317 5303 0
5318 5317 -5303 0
-5319 5318 5302 0
-5319 -5318 -5302 0
5319 -5318 5302 0
5319 5318 -5302 0
-5320 5319 5301 0
-5320 -5319 -5301 0
5320 -5319 5301 0
5320 5319 -5301 0
-5321 5320 5300 0
-5321 -5320 -5300 0
5321 -5320 5300 0
5321 5320 -5300 0
-5322 5321 5306 0
-5322 -5321 -5306 0
5322 -5321 5306 0
5322 5321 -5306 0
-5323 5322 5307 0
-5323 -5322 -5307 0
5323 -5322 5307 0
5323 5322 -5307 0
-5324 5323 5308 0
-5324 -5323 -5308 0
5324 -5323 5308 0
5324 5323 -5308 0
-5325 5324 5309 0
-5325 -5324 -5309 0
5325 -5324 5309 0
5325 5324 -5309 0
-5326 5325 5310 0
-5326 -5325 -5310 0
5326 -5325 5310 0
5326 5325 -5310 0
-5326 0
-5327 4 0
-5327 30 0
5327 -4 -30 0
-5328 5327 0
-5328 33 0
5328 -5327 -33 0
-5329 4 0
-5329 32 0
5329 -4 -32 0
-5330 5329 0
-5330 33 0
5330 -5329 -33 0
-5331 4 0
-5331 31 0
5331 -4 -31 0
-5332 5331 0
-5332 33 0
5332 -5331 -33 0
-5333 29 0
-5333 8 0
5333 -29 -8 0
-5334 5333 0
-5334 33 0
5334 -5333 -33 0
-5335 29 0
-5335 16 0
5335 -29 -16 0
-5336 5335 0
-5336 33 0
5336 -5335 -33 0
-5337 29 0
-5337 12 0
5337 -29 -12 0
-5338 5337 0
-5338 33 0
5338 -5337 -33 0
-5339 52 0
-5339 78 0
5339 -52 -78 0
-5340 5339 0
-5340 81 0
5340 -5339 -81 0
-5341 52 0
-5341 79 0
5341 -52 -79 0
-5342 5341 0
-5342 81 0
5342 -5341 -81 0
-5343 100 0
-5343 126 0
5343 -100 -126 0
-5344 5343 0
-5344 129 0
5344 -5343 -129 0
-5345 148 0
-5345 174 0
5345 -148 -174 0
-5346 5345 0
-5346 177 0
5346 -5345 -177 0
-5347 5328 5330 0
-5347 -5328 -5330 0
5347 -5328 5330 0
5347 5328 -5330 0
-5348 5347 5328 0
-5348 -5347 -5328 0
5348 -5347 5328 0
5348 5347 -5328 0
-5349 5348 5330 0
-5349 -5348 -5330 0
5349 -5348 5330 0
5349 5348 -5330 0
-5350 5349 5332 0
-5350 -5349 -5332 0
5350 -5349 5332 0
5350 5349 -5332 0
-5351 5350 5332 0
-5351 -5350 -5332 0
5351 -5350 5332 0
5351 5350 -5332 0
-5352 5351 5334 0
-5352 -5351 -5334 0
5352 -5351 5334 0
5352 5351 -5334 0
-5353 5352 5336 0
-5353 -5352 -5336 0
5353 -5352 5336 0
5353 5352 -5336 0
-5354 5353 5334 0
-5354 -5353 -5334 0
5354 -5353 5334 0
5354 5353 -5334 0
-5355 5354 5336 0
-5355 -5354 -5336 0
5355 -5354 5336 0
5355 5354 -5336 0
-5356 5355 5338 0
-5356 -5355 -5338 0
5356 -5355 5338 0
5356 5355 -5338 0
-5357 5356 5338 0
-5357 -5356 -5338 0
5357 -5356 5338 0
5357 5356 -5338 0
-5358 5357 5340 0
-5358 -5357 -5340 0
5358 -5357 5340 0
5358 5357 -5340 0
-5359 5358 5340 0
-5359 -5358 -5340 0
5359 -5358 5340 0
5359 5358 -5340 0
-5360 5359 5342 0
-5360 -5359 -5342 0
5360 -5359 5342 0
5360 5359 -5342 0
-5361 5360 5344 0
-5361 -5360 -5344 0
5361 -5360 5344 0
5361 5360 -5344 0
-5362 5361 5346 0
-5362 -5361 -5346 0
5362 -5361 5346 0
5362 5361 -5346 0
-5362 0
-5363 5327 0
-5363 34 0
5363 -5327 -34 0
-5364 5329 0
-5364 36 0
5364 -5329 -36 0
-5365 5331 0
-5365 35 0
5365 -5331 -35 0
-5366 5333 0
-5366 37 0
5366 -5333 -37 0
-5367 5335 0
-5367 45 0
5367 -5335 -45 0
-5368 5337 0
-5368 41 0
5368 -5337 -41 0
-5369 5339 0
-5369 82 0
5369 -5339 -82 0
-5370 5341 0
-5370 83 0
5370 -5341 -83 0
-5371 5343 0
-5371 130 0
5371 -5343 -130 0
-5372 5345 0
-5372 178 0
5372 -5345 -178 0
-5373 5363 5364 0
-5373 -5363 -5364 0
5373 -5363 5364 0
5373 5363 -5364 0
-5374 5373 5363 0
-5374 -5373 -5363 0
5374 -5373 5363 0
5374 5373 -5363 0
-5375 5374 5364 0
-5375 -5374 -5364 0
5375 -5374 5364 0
5375 5374 -5364 0
-5376 5375 5365 0
-5376 -5375 -5365 0
5376 -5375 5365 0
5376 5375 -5365 0
-5377 5376 5365 0
-5377 -5376 -5365 0
5377 -5376 5365 0
5377 5376 -5365 0
-5378 5377 5366 0
-5378 -5377 -5366 0
5378 -5377 5366 0
5378 5377 -5366 0
-5379 5378 5367 0
-5379 -5378 -5367 0
5379 -5378 5367 0
5379 5378 -5367 0
-5380 5379 5366 0
-5380 -5379 -5366 0
5380 -5379 5366 0
5380 5379 -5366 0
-5381 5380 5367 0
-5381 -5380 -5367 0
5381 -5380 5367 0
5381 5380 -5367 0
-5382 5381 5368 0
-5382 -5381 -5368 0
5382 -5381 5368 0
5382 5381 -5368 0
-5383 5382 5368 0
-5383 -5382 -5368 0
5383 -5382 5368 0
5383 5382 -5368 0
-5384 5383 5369 0
-5384 -5383 -5369 0
5384 -5383 5369 0
5384 5383 -5369 0
-5385 5384 5369 0
-5385 -5384 -5369 0
5385 -5384 5369 0
5385 5384 -5369 0
-5386 5385 5370 0
-5386 -5385 -5370 0
5386 -5385 5370 0
5386 5385 -5370 0
-5387 5386 5371 0
-5387 -5386 -5371 0
5387 -5386 5371 0
5387 5386 -5371 0
-5388 5387 5372 0
-5388 -5387 -5372 0
5388 -5387 5372 0
5388 5387 -5372 0
-5388 0
-5389 5327 0
-5389 35 0
5389 -5327 -35 0
-5390 5329 0
-5390 35 0
5390 -5329 -35 0
-5391 5327 0
-5391 36 0
5391 -5327 -36 0
-5392 5329 0
-5392 34 0
5392 -5329 -34 0
-5393 5331 0
-5393 36 0
5393 -5331 -36 0
-5394 5331 0
-5394 34 0
5394 -5331 -34 0
-5395 5333 0
-5395 41 0
5395 -5333 -41 0
-5396 5335 0
-5396 41 0
5396 -5335 -41 0
-5397 5333 0
-5397 45 0
5397 -5333 -45 0
-5398 5335 0
-5398 37 0
5398 -5335 -37 0
-5399 5337 0
-5399 45 0
5399 -5337 -45 0
-5400 5337 0
-5400 37 0
5400 -5337 -37 0
-5401 5339 0
-5401 83 0
5401 -5339 -83 0
-5402 5339 0
-5402 84 0
5402 -5339 -84 0
-5403 5341 0
-5403 84 0
5403 -5341 -84 0
-5404 5343 0
-5404 131 0
5404 -5343 -131 0
-5405 5345 0
-5405 179 0
5405 -5345 -179 0
-5406 5389 5390 0
-5406 -5389 -5390 0
5406 -5389 5390 0
5406 5389 -5390 0
-5407 5406 5391 0
-5407 -5406 -5391 0
5407 -5406 5391 0
5407 5406 -5391 0
-5408 5407 5392 0
-5408 -5407 -5392 0
5408 -5407 5392 0
5408 5407 -5392 0
-5409 5408 5393 0
-5409 -5408 -5393 0
5409 -5408 5393 0
5409 5408 -5393 0
-5410 5409 5394 0
-5410 -5409 -5394 0
5410 -5409 5394 0
5410 5409 -5394 0
-5411 5410 5395 0
-5411 -5410 -5395 0
5411 -5410 5395 0
5411 5410 -5395 0
-5412 5411 5396 0
-5412 -5411 -5396 0
5412 -5411 5396 0
5412 5411 -5396 0
-5413 5412 5397 0
-5413 -5412 -5397 0
5413 -5412 5397 0
5413 5412 -5397 0
-5414 5413 5398 0
-5414 -5413 -5398 0
5414 -5413 5398 0
5414 5413 -5398 0
-5415 5414 5399 0
-5415 -5414 -5399 0
5415 -5414 5399 0
5415 5414 -5399 0
-5416 5415 5400 0
-5416 -5415 -5400 0
5416 -5415 5400 0
5416 5415 -5400 0
-5417 5416 5401 0
-5417 -5416 -5401 0
5417 -5416 5401 0
5417 5416 -5401 0
-5418 5417 5402 0
-5418 -5417 -5402 0
5418 -5417 5402 0
5418 5417 -5402 0
-5419 5418 5403 0
-5419 -5418 -5403 0
5419 -5418 5403 0
5419 5418 -5403 0
-5420 5419 5404 0
-5420 -5419 -5404 0
5420 -5419 5404 0
5420 5419 -5404 0
-5421 5420 5405 0
-5421 -5420 -5405 0
5421 -5420 5405 0
5421 5420 -5405 0
-5421 0
-5422 5327 0
-5422 37 0
5422 -5327 -37 0
-5423 5329 0
-5423 45 0
5423 -5329 -45 0
-5424 5331 0
-5424 41 0
5424 -5331 -41 0
-5425 5333 0
-5425 34 0
5425 -5333 -34 0
-5426 5335 0
-5426 36 0
5426 -5335 -36 0
-5427 5337 0
-5427 35 0
5427 -5337 -35 0
-5428 5339 0
-5428 85 0
5428 -5339 -85 0
-5429 5341 0
-5429 89 0
5429 -5341 -89 0
-5430 5343 0
-5430 133 0
5430 -5343 -133 0
-5431 5345 0
-5431 181 0
5431 -5345 -181 0
-5432 5422 5423 0
-5432 -5422 -5423 0
5432 -5422 5423 0
5432 5422 -5423 0
-5433 5432 5422 0
-5433 -5432 -5422 0
5433 -5432 5422 0
5433 5432 -5422 0
-5434 5433 5423 0
-5434 -5433 -5423 0
5434 -5433 5423 0
5434 5433 -5423 0
-5435 5434 5424 0
-5435 -5434 -5424 0
5435 -5434 5424 0
5435 5434 -5424 0
-5436 5435 5424 0
-5436 -5435 -5424 0
5436 -5435 5424 0
5436 5435 -5424 0
-5437 5436 5425 0
-5437 -5436 -5425 0
5437 -5436 5425 0
5437 5436 -5425 0
-5438 5437 5426 0
-5438 -5437 -5426 0
5438 -5437 5426 0
5438 5437 -5426 0
-5439 5438 5425 0
-5439 -5438 -5425 0
5439 -5438 5425 0
5439 5438 -5425 0
-5440 5439 5426 0
-5440 -5439 -5426 0
5440 -5439 5426 0
5440 5439 -5426 0
-5441 5440 5427 0
-5441 -5440 -5427 0
5441 -5440 5427 0
5441 5440 -5427 0
-5442 5441 5427 0
-5442 -5441 -5427 0
5442 -5441 5427 0
5442 5441 -5427 0
-5443 5442 5428 0
-5443 -5442 -5428 0
5443 -5442 5428 0
5443 5442 -5428 0
-5444 5443 5428 0
-5444 -5443 -5428 0
5444 -5443 5428 0
5444 5443 -5428 0
-5445 5444 5429 0
-5445 -5444 -5429 0
5445 -5444 5429 0
5445 5444 -5429 0
-5446 5445 5430 0
-5446 -5445 -5430 0
5446 -5445 5430 0
5446 5445 -5430 0
-5447 5446 5431 0
-5447 -5446 -5431 0
5447 -5446 5431 0
5447 5446 -5431 0
-5447 0
-5448 5327 0
-5448 38 0
5448 -5327 -38 0
-5449 5329 0
-5449 48 0
5449 -5329 -48 0
-5450 5331 0
-5450 43 0
5450 -5331 -43 0
-5451 5333 0
-5451 38 0
5451 -5333 -38 0
-5452 5335 0
-5452 48 0
5452 -5335 -48 0
-5453 5337 0
-5453 43 0
5453 -5337 -43 0
-5454 5339 0
-5454 86 0
5454 -5339 -86 0
-5455 5341 0
-5455 91 0
5455 -5341 -91 0
-5456 5343 0
-5456 134 0
5456 -5343 -134 0
-5457 5345 0
-5457 182 0
5457 -5345 -182 0
-5458 5448 5449 0
-5458 -5448 -5449 0
5458 -5448 5449 0
5458 5448 -5449 0
-5459 5458 5448 0
-5459 -5458 -5448 0
5459 -5458 5448 0
5459 5458 -5448 0
-5460 5459 5449 0
-5460 -5459 -5449 0
5460 -5459 5449 0
5460 5459 -5449 0
-5461 5460 5450 0
-5461 -5460 -5450 0
5461 -5460 5450 0
5461 5460 -5450 0
-5462 5461 5450 0
-5462 -5461 -5450 0
5462 -5461 5450 0
5462 5461 -5450 0
-5463 5462 5451 0
-5463 -5462 -5451 0
5463 -5462 5451 0
5463 5462 -5451 0
-5464 5463 5452 0
-5464 -5463 -5452 0
5464 -5463 5452 0
5464 5463 -5452 0
-5465 5464 5451 0
-5465 -5464 -5451 0
5465 -5464 5451 0
5465 5464 -5451 0
-5466 5465 5452 0
-5466 -5465 -5452 0
5466 -5465 5452 0
5466 5465 -5452 0
-5467 5466 5453 0
-5467 -5466 -5453 0
5467 -5466 5453 0
5467 5466 -5453 0
-5468 5467 5453 0
-5468 -5467 -5453 0
5468 -5467 5453 0
5468 5467 -5453 0
-5469 5468 5454 0
-5469 -5468 -5454 0
5469 -5468 5454 0
5469 5468 -5454 0
-5470 5469 5454 0
-5470 -5469 -5454 0
5470 -5469 5454 0
5470 5469 -5454 0
-5471 5470 5455 0
-5471 -5470 -5455 0
5471 -5470 5455 0
5471 5470 -5455 0
-5472 5471 5456 0
-5472 -5471 -5456 0
5472 -5471 5456 0
5472 5471 -5456 0
-5473 5472 5457 0
-5473 -5472 -5457 0
5473 -5472 5457 0
5473 5472 -5457 0
-5473 0
-5474 5327 0
-5474 39 0
5474 -5327 -39 0
-5475 5329 0
-5475 47 0
5475 -5329 -47 0
-5476 5327 0
-5476 40 0
5476 -5327 -40 0
-5477 5329 0
-5477 46 0
5477 -5329 -46 0
-5478 5331 0
-5478 44 0
5478 -5331 -44 0
-5479 5331 0
-5479 42 0
5479 -5331 -42 0
-5480 5333 0
-5480 42 0
5480 -5333 -42 0
-5481 5335 0
-5481 44 0
5481 -5335 -44 0
-5482 5333 0
-5482 46 0
5482 -5333 -46 0
-5483 5335 0
-5483 40 0
5483 -5335 -40 0
-5484 5337 0
-5484 47 0
5484 -5337 -47 0
-5485 5337 0
-5485 39 0
5485 -5337 -39 0
-5486 5339 0
-5486 87 0
5486 -5339 -87 0
-5487 5339 0
-5487 88 0
5487 -5339 -88 0
-5488 5341 0
-5488 92 0
5488 -5341 -92 0
-5489 5343 0
-5489 135 0
5489 -5343 -135 0
-5490 5345 0
-5490 183 0
5490 -5345 -183 0
-5491 5474 5475 0
-5491 -5474 -5475 0
5491 -5474 5475 0
5491 5474 -5475 0
-5492 5491 5476 0
-5492 -5491 -5476 0
5492 -5491 5476 0
5492 5491 -5476 0
-5493 5492 5477 0
-5493 -5492 -5477 0
5493 -5492 5477 0
5493 5492 -5477 0
-5494 5493 5478 0
-5494 -5493 -5478 0
5494 -5493 5478 0
5494 5493 -5478 0
-5495 5494 5479 0
-5495 -5494 -5479 0
5495 -5494 5479 0
5495 5494 -5479 0
-5496 5495 5480 0
-5496 -5495 -5480 0
5496 -5495 5480 0
5496 5495 -5480 0
-5497 5496 5481 0
-5497 -5496 -5481 0
5497 -5496 5481 0
5497 5496 -5481 0
-5498 5497 5482 0
-5498 -5497 -5482 0
5498 -5497 5482 0
5498 5497 -5482 0
-5499 5498 5483 0
-5499 -5498 -5483 0
5499 -5498 5483 0
5499 5498 -5483 0
-5500 5499 5484 0
-5500 -5499 -5484 0
5500 -5499 5484 0
5500 5499 -5484 0
-5501 5500 5485 0
-5501 -5500 -5485 0
5501 -5500 5485 0
5501 5500 -5485 0
-5502 5501 5486 0
-5502 -5501 -5486 0
5502 -5501 5486 0
5502 5501 -5486 0
-5503 5502 5487 0
-5503 -5502 -5487 0
5503 -5502 5487 0
5503 5502 -5487 0
-5504 5503 5488 0
-5504 -5503 -5488 0
5504 -5503 5488 0
5504 5503 -5488 0
-5505 5504 5489 0
-5505 -5504 -5489 0
5505 -5504 5489 0
5505 5504 -5489 0
-5506 5505 5490 0
-5506 -5505 -5490 0
5506 -5505 5490 0
5506 5505 -5490 0
-5506 0
-5507 5327 0
-5507 41 0
5507 -5327 -41 0
-5508 5329 0
-5508 41 0
5508 -5329 -41 0
-5509 5327 0
-5509 45 0
5509 -5327 -45 0
-5510 5329 0
-5510 37 0
5510 -5329 -37 0
-5511 5331 0
-5511 45 0
5511 -5331 -45 0
-5512 5331 0
-5512 37 0
5512 -5331 -37 0
-5513 5333 0
-5513 35 0
5513 -5333 -35 0
-5514 5335 0
-5514 35 0
5514 -5335 -35 0
-5515 5333 0
-5515 36 0
5515 -5333 -36 0
-5516 5335 0
-5516 34 0
5516 -5335 -34 0
-5517 5337 0
-5517 36 0
5517 -5337 -36 0
-5518 5337 0
-5518 34 0
5518 -5337 -34 0
-5519 5339 0
-5519 89 0
5519 -5339 -89 0
-5520 5339 0
-5520 93 0
5520 -5339 -93 0
-5521 5341 0
-5521 93 0
5521 -5341 -93 0
-5522 5343 0
-5522 137 0
5522 -5343 -137 0
-5523 5345 0
-5523 185 0
5523 -5345 -185 0
-5524 5507 5508 0
-5524 -5507 -5508 0
5524 -5507 5508 0
5524 5507 -5508 0
-5525 5524 5509 0
-5525 -5524 -5509 0
5525 -5524 5509 0
5525 5524 -5509 0
-5526 5525 5510 0
-5526 -5525 -5510 0
5526 -5525 5510 0
5526 5525 -5510 0
-5527 5526 5511 0
-5527 -5526 -5511 0
5527 -5526 5511 0
5527 5526 -5511 0
-5528 5527 5512 0
-5528 -5527 -5512 0
5528 -5527 5512 0
5528 5527 -5512 0
-5529 5528 5513 0
-5529 -5528 -5513 0
5529 -5528 5513 0
5529 5528 -5513 0
-5530 5529 5514 0
-5530 -5529 -5514 0
5530 -5529 5514 0
5530 5529 -5514 0
-5531 5530 5515 0
-5531 -5530 -5515 0
5531 -5530 5515 0
5531 5530 -5515 0
-5532 5531 5516 0
-5532 -5531 -5516 0
5532 -5531 5516 0
5532 5531 -5516 0
-5533 5532 5517 0
-5533 -5532 -5517 0
5533 -5532 5517 0
5533 5532 -5517 0
-5534 5533 5518 0
-5534 -5533 -5518 0
5534 -5533 5518 0
5534 5533 -5518 0
-5535 5534 5519 0
-5535 -5534 -5519 0
5535 -5534 5519 0
5535 5534 -5519 0
-5536 5535 5520 0
-5536 -5535 -5520 0
5536 -5535 5520 0
5536 5535 -5520 0
-5537 5536 5521 0
-5537 -5536 -5521 0
5537 -5536 5521 0
5537 5536 -5521 0
-5538 5537 5522 0
-5538 -5537 -5522 0
5538 -5537 5522 0
5538 5537 -5522 0
-5539 5538 5523 0
-5539 -5538 -5523 0
5539 -5538 5523 0
5539 5538 -5523 0
-5539 0
-5540 5327 0
-5540 42 0
5540 -5327 -42 0
-5541 5329 0
-5541 44 0
5541 -5329 -44 0
-5542 5327 0
-5542 46 0
5542 -5327 -46 0
-5543 5329 0
-5543 40 0
5543 -5329 -40 0
-5544 5331 0
-5544 47 0
5544 -5331 -47 0
-5545 5331 0
-5545 39 0
5545 -5331 -39 0
-5546 5333 0
-5546 39 0
5546 -5333 -39 0
-5547 5335 0
-5547 47 0
5547 -5335 -47 0
-5548 5333 0
-5548 40 0
5548 -5333 -40 0
-5549 5335 0
-5549 46 0
5549 -5335 -46 0
-5550 5337 0
-5550 44 0
5550 -5337 -44 0
-5551 5337 0
-5551 42 0
5551 -5337 -42 0
-5552 5339 0
-5552 90 0
5552 -5339 -90 0
-5553 5339 0
-5553 94 0
5553 -5339 -94 0
-5554 5341 0
-5554 95 0
5554 -5341 -95 0
-5555 5343 0
-5555 138 0
5555 -5343 -138 0
-5556 5345 0
-5556 186 0
5556 -5345 -186 0
-5557 5540 5541 0
-5557 -5540 -5541 0
5557 -5540 5541 0
5557 5540 -5541 0
-5558 5557 5542 0
-5558 -5557 -5542 0
5558 -5557 5542 0
5558 5557 -5542 0
-5559 5558 5543 0
-5559 -5558 -5543 0
5559 -5558 5543 0
5559 5558 -5543 0
-5560 5559 5544 0
-5560 -5559 -5544 0
5560 -5559 5544 0
5560 5559 -5544 0
-5561 5560 5545 0
-5561 -5560 -5545 0
5561 -5560 5545 0
5561 5560 -5545 0
-5562 5561 5546 0
-5562 -5561 -5546 0
5562 -5561 5546 0
5562 5561 -5546 0
-5563 5562 5547 0
-5563 -5562 -5547 0
5563 -5562 5547 0
5563 5562 -5547 0
-5564 5563 5548 0
-5564 -5563 -5548 0
5564 -5563 5548 0
5564 5563 -5548 0
-5565 5564 5549 0
-5565 -5564 -5549 0
5565 -5564 5549 0
5565 5564 -5549 0
-5566 5565 5550 0
-5566 -5565 -5550 0
5566 -5565 5550 0
5566 5565 -5550 0
-5567 5566 5551 0
-5567 -5566 -5551 0
5567 -5566 5551 0
5567 5566 -5551 0
-5568 5567 5552 0
-5568 -5567 -5552 0
5568 -5567 5552 0
5568 5567 -5552 0
-5569 5568 5553 0
-5569 -5568 -5553 0
5569 -5568 5553 0
5569 5568 -5553 0
-5570 5569 5554 0
-5570 -5569 -5554 0
5570 -5569 5554 0
5570 5569 -5554 0
-5571 5570 5555 0
-5571 -5570 -5555 0
5571 -5570 5555 0
5571 5570 -5555 0
-5572 5571 5556 0
-5572 -5571 -5556 0
5572 -5571 5556 0
5572 5571 -5556 0
-5572 0
-5573 5327 0
-5573 43 0
5573 -5327 -43 0
-5574 5329 0
-5574 43 0
5574 -5329 -43 0
-5575 5327 0
-5575 48 0
5575 -5327 -48 0
-5576 5329 0
-5576 38 0
5576 -5329 -38 0
-5577 5331 0
-5577 48 0
5577 -5331 -48 0
-5578 5331 0
-5578 38 0
5578 -5331 -38 0
-5579 5333 0
-5579 43 0
5579 -5333 -43 0
-5580 5335 0
-5580 43 0
5580 -5335 -43 0
-5581 5333 0
-5581 48 0
5581 -5333 -48 0
-5582 5335 0
-5582 38 0
5582 -5335 -38 0
-5583 5337 0
-5583 48 0
5583 -5337 -48 0
-5584 5337 0
-5584 38 0
5584 -5337 -38 0
-5585 5339 0
-5585 91 0
5585 -5339 -91 0
-5586 5339 0
-5586 96 0
5586 -5339 -96 0
-5587 5341 0
-5587 96 0
5587 -5341 -96 0
-5588 5343 0
-5588 139 0
5588 -5343 -139 0
-5589 5345 0
-5589 187 0
5589 -5345 -187 0
-5590 5573 5574 0
-5590 -5573 -5574 0
5590 -5573 5574 0
5590 5573 -5574 0
-5591 5590 5575 0
-5591 -5590 -5575 0
5591 -5590 5575 0
5591 5590 -5575 0
-5592 5591 5576 0
-5592 -5591 -5576 0
5592 -5591 5576 0
5592 5591 -5576 0
-5593 5592 5577 0
-5593 -5592 -5577 0
5593 -5592 5577 0
5593 5592 -5577 0
-5594 5593 5578 0
-5594 -5593 -5578 0
5594 -5593 5578 0
5594 5593 -5578 0
-5595 5594 5579 0
-5595 -5594 -5579 0
5595 -5594 5579 0
5595 5594 -5579 0
-5596 5595 5580 0
-5596 -5595 -5580 0
5596 -5595 5580 0
5596 5595 -5580 0
-5597 5596 5581 0
-5597 -5596 -5581 0
5597 -5596 5581 0
5597 5596 -5581 0
-5598 5597 5582 0
-5598 -5597 -5582 0
5598 -5597 5582 0
5598 5597 -5582 0
-5599 5598 5583 0
-5599 -5598 -5583 0
5599 -5598 5583 0
5599 5598 -5583 0
-5600 5599 5584 0
-5600 -5599 -5584 0
5600 -5599 5584 0
5600 5599 -5584 0
-5601 5600 5585 0
-5601 -5600 -5585 0
5601 -5600 5585 0
5601 5600 -5585 0
-5602 5601 5586 0
-5602 -5601 -5586 0
5602 -5601 5586 0
5602 5601 -5586 0
-5603 5602 5587 0
-5603 -5602 -5587 0
5603 -5602 5587 0
5603 5602 -5587 0
-5604 5603 5588 0
-5604 -5603 -5588 0
5604 -5603 5588 0
5604 5603 -5588 0
-5605 5604 5589 0
-5605 -5604 -5589 0
5605 -5604 5589 0
5605 5604 -5589 0
-5605 0
-5606 5327 0
-5606 44 0
5606 -5327 -44 0
-5607 5329 0
-5607 42 0
5607 -5329 -42 0
-5608 5327 0
-5608 47 0
5608 -5327 -47 0
-5609 5329 0
-5609 39 0
5609 -5329 -39 0
-5610 5331 0
-5610 46 0
5610 -5331 -46 0
-5611 5331 0
-5611 40 0
5611 -5331 -40 0
-5612 5333 0
-5612 47 0
5612 -5333 -47 0
-5613 5335 0
-5613 39 0
5613 -5335 -39 0
-5614 5333 0
-5614 44 0
5614 -5333 -44 0
-5615 5335 0
-5615 42 0
5615 -5335 -42 0
-5616 5337 0
-5616 40 0
5616 -5337 -40 0
-5617 5337 0
-5617 46 0
5617 -5337 -46 0
-5618 5339 0
-5618 92 0
5618 -5339 -92 0
-5619 5339 0
-5619 95 0
5619 -5339 -95 0
-5620 5341 0
-5620 94 0
5620 -5341 -94 0
-5621 5343 0
-5621 140 0
5621 -5343 -140 0
-5622 5345 0
-5622 188 0
5622 -5345 -188 0
-5623 5606 5607 0
-5623 -5606 -5607 0
5623 -5606 5607 0
5623 5606 -5607 0
-5624 5623 5608 0
-5624 -5623 -5608 0
5624 -5623 5608 0
5624 5623 -5608 0
-5625 5624 5609 0
-5625 -5624 -5609 0
5625 -5624 5609 0
5625 5624 -5609 0
-5626 5625 5610 0
-5626 -5625 -5610 0
5626 -5625 5610 0
5626 5625 -5610 0
-5627 5626 5611 0
-5627 -5626 -5611 0
5627 -5626 5611 0
5627 5626 -5611 0
-5628 5627 5612 0
-5628 -5627 -5612 0
5628 -5627 5612 0
5628 5627 -5612 0
-5629 5628 5613 0
-5629 -5628 -5613 0
5629 -5628 5613 0
5629 5628 -5613 0
-5630 5629 5614 0
-5630 -5629 -5614 0
5630 -5629 5614 0
5630 5629 -5614 0
-5631 5630 5615 0
-5631 -5630 -5615 0
5631 -5630 5615 0
5631 5630 -5615 0
-5632 5631 5616 0
-5632 -5631 -5616 0
5632 -5631 5616 0
5632 5631 -5616 0
-5633 5632 5617 0
-5633 -5632 -5617 0
5633 -5632 5617 0
5633 5632 -5617 0
-5634 5633 5618 0
-5634 -5633 -5618 0
5634 -5633 5618 0
5634 5633 -5618 0
-5635 5634 5619 0
-5635 -5634 -5619 0
5635 -5634 5619 0
5635 5634 -5619 0
-5636 5635 5620 0
-5636 -5635 -5620 0
5636 -5635 5620 0
5636 5635 -5620 0
-5637 5636 5621 0
-5637 -5636 -5621 0
5637 -5636 5621 0
5637 5636 -5621 0
-5638 5637 5622 0
-5638 -5637 -5622 0
5638 -5637 5622 0
5638 5637 -5622 0
-5638 0
-5639 5 0
-5639 18 0
5639 -5 -18 0
-5640 5639 0
-5640 33 0
5640 -5639 -33 0
-5641 13 0
-5641 20 0
5641 -13 -20 0
-5642 5641 0
-5642 33 0
5642 -5641 -33 0
-5643 6 0
-5643 22 0
5643 -6 -22 0
-5644 5643 0
-5644 33 0
5644 -5643 -33 0
-5645 15 0
-5645 28 0
5645 -15 -28 0
-5646 5645 0
-5646 33 0
5646 -5645 -33 0
-5647 10 0
-5647 23 0
5647 -10 -23 0
-5648 5647 0
-5648 33 0
5648 -5647 -33 0
-5649 11 0
-5649 27 0
5649 -11 -27 0
-5650 5649 0
-5650 33 0
5650 -5649 -33 0
-5651 53 0
-5651 66 0
5651 -53 -66 0
-5652 5651 0
-5652 81 0
5652 -5651 -81 0
-5653 54 0
-5653 70 0
5653 -54 -70 0
-5654 5653 0
-5654 81 0
5654 -5653 -81 0
-5655 58 0
-5655 71 0
5655 -58 -71 0
-5656 5655 0
-5656 81 0
5656 -5655 -81 0
-5657 101 0
-5657 114 0
5657 -101 -114 0
-5658 5657 0
-5658 129 0
5658 -5657 -129 0
-5659 149 0
-5659 162 0
5659 -149 -162 0
-5660 5659 0
-5660 177 0
5660 -5659 -177 0
-5661 5640 5642 0
-5661 -5640 -5642 0
5661 -5640 5642 0
5661 5640 -5642 0
-5662 5661 5644 0
-5662 -5661 -5644 0
5662 -5661 5644 0
5662 5661 -5644 0
-5663 5662 5646 0
-5663 -5662 -5646 0
5663 -5662 5646 0
5663 5662 -5646 0
-5664 5663 5648 0
-5664 -5663 -5648 0
5664 -5663 5648 0
5664 5663 -5648 0
-5665 5664 5650 0
-5665 -5664 -5650 0
5665 -5664 5650 0
5665 5664 -5650 0
-5666 5665 5640 0
-5666 -5665 -5640 0
5666 -5665 5640 0
5666 5665 -5640 0
-5667 5666 5642 0
-5667 -5666 -5642 0
5667 -5666 5642 0
5667 5666 -5642 0
-5668 5667 5644 0
-5668 -5667 -5644 0
5668 -5667 5644 0
5668 5667 -5644 0
-5669 5668 5646 0
-5669 -5668 -5646 0
5669 -5668 5646 0
5669 5668 -5646 0
-5670 5669 5648 0
-5670 -5669 -5648 0
5670 -5669 5648 0
5670 5669 -5648 0
-5671 5670 5650 0
-5671 -5670 -5650 0
5671 -5670 5650 0
5671 5670 -5650 0
-5672 5671 5652 0
-5672 -5671 -5652 0
5672 -5671 5652 0
5672 5671 -5652 0
-5673 5672 5654 0
-5673 -5672 -5654 0
5673 -5672 5654 0
5673 5672 -5654 0
-5674 5673 5656 0
-5674 -5673 -5656 0
5674 -5673 5656 0
5674 5673 -5656 0
-5675 5674 5658 0
-5675 -5674 -5658 0
5675 -5674 5658 0
5675 5674 -5658 0
-5676 5675 5660 0
-5676 -5675 -5660 0
5676 -5675 5660 0
5676 5675 -5660 0
-5676 0
-5677 5639 0
-5677 34 0
5677 -5639 -34 0
-5678 5641 0
-5678 36 0
5678 -5641 -36 0
-5679 5643 0
-5679 34 0
5679 -5643 -34 0
-5680 5645 0
-5680 36 0
5680 -5645 -36 0
-5681 5647 0
-5681 35 0
5681 -5647 -35 0
-5682 5649 0
-5682 35 0
5682 -5649 -35 0
-5683 5639 0
-5683 37 0
5683 -5639 -37 0
-5684 5641 0
-5684 45 0
5684 -5641 -45 0
-5685 5643 0
-5685 37 0
5685 -5643 -37 0
-5686 5645 0
-5686 45 0
5686 -5645 -45 0
-5687 5647 0
-5687 41 0
5687 -5647 -41 0
-5688 5649 0
-5688 41 0
5688 -5649 -41 0
-5689 5651 0
-5689 82 0
5689 -5651 -82 0
-5690 5653 0
-5690 82 0
5690 -5653 -82 0
-5691 5655 0
-5691 83 0
5691 -5655 -83 0
-5692 5657 0
-5692 130 0
5692 -5657 -130 0
-5693 5659 0
-5693 178 0
5693 -5659 -178 0
-5694 5677 5678 0
-5694 -5677 -5678 0
5694 -5677 5678 0
5694 5677 -5678 0
-5695 5694 5679 0
-5695 -5694 -5679 0
5695 -5694 5679 0
5695 5694 -5679 0
-5696 5695 5680 0
-5696 -5695 -5680 0
5696 -5695 5680 0
5696 5695 -5680 0
-5697 5696 5681 0
-5697 -5696 -5681 0
5697 -5696 5681 0
5697 5696 -5681 0
-5698 5697 5682 0
-5698 -5697 -5682 0
5698 -5697 5682 0
5698 5697 -5682 0
-5699 5698 5683 0
-5699 -5698 -5683 0
5699 -5698 5683 0
5699 5698 -5683 0
-5700 5699 5684 0
-5700 -5699 -5684 0
5700 -5699 5684 0
5700 5699 -5684 0
-5701 5700 5685 0
-5701 -5700 -5685 0
5701 -5700 5685 0
5701 5700 -5685 0
-5702 5701 5686 0
-5702 -5701 -5686 0
5702 -5701 5686 0
5702 5701 -5686 0
-5703 5702 5687 0
-5703 -5702 -5687 0
5703 -5702 5687 0
5703 5702 -5687 0
-5704 5703 5688 0
-5704 -5703 -5688 0
5704 -5703 5688 0
5704 5703 -5688 0
-5705 5704 5689 0
-5705 -5704 -5689 0
5705 -5704 5689 0
5705 5704 -5689 0
-5706 5705 5690 0
-5706 -5705 -5690 0
5706 -5705 5690 0
5706 5705 -5690 0
-5707 5706 5691 0
-5707 -5706 -5691 0
5707 -5706 5691 0
5707 5706 -5691 0
-5708 5707 5692 0
-5708 -5707 -5692 0
5708 -5707 5692 0
5708 5707 -5692 0
-5709 5708 5693 0
-5709 -5708 -5693 0
5709 -5708 5693 0
5709 5708 -5693 0
-5709 0
-5710 5639 0
-5710 35 0
5710 -5639 -35 0
-5711 5641 0
-5711 35 0
5711 -5641 -35 0
-5712 5643 0
-5712 36 0
5712 -5643 -36 0
-5713 5645 0
-5713 34 0
5713 -5645 -34 0
-5714 5647 0
-5714 36 0
5714 -5647 -36 0
-5715 5649 0
-5715 34 0
5715 -5649 -34 0
-5716 5639 0
-5716 41 0
5716 -5639 -41 0
-5717 5641 0
-5717 41 0
5717 -5641 -41 0
-5718 5643 0
-5718 45 0
5718 -5643 -45 0
-5719 5645 0
-5719 37 0
5719 -5645 -37 0
-5720 5647 0
-5720 45 0
5720 -5647 -45 0
-5721 5649 0
-5721 37 0
5721 -5649 -37 0
-5722 5651 0
-5722 83 0
5722 -5651 -83 0
-5723 5653 0
-5723 84 0
5723 -5653 -84 0
-5724 5655 0
-5724 84 0
5724 -5655 -84 0
-5725 5657 0
-5725 131 0
5725 -5657 -131 0
-5726 5659 0
-5726 179 0
5726 -5659 -179 0
-5727 5710 5711 0
-5727 -5710 -5711 0
5727 -5710 5711 0
5727 5710 -5711 0
-5728 5727 5712 0
-5728 -5727 -5712 0
5728 -5727 5712 0
5728 5727 -5712 0
-5729 5728 5713 0
-5729 -5728 -5713 0
5729 -5728 5713 0
5729 5728 -5713 0
-5730 5729 5714 0
-5730 -5729 -5714 0
5730 -5729 5714 0
5730 5729 -5714 0
-5731 5730 5715 0
-5731 -5730 -5715 0
5731 -5730 5715 0
5731 5730 -5715 0
-5732 5731 5716 0
-5732 -5731 -5716 0
5732 -5731 5716 0
5732 5731 -5716 0
-5733 5732 5717 0
-5733 -5732 -5717 0
5733 -5732 5717 0
5733 5732 -5717 0
-5734 5733 5718 0
-5734 -5733 -5718 0
5734 -5733 5718 0
5734 5733 -5718 0
-5735 5734 5719 0
-5735 -5734 -5719 0
5735 -5734 5719 0
5735 5734 -5719 0
-5736 5735 5720 0
-5736 -5735 -5720 0
5736 -5735 5720 0
5736 5735 -5720 0
-5737 5736 5721 0
-5737 -5736 -5721 0
5737 -5736 5721 0
5737 5736 -5721 0
-5738 5737 5722 0
-5738 -5737 -5722 0
5738 -5737 5722 0
5738 5737 -5722 0
-5739 5738 5723 0
-5739 -5738 -5723 0
5739 -5738 5723 0
5739 5738 -5723 0
-5740 5739 5724 0
-5740 -5739 -5724 0
5740 -5739 5724 0
5740 5739 -5724 0
-5741 5740 5725 0
-5741 -5740 -5725 0
5741 -5740 5725 0
5741 5740 -5725 0
-5742 5741 5726 0
-5742 -5741 -5726 0
5742 -5741 5726 0
5742 5741 -5726 0
-5742 0
-5743 5639 0
-5743 36 0
5743 -5639 -36 0
-5744 5641 0
-5744 34 0
5744 -5641 -34 0
-5745 5643 0
-5745 35 0
5745 -5643 -35 0
-5746 5645 0
-5746 35 0
5746 -5645 -35 0
-5747 5647 0
-5747 34 0
5747 -5647 -34 0
-5748 5649 0
-5748 36 0
5748 -5649 -36 0
-5749 5639 0
-5749 45 0
5749 -5639 -45 0
-5750 5641 0
-5750 37 0
5750 -5641 -37 0
-5751 5643 0
-5751 41 0
5751 -5643 -41 0
-5752 5645 0
-5752 41 0
5752 -5645 -41 0
-5753 5647 0
-5753 37 0
5753 -5647 -37 0
-5754 5649 0
-5754 45 0
5754 -5649 -45 0
-5755 5651 0
-5755 84 0
5755 -5651 -84 0
-5756 5653 0
-5756 83 0
5756 -5653 -83 0
-5757 5655 0
-5757 82 0
5757 -5655 -82 0
-5758 5657 0
-5758 132 0
5758 -5657 -132 0
-5759 5659 0
-5759 180 0
5759 -5659 -180 0
-5760 5743 5744 0
-5760 -5743 -5744 0
5760 -5743 5744 0
5760 5743 -5744 0
-5761 5760 5745 0
-5761 -5760 -5745 0
5761 -5760 5745 0
5761 5760 -5745 0
-5762 5761 5746 0
-5762 -5761 -5746 0
5762 -5761 5746 0
5762 5761 -5746 0
-5763 5762 5747 0
-5763 -5762 -5747 0
5763 -5762 5747 0
5763 5762 -5747 0
-5764 5763 5748 0
-5764 -5763 -5748 0
5764 -5763 5748 0
5764 5763 -5748 0
-5765 5764 5749 0
-5765 -5764 -5749 0
5765 -5764 5749 0
5765 5764 -5749 0
-5766 5765 5750 0
-5766 -5765 -5750 0
5766 -5765 5750 0
5766 5765 -5750 0
-5767 5766 5751 0
-5767 -5766 -5751 0
5767 -5766 5751 0
5767 5766 -5751 0
-5768 5767 5752 0
-5768 -5767 -5752 0
5768 -5767 5752 0
5768 5767 -5752 0
-5769 5768 5753 0
-5769 -5768 -5753 0
5769 -5768 5753 0
5769 5768 -5753 0
-5770 5769 5754 0
-5770 -5769 -5754 0
5770 -5769 5754 0
5770 5769 -5754 0
-5771 5770 5755 0
-5771 -5770 -5755 0
5771 -5770 5755 0
5771 5770 -5755 0
-5772 5771 5756 0
-5772 -5771 -5756 0
5772 -5771 5756 0
5772 5771 -5756 0
-5773 5772 5757 0
-5773 -5772 -5757 0
5773 -5772 5757 0
5773 5772 -5757 0
-5774 5773 5758 0
-5774 -5773 -5758 0
5774 -5773 5758 0
5774 5773 -5758 0
-5775 5774 5759 0
-5775 -5774 -5759 0
5775 -5774 5759 0
5775 5774 -5759 0
-5775 0
-5776 5639 0
-5776 38 0
5776 -5639 -38 0
-5777 5641 0
-5777 48 0
5777 -5641 -48 0
-5778 5643 0
-5778 38 0
5778 -5643 -38 0
-5779 5645 0
-5779 48 0
5779 -5645 -48 0
-5780 5647 0
-5780 43 0
5780 -5647 -43 0
-5781 5649 0
-5781 43 0
5781 -5649 -43 0
-5782 5651 0
-5782 86 0
5782 -5651 -86 0
-5783 5653 0
-5783 86 0
5783 -5653 -86 0
-5784 5655 0
-5784 91 0
5784 -5655 -91 0
-5785 5657 0
-5785 134 0
5785 -5657 -134 0
-5786 5659 0
-5786 182 0
5786 -5659 -182 0
-5787 5776 5777 0
-5787 -5776 -5777 0
5787 -5776 5777 0
5787 5776 -5777 0
-5788 5787 5778 0
-5788 -5787 -5778 0
5788 -5787 5778 0
5788 5787 -5778 0
-5789 5788 5779 0
-5789 -5788 -5779 0
5789 -5788 5779 0
5789 5788 -5779 0
-5790 5789 5780 0
-5790 -5789 -5780 0
5790 -5789 5780 0
5790 5789 -5780 0
-5791 5790 5781 0
-5791 -5790 -5781 0
5791 -5790 5781 0
5791 5790 -5781 0
-5792 5791 5776 0
-5792 -5791 -5776 0
5792 -5791 5776 0
5792 5791 -5776 0
-5793 5792 5777 0
-5793 -5792 -5777 0
5793 -5792 5777 0
5793 5792 -5777 0
-5794 5793 5778 0
-5794 -5793 -5778 0
5794 -5793 5778 0
5794 5793 -5778 0
-5795 5794 5779 0
-5795 -5794 -5779 0
5795 -5794 5779 0
5795 5794 -5779 0
-5796 5795 5780 0
-5796 -5795 -5780 0
5796 -5795 5780 0
5796 5795 -5780 0
-5797 5796 5781 0
-5797 -5796 -5781 0
5797 -5796 5781 0
5797 5796 -5781 0
-5798 5797 5782 0
-5798 -5797 -5782 0
5798 -5797 5782 0
5798 5797 -5782 0
-5799 5798 5783 0
-5799 -5798 -5783 0
5799 -5798 5783 0
5799 5798 -5783 0
-5800 5799 5784 0
-5800 -5799 -5784 0
5800 -5799 5784 0
5800 5799 -5784 0
-5801 5800 5785 0
-5801 -5800 -5785 0
5801 -5800 5785 0
5801 5800 -5785 0
-5802 5801 5786 0
-5802 -5801 -5786 0
5802 -5801 5786 0
5802 5801 -5786 0
-5802 0
-5803 5639 0
-5803 39 0
5803 -5639 -39 0
-5804 5641 0
-5804 47 0
5804 -5641 -47 0
-5805 5643 0
-5805 40 0
5805 -5643 -40 0
-5806 5645 0
-5806 46 0
5806 -5645 -46 0
-5807 5647 0
-5807 44 0
5807 -5647 -44 0
-5808 5649 0
-5808 42 0
5808 -5649 -42 0
-5809 5639 0
-5809 42 0
5809 -5639 -42 0
-5810 5641 0
-5810 44 0
5810 -5641 -44 0
-5811 5643 0
-5811 46 0
5811 -5643 -46 0
-5812 5645 0
-5812 40 0
5812 -5645 -40 0
-5813 5647 0
-5813 47 0
5813 -5647 -47 0
-5814 5649 0
-5814 39 0
5814 -5649 -39 0
-5815 5651 0
-5815 87 0
5815 -5651 -87 0
-5816 5653 0
-5816 88 0
5816 -5653 -88 0
-5817 5655 0
-5817 92 0
5817 -5655 -92 0
-5818 5657 0
-5818 135 0
5818 -5657 -135 0
-5819 5659 0
-5819 183 0
5819 -5659 -183 0
-5820 5803 5804 0
-5820 -5803 -5804 0
5820 -5803 5804 0
5820 5803 -5804 0
-5821 5820 5805 0
-5821 -5820 -5805 0
5821 -5820 5805 0
5821 5820 -5805 0
-5822 5821 5806 0
-5822 -5821 -5806 0
5822 -5821 5806 0
5822 5821 -5806 0
-5823 5822 5807 0
-5823 -5822 -5807 0
5823 -5822 5807 0
5823 5822 -5807 0
-5824 5823 5808 0
-5824 -5823 -5808 0
5824 -5823 5808 0
5824 5823 -5808 0
-5825 5824 5809 0
-5825 -5824 -5809 0
5825 -5824 5809 0
5825 5824 -5809 0
-5826 5825 5810 0
-5826 -5825 -5810 0
5826 -5825 5810 0
5826 5825 -5810 0
-5827 5826 5811 0
-5827 -5826 -5811 0
5827 -5826 5811 0
5827 5826 -5811 0
-5828 5827 5812 0
-5828 -5827 -5812 0
5828 -5827 5812 0
5828 5827 -5812 0
-5829 5828 5813 0
-5829 -5828 -5813 0
5829 -5828 5813 0
5829 5828 -5813 0
-5830 5829 5814 0
-5830 -5829 -5814 0
5830 -5829 5814 0
5830 5829 -5814 0
-5831 5830 5815 0
-5831 -5830 -5815 0
5831 -5830 5815 0
5831 5830 -5815 0
-5832 5831 5816 0
-5832 -5831 -5816 0
5832 -5831 5816 0
5832 5831 -5816 0
-5833 5832 5817 0
-5833 -5832 -5817 0
5833 -5832 5817 0
5833 5832 -5817 0
-5834 5833 5818 0
-5834 -5833 -5818 0
5834 -5833 5818 0
5834 5833 -5818 0
-5835 5834 5819 0
-5835 -5834 -5819 0
5835 -5834 5819 0
5835 5834 -5819 0
-5835 0
-5836 5639 0
-5836 40 0
5836 -5639 -40 0
-5837 5641 0
-5837 46 0
5837 -5641 -46 0
-5838 5643 0
-5838 39 0
5838 -5643 -39 0
-5839 5645 0
-5839 47 0
5839 -5645 -47 0
-5840 5647 0
-5840 42 0
5840 -5647 -42 0
-5841 5649 0
-5841 44 0
5841 -5649 -44 0
-5842 5639 0
-5842 46 0
5842 -5639 -46 0
-5843 5641 0
-5843 40 0
5843 -5641 -40 0
-5844 5643 0
-5844 42 0
5844 -5643 -42 0
-5845 5645 0
-5845 44 0
5845 -5645 -44 0
-5846 5647 0
-5846 39 0
5846 -5647 -39 0
-5847 5649 0
-5847 47 0
5847 -5649 -47 0
-5848 5651 0
-5848 88 0
5848 -5651 -88 0
-5849 5653 0
-5849 87 0
5849 -5653 -87 0
-5850 5655 0
-5850 90 0
5850 -5655 -90 0
-5851 5657 0
-5851 136 0
5851 -5657 -136 0
-5852 5659 0
-5852 184 0
5852 -5659 -184 0
-5853 5836 5837 0
-5853 -5836 -5837 0
5853 -5836 5837 0
5853 5836 -5837 0
-5854 5853 5838 0
-5854 -5853 -5838 0
5854 -5853 5838 0
5854 5853 -5838 0
-5855 5854 5839 0
-5855 -5854 -5839 0
5855 -5854 5839 0
5855 5854 -5839 0
-5856 5855 5840 0
-5856 -5855 -5840 0
5856 -5855 5840 0
5856 5855 -5840 0
-5857 5856 5841 0
-5857 -5856 -5841 0
5857 -5856 5841 0
5857 5856 -5841 0
-5858 5857 5842 0
-5858 -5857 -5842 0
5858 -5857 5842 0
5858 5857 -5842 0
-5859 5858 5843 0
-5859 -5858 -5843 0
5859 -5858 5843 0
5859 5858 -5843 0
-5860 5859 5844 0
-5860 -5859 -5844 0
5860 -5859 5844 0
5860 5859 -5844 0
-5861 5860 5845 0
-5861 -5860 -5845 0
5861 -5860 5845 0
5861 5860 -5845 0
-5862 5861 5846 0
-5862 -5861 -5846 0
5862 -5861 5846 0
5862 5861 -5846 0
-5863 5862 5847 0
-5863 -5862 -5847 0
5863 -5862 5847 0
5863 5862 -5847 0
-5864 5863 5848 0
-5864 -5863 -5848 0
5864 -5863 5848 0
5864 5863 -5848 0
-5865 5864 5849 0
-5865 -5864 -5849 0
5865 -5864 5849 0
5865 5864 -5849 0
-5866 5865 5850 0
-5866 -5865 -5850 0
5866 -5865 5850 0
5866 5865 -5850 0
-5867 5866 5851 0
-5867 -5866 -5851 0
5867 -5866 5851 0
5867 5866 -5851 0
-5868 5867 5852 0
-5868 -5867 -5852 0
5868 -5867 5852 0
5868 5867 -5852 0
-5868 0
-5869 5639 0
-5869 43 0
5869 -5639 -43 0
-5870 5641 0
-5870 43 0
5870 -5641 -43 0
-5871 5643 0
-5871 48 0
5871 -5643 -48 0
-5872 5645 0
-5872 38 0
5872 -5645 -38 0
-5873 5647 0
-5873 48 0
5873 -5647 -48 0
-5874 5649 0
-5874 38 0
5874 -5649 -38 0
-5875 5651 0
-5875 91 0
5875 -5651 -91 0
-5876 5653 0
-5876 96 0
5876 -5653 -96 0
-5877 5655 0
-5877 96 0
5877 -5655 -96 0
-5878 5657 0
-5878 139 0
5878 -5657 -139 0
-5879 5659 0
-5879 187 0
5879 -5659 -187 0
-5880 5869 5870 0
-5880 -5869 -5870 0
5880 -5869 5870 0
5880 5869 -5870 0
-5881 5880 5871 0
-5881 -5880 -5871 0
5881 -5880 5871 0
5881 5880 -5871 0
-5882 5881 5872 0
-5882 -5881 -5872 0
5882 -5881 5872 0
5882 5881 -5872 0
-5883 5882 5873 0
-5883 -5882 -5873 0
5883 -5882 5873 0
5883 5882 -5873 0
-5884 5883 5874 0
-5884 -5883 -5874 0
5884 -5883 5874 0
5884 5883 -5874 0
-5885 5884 5869 0
-5885 -5884 -5869 0
5885 -5884 5869 0
5885 5884 -5869 0
-5886 5885 5870 0
-5886 -5885 -5870 0
5886 -5885 5870 0
5886 5885 -5870 0
-5887 5886 5871 0
-5887 -5886 -5871 0
5887 -5886 5871 0
5887 5886 -5871 0
-5888 5887 5872 0
-5888 -5887 -5872 0
5888 -5887 5872 0
5888 5887 -5872 0
-5889 5888 5873 0
-5889 -5888 -5873 0
5889 -5888 5873 0
5889 5888 -5873 0
-5890 5889 5874 0
-5890 -5889 -5874 0
5890 -5889 5874 0
5890 5889 -5874 0
-5891 5890 5875 0
-5891 -5890 -5875 0
5891 -5890 5875 0
5891 5890 -5875 0
-5892 5891 5876 0
-5892 -5891 -5876 0
5892 -5891 5876 0
5892 5891 -5876 0
-5893 5892 5877 0
-5893 -5892 -5877 0
5893 -5892 5877 0
5893 5892 -5877 0
-5894 5893 5878 0
-5894 -5893 -5878 0
5894 -5893 5878 0
5894 5893 -5878 0
-5895 5894 5879 0
-5895 -5894 -5879 0
5895 -5894 5879 0
5895 5894 -5879 0
-5895 0
-5896 5639 0
-5896 44 0
5896 -5639 -44 0
-5897 5641 0
-5897 42 0
5897 -5641 -42 0
-5898 5643 0
-5898 47 0
5898 -5643 -47 0
-5899 5645 0
-5899 39 0
5899 -5645 -39 0
-5900 5647 0
-5900 46 0
5900 -5647 -46 0
-5901 5649 0
-5901 40 0
5901 -5649 -40 0
-5902 5639 0
-5902 47 0
5902 -5639 -47 0
-5903 5641 0
-5903 39 0
5903 -5641 -39 0
-5904 5643 0
-5904 44 0
5904 -5643 -44 0
-5905 5645 0
-5905 42 0
5905 -5645 -42 0
-5906 5647 0
-5906 40 0
5906 -5647 -40 0
-5907 5649 0
-5907 46 0
5907 -5649 -46 0
-5908 5651 0
-5908 92 0
5908 -5651 -92 0
-5909 5653 0
-5909 95 0
5909 -5653 -95 0
-5910 5655 0
-5910 94 0
5910 -5655 -94 0
-5911 5657 0
-5911 140 0
5911 -5657 -140 0
-5912 5659 0
-5912 188 0
5912 -5659 -188 0
-5913 5896 5897 0
-5913 -5896 -5897 0
5913 -5896 5897 0
5913 5896 -5897 0
-5914 5913 5898 0
-5914 -5913 -5898 0
5914 -5913 5898 0
5914 5913 -5898 0
-5915 5914 5899 0
-5915 -5914 -5899 0
5915 -5914 5899 0
5915 5914 -5899 0
-5916 5915 5900 0
-5916 -5915 -5900 0
5916 -5915 5900 0
5916 5915 -5900 0
-5917 5916 5901 0
-5917 -5916 -5901 0
5917 -5916 5901 0
5917 5916 -5901 0
-5918 5917 5902 0
-5918 -5917 -5902 0
5918 -5917 5902 0
5918 5917 -5902 0
-5919 5918 5903 0
-5919 -5918 -5903 0
5919 -5918 5903 0
5919 5918 -5903 0
-5920 5919 5904 0
-5920 -5919 -5904 0
5920 -5919 5904 0
5920 5919 -5904 0
-5921 5920 5905 0
-5921 -5920 -5905 0
5921 -5920 5905 0
5921 5920 -5905 0
-5922 5921 5906 0
-5922 -5921 -5906 0
5922 -5921 5906 0
5922 5921 -5906 0
-5923 5922 5907 0
-5923 -5922 -5907 0
5923 -5922 5907 0
5923 5922 -5907 0
-5924 5923 5908 0
-5924 -5923 -5908 0
5924 -5923 5908 0
5924 5923 -5908 0
-5925 5924 5909 0
-5925 -5924 -5909 0
5925 -5924 5909 0
5925 5924 -5909 0
-5926 5925 5910 0
-5926 -5925 -5910 0
5926 -5925 5910 0
5926 5925 -5910 0
-5927 5926 5911 0
-5927 -5926 -5911 0
5927 -5926 5911 0
5927 5926 -5911 0
-5928 5927 5912 0
-5928 -5927 -5912 0
5928 -5927 5912 0
5928 5927 -5912 0
-5928 0
-5929 5639 0
-5929 48 0
5929 -5639 -48 0
-5930 5641 0
-5930 38 0
5930 -5641 -38 0
-5931 5643 0
-5931 43 0
5931 -5643 -43 0
-5932 5645 0
-5932 43 0
5932 -5645 -43 0
-5933 5647 0
-5933 38 0
5933 -5647 -38 0
-5934 5649 0
-5934 48 0
5934 -5649 -48 0
-5935 5651 0
-5935 96 0
5935 -5651 -96 0
-5936 5653 0
-5936 91 0
5936 -5653 -91 0
-5937 5655 0
-5937 86 0
5937 -5655 -86 0
-5938 5657 0
-5938 144 0
5938 -5657 -144 0
-5939 5659 0
-5939 192 0
5939 -5659 -192 0
-5940 5929 5930 0
-5940 -5929 -5930 0
5940 -5929 5930 0
5940 5929 -5930 0
-5941 5940 5931 0
-5941 -5940 -5931 0
5941 -5940 5931 0
5941 5940 -5931 0
-5942 5941 5932 0
-5942 -5941 -5932 0
5942 -5941 5932 0
5942 5941 -5932 0
-5943 5942 5933 0
-5943 -5942 -5933 0
5943 -5942 5933 0
5943 5942 -5933 0
-5944 5943 5934 0
-5944 -5943 -5934 0
5944 -5943 5934 0
5944 5943 -5934 0
-5945 5944 5929 0
-5945 -5944 -5929 0
5945 -5944 5929 0
5945 5944 -5929 0
-5946 5945 5930 0
-5946 -5945 -5930 0
5946 -5945 5930 0
5946 5945 -5930 0
-5947 5946 5931 0
-5947 -5946 -5931 0
5947 -5946 5931 0
5947 5946 -5931 0
-5948 5947 5932 0
-5948 -5947 -5932 0
5948 -5947 5932 0
5948 5947 -5932 0
-5949 5948 5933 0
-5949 -5948 -5933 0
5949 -5948 5933 0
5949 5948 -5933 0
-5950 5949 5934 0
-5950 -5949 -5934 0
5950 -5949 5934 0
5950 5949 -5934 0
-5951 5950 5935 0
-5951 -5950 -5935 0
5951 -5950 5935 0
5951 5950 -5935 0
-5952 5951 5936 0
-5952 -5951 -5936 0
5952 -5951 5936 0
5952 5951 -5936 0
-5953 5952 5937 0
-5953 -5952 -5937 0
5953 -5952 5937 0
5953 5952 -5937 0
-5954 5953 5938 0
-5954 -5953 -5938 0
5954 -5953 5938 0
5954 5953 -5938 0
-5955 5954 5939 0
-5955 -5954 -5939 0
5955 -5954 5939 0
5955 5954 -5939 0
-5955 0
-5956 5 0
-5956 19 0
5956 -5 -19 0
-5957 5956 0
-5957 33 0
5957 -5956 -33 0
-5958 13 0
-5958 19 0
5958 -13 -19 0
-5959 5958 0
-5959 33 0
5959 -5958 -33 0
-5960 6 0
-5960 24 0
5960 -6 -24 0
-5961 5960 0
-5961 33 0
5961 -5960 -33 0
-5962 15 0
-5962 26 0
5962 -15 -26 0
-5963 5962 0
-5963 33 0
5963 -5962 -33 0
-5964 10 0
-5964 24 0
5964 -10 -24 0
-5965 5964 0
-5965 33 0
5965 -5964 -33 0
-5966 11 0
-5966 26 0
5966 -11 -26 0
-5967 5966 0
-5967 33 0
5967 -5966 -33 0
-5968 18 0
-5968 9 0
5968 -18 -9 0
-5969 5968 0
-5969 33 0
5969 -5968 -33 0
-5970 20 0
-5970 9 0
5970 -20 -9 0
-5971 5970 0
-5971 33 0
5971 -5970 -33 0
-5972 22 0
-5972 14 0
5972 -22 -14 0
-5973 5972 0
-5973 33 0
5973 -5972 -33 0
-5974 28 0
-5974 7 0
5974 -28 -7 0
-5975 5974 0
-5975 33 0
5975 -5974 -33 0
-5976 23 0
-5976 14 0
5976 -23 -14 0
-5977 5976 0
-5977 33 0
5977 -5976 -33 0
-5978 27 0
-5978 7 0
5978 -27 -7 0
-5979 5978 0
-5979 33 0
5979 -5978 -33 0
-5980 53 0
-5980 67 0
5980 -53 -67 0
-5981 5980 0
-5981 81 0
5981 -5980 -81 0
-5982 54 0
-5982 72 0
5982 -54 -72 0
-5983 5982 0
-5983 81 0
5983 -5982 -81 0
-5984 58 0
-5984 72 0
5984 -58 -72 0
-5985 5984 0
-5985 81 0
5985 -5984 -81 0
-5986 101 0
-5986 115 0
5986 -101 -115 0
-5987 5986 0
-5987 129 0
5987 -5986 -129 0
-5988 149 0
-5988 163 0
5988 -149 -163 0
-5989 5988 0
-5989 177 0
5989 -5988 -177 0
-5990 5957 5959 0
-5990 -5957 -5959 0
5990 -5957 5959 0
5990 5957 -5959 0
-5991 5990 5961 0
-5991 -5990 -5961 0
5991 -5990 5961 0
5991 5990 -5961 0
-5992 5991 5963 0
-5992 -5991 -5963 0
5992 -5991 5963 0
5992 5991 -5963 0
-5993 5992 5965 0
-5993 -5992 -5965 0
5993 -5992 5965 0
5993 5992 -5965 0
-5994 5993 5967 0
-5994 -5993 -5967 0
5994 -5993 5967 0
5994 5993 -5967 0
-5995 5994 5969 0
-5995 -5994 -5969 0
5995 -5994 5969 0
5995 5994 -5969 0
-5996 5995 5971 0
-5996 -5995 -5971 0
5996 -5995 5971 0
5996 5995 -5971 0
-5997 5996 5973 0
-5997 -5996 -5973 0
5997 -5996 5973 0
5997 5996 -5973 0
-5998 5997 5975 0
-5998 -5997 -5975 0
5998 -5997 5975 0
5998 5997 -5975 0
-5999 5998 5977 0
-5999 -5998 -5977 0
5999 -5998 5977 0
5999 5998 -5977 0
-6000 5999 5979 0
-6000 -5999 -5979 0
6000 -5999 5979 0
6000 5999 -5979 0
-6001 6000 5981 0
-6001 -6000 -5981 0
6001 -6000 5981 0
6001 6000 -5981 0
-6002 6001 5983 0
-6002 -6001 -5983 0
6002 -6001 5983 0
6002 6001 -5983 0
-6003 6002 5985 0
-6003 -6002 -5985 0
6003 -6002 5985 0
6003 6002 -5985 0
-6004 6003 5987 0
-6004 -6003 -5987 0
6004 -6003 5987 0
6004 6003 -5987 0
-6005 6004 5989 0
-6005 -6004 -5989 0
6005 -6004 5989 0
6005 6004 -5989 0
-6005 0
-6006 5956 0
-6006 34 0
6006 -5956 -34 0
-6007 5958 0
-6007 36 0
6007 -5958 -36 0
-6008 5960 0
-6008 34 0
6008 -5960 -34 0
-6009 5962 0
-6009 36 0
6009 -5962 -36 0
-6010 5964 0
-6010 35 0
6010 -5964 -35 0
-6011 5966 0
-6011 35 0
6011 -5966 -35 0
-6012 5968 0
-6012 37 0
6012 -5968 -37 0
-6013 5970 0
-6013 45 0
6013 -5970 -45 0
-6014 5972 0
-6014 37 0
6014 -5972 -37 0
-6015 5974 0
-6015 45 0
6015 -5974 -45 0
-6016 5976 0
-6016 41 0
6016 -5976 -41 0
-6017 5978 0
-6017 41 0
6017 -5978 -41 0
-6018 5980 0
-6018 82 0
6018 -5980 -82 0
-6019 5982 0
-6019 82 0
6019 -5982 -82 0
-6020 5984 0
-6020 83 0
6020 -5984 -83 0
-6021 5986 0
-6021 130 0
6021 -5986 -130 0
-6022 5988 0
-6022 178 0
6022 -5988 -178 0
-6023 6006 6007 0
-6023 -6006 -6007 0
6023 -6006 6007 0
6023 6006 -6007 0
-6024 6023 6008 0
-6024 -6023 -6008 0
6024 -6023 6008 0
6024 6023 -6008 0
-6025 6024 6009 0
-6025 -6024 -6009 0
6025 -6024 6009 0
6025 6024 -6009 0
-6026 6025 6010 0
-6026 -6025 -6010 0
6026 -6025 6010 0
6026 6025 -6010 0
-6027 6026 6011 0
-6027 -6026 -6011 0
6027 -6026 6011 0
6027 6026 -6011 0
-6028 6027 6012 0
-6028 -6027 -6012 0
6028 -6027 6012 0
6028 6027 -6012 0
-6029 6028 6013 0
-6029 -6028 -6013 0
6029 -6028 6013 0
6029 6028 -6013 0
-6030 6029 6014 0
-6030 -6029 -6014 0
6030 -6029 6014 0
6030 6029 -6014 0
-6031 6030 6015 0
-6031 -6030 -6015 0
6031 -6030 6015 0
6031 6030 -6015 0
-6032 6031 6016 0
-6032 -6031 -6016 0
6032 -6031 6016 0
6032 6031 -6016 0
-6033 6032 6017 0
-6033 -6032 -6017 0
6033 -6032 6017 0
6033 6032 -6017 0
-6034 6033 6018 0
-6034 -6033 -6018 0
6034 -6033 6018 0
6034 6033 -6018 0
-6035 6034 6019 0
-6035 -6034 -6019 0
6035 -6034 6019 0
6035 6034 -6019 0
-6036 6035 6020 0
-6036 -6035 -6020 0
6036 -6035 6020 0
6036 6035 -6020 0
-6037 6036 6021 0
-6037 -6036 -6021 0
6037 -6036 6021 0
6037 6036 -6021 0
-6038 6037 6022 0
-6038 -6037 -6022 0
6038 -6037 6022 0
6038 6037 -6022 0
-6038 0
-6039 5956 0
-6039 35 0
6039 -5956 -35 0
-6040 5958 0
-6040 35 0
6040 -5958 -35 0
-6041 5960 0
-6041 36 0
6041 -5960 -36 0
-6042 5962 0
-6042 34 0
6042 -5962 -34 0
-6043 5964 0
-6043 36 0
6043 -5964 -36 0
-6044 5966 0
-6044 34 0
6044 -5966 -34 0
-6045 5968 0
-6045 41 0
6045 -5968 -41 0
-6046 5970 0
-6046 41 0
6046 -5970 -41 0
-6047 5972 0
-6047 45 0
6047 -5972 -45 0
-6048 5974 0
-6048 37 0
6048 -5974 -37 0
-6049 5976 0
-6049 45 0
6049 -5976 -45 0
-6050 5978 0
-6050 37 0
6050 -5978 -37 0
-6051 5980 0
-6051 83 0
6051 -5980 -83 0
-6052 5982 0
-6052 84 0
6052 -5982 -84 0
-6053 5984 0
-6053 84 0
6053 -5984 -84 0
-6054 5986 0
-6054 131 0
6054 -5986 -131 0
-6055 5988 0
-6055 179 0
6055 -5988 -179 0
-6056 6039 6040 0
-6056 -6039 -6040 0
6056 -6039 6040 0
6056 6039 -6040 0
-6057 6056 6041 0
-6057 -6056 -6041 0
6057 -6056 6041 0
6057 6056 -6041 0
-6058 6057 6042 0
-6058 -6057 -6042 0
6058 -6057 6042 0
6058 6057 -6042 0
-6059 6058 6043 0
-6059 -6058 -6043 0
6059 -6058 6043 0
6059 6058 -6043 0
-6060 6059 6044 0
-6060 -6059 -6044 0
6060 -6059 6044 0
6060 6059 -6044 0
-6061 6060 6045 0
-6061 -6060 -6045 0
6061 -6060 6045 0
6061 6060 -6045 0
-6062 6061 6046 0
-6062 -6061 -6046 0
6062 -6061 6046 0
6062 6061 -6046 0
-6063 6062 6047 0
-6063 -6062 -6047 0
6063 -6062 6047 0
6063 6062 -6047 0
-6064 6063 6048 0
-6064 -6063 -6048 0
6064 -6063 6048 0
6064 6063 -6048 0
-6065 6064 6049 0
-6065 -6064 -6049 0
6065 -6064 6049 0
6065 6064 -6049 0
-6066 6065 6050 0
-6066 -6065 -6050 0
6066 -6065 6050 0
6066 6065 -6050 0
-6067 6066 6051 0
-6067 -6066 -6051 0
6067 -6066 6051 0
6067 6066 -6051 0
-6068 6067 6052 0
-6068 -6067 -6052 0
6068 -6067 6052 0
6068 6067 -6052 0
-6069 6068 6053 0
-6069 -6068 -6053 0
6069 -6068 6053 0
6069 6068 -6053 0
-6070 6069 6054 0
-6070 -6069 -6054 0
6070 -6069 6054 0
6070 6069 -6054 0
-6071 6070 6055 0
-6071 -6070 -6055 0
6071 -6070 6055 0
6071 6070 -6055 0
-6071 0
-6072 5956 0
-6072 36 0
6072 -5956 -36 0
-6073 5958 0
-6073 34 0
6073 -5958 -34 0
-6074 5960 0
-6074 35 0
6074 -5960 -35 0
-6075 5962 0
-6075 35 0
6075 -5962 -35 0
-6076 5964 0
-6076 34 0
6076 -5964 -34 0
-6077 5966 0
-6077 36 0
6077 -5966 -36 0
-6078 5968 0
-6078 45 0
6078 -5968 -45 0
-6079 5970 0
-6079 37 0
6079 -5970 -37 0
-6080 5972 0
-6080 41 0
6080 -5972 -41 0
-6081 5974 0
-6081 41 0
6081 -5974 -41 0
-6082 5976 0
-6082 37 0
6082 -5976 -37 0
-6083 5978 0
-6083 45 0
6083 -5978 -45 0
-6084 5980 0
-6084 84 0
6084 -5980 -84 0
-6085 5982 0
-6085 83 0
6085 -5982 -83 0
-6086 5984 0
-6086 82 0
6086 -5984 -82 0
-6087 5986 0
-6087 132 0
6087 -5986 -132 0
-6088 5988 0
-6088 180 0
6088 -5988 -180 0
-6089 6072 6073 0
-6089 -6072 -6073 0
6089 -6072 6073 0
6089 6072 -6073 0
-6090 6089 6074 0
-6090 -6089 -6074 0
6090 -6089 6074 0
6090 6089 -6074 0
-6091 6090 6075 0
-6091 -6090 -6075 0
6091 -6090 6075 0
6091 6090 -6075 0
-6092 6091 6076 0
-6092 -6091 -6076 0
6092 -6091 6076 0
6092 6091 -6076 0
-6093 6092 6077 0
-6093 -6092 -6077 0
6093 -6092 6077 0
6093 6092 -6077 0
-6094 6093 6078 0
-6094 -6093 -6078 0
6094 -6093 6078 0
6094 6093 -6078 0
-6095 6094 6079 0
-6095 -6094 -6079 0
6095 -6094 6079 0
6095 6094 -6079 0
-6096 6095 6080 0
-6096 -6095 -6080 0
6096 -6095 6080 0
6096 6095 -6080 0
-6097 6096 6081 0
-6097 -6096 -6081 0
6097 -6096 6081 0
6097 6096 -6081 0
-6098 6097 6082 0
-6098 -6097 -6082 0
6098 -6097 6082 0
6098 6097 -6082 0
-6099 6098 6083 0
-6099 -6098 -6083 0
6099 -6098 6083 0
6099 6098 -6083 0
-6100 6099 6084 0
-6100 -6099 -6084 0
6100 -6099 6084 0
6100 6099 -6084 0
-6101 6100 6085 0
-6101 -6100 -6085 0
6101 -6100 6085 0
6101 6100 -6085 0
-6102 6101 6086 0
-6102 -6101 -6086 0
6102 -6101 6086 0
6102 6101 -6086 0
-6103 6102 6087 0
-6103 -6102 -6087 0
6103 -6102 6087 0
6103 6102 -6087 0
-6104 6103 6088 0
-6104 -6103 -6088 0
6104 -6103 6088 0
6104 6103 -6088 0
-6104 0
-6105 5956 0
-6105 37 0
6105 -5956 -37 0
-6106 5958 0
-6106 45 0
6106 -5958 -45 0
-6107 5960 0
-6107 37 0
6107 -5960 -37 0
-6108 5962 0
-6108 45 0
6108 -5962 -45 0
-6109 5964 0
-6109 41 0
6109 -5964 -41 0
-6110 5966 0
-6110 41 0
6110 -5966 -41 0
-6111 5968 0
-6111 34 0
6111 -5968 -34 0
-6112 5970 0
-6112 36 0
6112 -5970 -36 0
-6113 5972 0
-6113 34 0
6113 -5972 -34 0
-6114 5974 0
-6114 36 0
6114 -5974 -36 0
-6115 5976 0
-6115 35 0
6115 -5976 -35 0
-6116 5978 0
-6116 35 0
6116 -5978 -35 0
-6117 5980 0
-6117 85 0
6117 -5980 -85 0
-6118 5982 0
-6118 85 0
6118 -5982 -85 0
-6119 5984 0
-6119 89 0
6119 -5984 -89 0
-6120 5986 0
-6120 133 0
6120 -5986 -133 0
-6121 5988 0
-6121 181 0
6121 -5988 -181 0
-6122 6105 6106 0
-6122 -6105 -6106 0
6122 -6105 6106 0
6122 6105 -6106 0
-6123 6122 6107 0
-6123 -6122 -6107 0
6123 -6122 6107 0
6123 6122 -6107 0
-6124 6123 6108 0
-6124 -6123 -6108 0
6124 -6123 6108 0
6124 6123 -6108 0
-6125 6124 6109 0
-6125 -6124 -6109 0
6125 -6124 6109 0
6125 6124 -6109 0
-6126 6125 6110 0
-6126 -6125 -6110 0
6126 -6125 6110 0
6126 6125 -6110 0
-6127 6126 6111 0
-6127 -6126 -6111 0
6127 -6126 6111 0
6127 6126 -6111 0
-6128 6127 6112 0
-6128 -6127 -6112 0
6128 -6127 6112 0
6128 6127 -6112 0
-6129 6128 6113 0
-6129 -6128 -6113 0
6129 -6128 6113 0
6129 6128 -6113 0
-6130 6129 6114 0
-6130 -6129 -6114 0
6130 -6129 6114 0
6130 6129 -6114 0
-6131 6130 6115 0
-6131 -6130 -6115 0
6131 -6130 6115 0
6131 6130 -6115 0
-6132 6131 6116 0
-6132 -6131 -6116 0
6132 -6131 6116 0
6132 6131 -6116 0
-6133 6132 6117 0
-6133 -6132 -6117 0
6133 -6132 6117 0
6133 6132 -6117 0
-6134 6133 6118 0
-6134 -6133 -6118 0
6134 -6133 6118 0
6134 6133 -6118 0
-6135 6134 6119 0
-6135 -6134 -6119 0
6135 -6134 6119 0
6135 6134 -6119 0
-6136 6135 6120 0
-6136 -6135 -6120 0
6136 -6135 6120 0
6136 6135 -6120 0
-6137 6136 6121 0
-6137 -6136 -6121 0
6137 -6136 6121 0
6137 6136 -6121 0
-6137 0
-6138 5956 0
-6138 38 0
6138 -5956 -38 0
-6139 5958 0
-6139 48 0
6139 -5958 -48 0
-6140 5960 0
-6140 38 0
6140 -5960 -38 0
-6141 5962 0
-6141 48 0
6141 -5962 -48 0
-6142 5964 0
-6142 43 0
6142 -5964 -43 0
-6143 5966 0
-6143 43 0
6143 -5966 -43 0
-6144 5968 0
-6144 38 0
6144 -5968 -38 0
-6145 5970 0
-6145 48 0
6145 -5970 -48 0
-6146 5972 0
-6146 38 0
6146 -5972 -38 0
-6147 5974 0
-6147 48 0
6147 -5974 -48 0
-6148 5976 0
-6148 43 0
6148 -5976 -43 0
-6149 5978 0
-6149 43 0
6149 -5978 -43 0
-6150 5980 0
-6150 86 0
6150 -5980 -86 0
-6151 5982 0
-6151 86 0
6151 -5982 -86 0
-6152 5984 0
-6152 91 0
6152 -5984 -91 0
-6153 5986 0
-6153 134 0
6153 -5986 -134 0
-6154 5988 0
-6154 182 0
6154 -5988 -182 0
-6155 6138 6139 0
-6155 -6138 -6139 0
6155 -6138 6139 0
6155 6138 -6139 0
-6156 6155 6140 0
-6156 -6155 -6140 0
6156 -6155 6140 0
6156 6155 -6140 0
-6157 6156 6141 0
-6157 -6156 -6141 0
6157 -6156 6141 0
6157 6156 -6141 0
-6158 6157 6142 0
-6158 -6157 -6142 0
6158 -6157 6142 0
6158 6157 -6142 0
-6159 6158 6143 0
-6159 -6158 -6143 0
6159 -6158 6143 0
6159 6158 -6143 0
-6160 6159 6144 0
-6160 -6159 -6144 0
6160 -6159 6144 0
6160 6159 -6144 0
-6161 6160 6145 0
-6161 -6160 -6145 0
6161 -6160 6145 0
6161 6160 -6145 0
-6162 6161 6146 0
-6162 -6161 -6146 0
6162 -6161 6146 0
6162 6161 -6146 0
-6163 6162 6147 0
-6163 -6162 -6147 0
6163 -6162 6147 0
6163 6162 -6147 0
-6164 6163 6148 0
-6164 -6163 -6148 0
6164 -6163 6148 0
6164 6163 -6148 0
-6165 6164 6149 0
-6165 -6164 -6149 0
6165 -6164 6149 0
6165 6164 -6149 0
-6166 6165 6150 0
-6166 -6165 -6150 0
6166 -6165 6150 0
6166 6165 -6150 0
-6167 6166 6151 0
-6167 -6166 -6151 0
6167 -6166 6151 0
6167 6166 -6151 0
-6168 6167 6152 0
-6168 -6167 -6152 0
6168 -6167 6152 0
6168 6167 -6152 0
-6169 6168 6153 0
-6169 -6168 -6153 0
6169 -6168 6153 0
6169 6168 -6153 0
-6170 6169 6154 0
-6170 -6169 -6154 0
6170 -6169 6154 0
6170 6169 -6154 0
-6170 0
-6171 5956 0
-6171 39 0
6171 -5956 -39 0
-6172 5958 0
-6172 47 0
6172 -5958 -47 0
-6173 5960 0
-6173 40 0
6173 -5960 -40 0
-6174 5962 0
-6174 46 0
6174 -5962 -46 0
-6175 5964 0
-6175 44 0
6175 -5964 -44 0
-6176 5966 0
-6176 42 0
6176 -5966 -42 0
-6177 5968 0
-6177 42 0
6177 -5968 -42 0
-6178 5970 0
-6178 44 0
6178 -5970 -44 0
-6179 5972 0
-6179 46 0
6179 -5972 -46 0
-6180 5974 0
-6180 40 0
6180 -5974 -40 0
-6181 5976 0
-6181 47 0
6181 -5976 -47 0
-6182 5978 0
-6182 39 0
6182 -5978 -39 0
-6183 5980 0
-6183 87 0
6183 -5980 -87 0
-6184 5982 0
-6184 88 0
6184 -5982 -88 0
-6185 5984 0
-6185 92 0
6185 -5984 -92 0
-6186 5986 0
-6186 135 0
6186 -5986 -135 0
-6187 5988 0
-6187 183 0
6187 -5988 -183 0
-6188 6171 6172 0
-6188 -6171 -6172 0
6188 -6171 6172 0
6188 6171 -6172 0
-6189 6188 6173 0
-6189 -6188 -6173 0
6189 -6188 6173 0
6189 6188 -6173 0
-6190 6189 6174 0
-6190 -6189 -6174 0
6190 -6189 6174 0
6190 6189 -6174 0
-6191 6190 6175 0
-6191 -6190 -6175 0
6191 -6190 6175 0
6191 6190 -6175 0
-6192 6191 6176 0
-6192 -6191 -6176 0
6192 -6191 6176 0
6192 6191 -6176 0
-6193 6192 6177 0
-6193 -6192 -6177 0
6193 -6192 6177 0
6193 6192 -6177 0
-6194 6193 6178 0
-6194 -6193 -6178 0
6194 -6193 6178 0
6194 6193 -6178 0
-6195 6194 6179 0
-6195 -6194 -6179 0
6195 -6194 6179 0
6195 6194 -6179 0
-6196 6195 6180 0
-6196 -6195 -6180 0
6196 -6195 6180 0
6196 6195 -6180 0
-6197 6196 6181 0
-6197 -6196 -6181 0
6197 -6196 6181 0
6197 6196 -6181 0
-6198 6197 6182 0
-6198 -6197 -6182 0
6198 -6197 6182 0
6198 6197 -6182 0
-6199 6198 6183 0
-6199 -6198 -6183 0
6199 -6198 6183 0
6199 6198 -6183 0
-6200 6199 6184 0
-6200 -6199 -6184 0
6200 -6199 6184 0
6200 6199 -6184 0
-6201 6200 6185 0
-6201 -6200 -6185 0
6201 -6200 6185 0
6201 6200 -6185 0
-6202 6201 6186 0
-6202 -6201 -6186 0
6202 -6201 6186 0
6202 6201 -6186 0
-6203 6202 6187 0
-6203 -6202 -6187 0
6203 -6202 6187 0
6203 6202 -6187 0
-6203 0
-6204 5956 0
-6204 40 0
6204 -5956 -40 0
-6205 5958 0
-6205 46 0
6205 -5958 -46 0
-6206 5960 0
-6206 39 0
6206 -5960 -39 0
-6207 5962 0
-6207 47 0
6207 -5962 -47 0
-6208 5964 0
-6208 42 0
6208 -5964 -42 0
-6209 5966 0
-6209 44 0
6209 -5966 -44 0
-6210 5968 0
-6210 46 0
6210 -5968 -46 0
-6211 5970 0
-6211 40 0
6211 -5970 -40 0
-6212 5972 0
-6212 42 0
6212 -5972 -42 0
-6213 5974 0
-6213 44 0
6213 -5974 -44 0
-6214 5976 0
-6214 39 0
6214 -5976 -39 0
-6215 5978 0
-6215 47 0
6215 -5978 -47 0
-6216 5980 0
-6216 88 0
6216 -5980 -88 0
-6217 5982 0
-6217 87 0
6217 -5982 -87 0
-6218 5984 0
-6218 90 0
6218 -5984 -90 0
-6219 5986 0
-6219 136 0
6219 -5986 -136 0
-6220 5988 0
-6220 184 0
6220 -5988 -184 0
-6221 6204 6205 0
-6221 -6204 -6205 0
6221 -6204 6205 0
6221 6204 -6205 0
-6222 6221 6206 0
-6222 -6221 -6206 0
6222 -6221 6206 0
6222 6221 -6206 0
-6223 6222 6207 0
-6223 -6222 -6207 0
6223 -6222 6207 0
6223 6222 -6207 0
-6224 6223 6208 0
-6224 -6223 -6208 0
6224 -6223 6208 0
6224 6223 -6208 0
-6225 6224 6209 0
-6225 -6224 -6209 0
6225 -6224 6209 0
6225 6224 -6209 0
-6226 6225 6210 0
-6226 -6225 -6210 0
6226 -6225 6210 0
6226 6225 -6210 0
-6227 6226 6211 0
-6227 -6226 -6211 0
6227 -6226 6211 0
6227 6226 -6211 0
-6228 6227 6212 0
-6228 -6227 -6212 0
6228 -6227 6212 0
6228 6227 -6212 0
-6229 6228 6213 0
-6229 -6228 -6213 0
6229 -6228 6213 0
6229 6228 -6213 0
-6230 6229 6214 0
-6230 -6229 -6214 0
6230 -6229 6214 0
6230 6229 -6214 0
-6231 6230 6215 0
-6231 -6230 -6215 0
6231 -6230 6215 0
6231 6230 -6215 0
-6232 6231 6216 0
-6232 -6231 -6216 0
6232 -6231 6216 0
6232 6231 -6216 0
-6233 6232 6217 0
-6233 -6232 -6217 0
6233 -6232 6217 0
6233 6232 -6217 0
-6234 6233 6218 0
-6234 -6233 -6218 0
6234 -6233 6218 0
6234 6233 -6218 0
-6235 6234 6219 0
-6235 -6234 -6219 0
6235 -6234 6219 0
6235 6234 -6219 0
-6236 6235 6220 0
-6236 -6235 -6220 0
6236 -6235 6220 0
6236 6235 -6220 0
-6236 0
-6237 5956 0
-6237 41 0
6237 -5956 -41 0
-6238 5958 0
-6238 41 0
6238 -5958 -41 0
-6239 5960 0
-6239 45 0
6239 -5960 -45 0
-6240 5962 0
-6240 37 0
6240 -5962 -37 0
-6241 5964 0
-6241 45 0
6241 -5964 -45 0
-6242 5966 0
-6242 37 0
6242 -5966 -37 0
-6243 5968 0
-6243 35 0
6243 -5968 -35 0
-6244 5970 0
-6244 35 0
6244 -5970 -35 0
-6245 5972 0
-6245 36 0
6245 -5972 -36 0
-6246 5974 0
-6246 34 0
6246 -5974 -34 0
-6247 5976 0
-6247 36 0
6247 -5976 -36 0
-6248 5978 0
-6248 34 0
6248 -5978 -34 0
-6249 5980 0
-6249 89 0
6249 -5980 -89 0
-6250 5982 0
-6250 93 0
6250 -5982 -93 0
-6251 5984 0
-6251 93 0
6251 -5984 -93 0
-6252 5986 0
-6252 137 0
6252 -5986 -137 0
-6253 5988 0
-6253 185 0
6253 -5988 -185 0
-6254 6237 6238 0
-6254 -6237 -6238 0
6254 -6237 6238 0
6254 6237 -6238 0
-6255 6254 6239 0
-6255 -6254 -6239 0
6255 -6254 6239 0
6255 6254 -6239 0
-6256 6255 6240 0
-6256 -6255 -6240 0
6256 -6255 6240 0
6256 6255 -6240 0
-6257 6256 6241 0
-6257 -6256 -6241 0
6257 -6256 6241 0
6257 6256 -6241 0
-6258 6257 6242 0
-6258 -6257 -6242 0
6258 -6257 6242 0
6258 6257 -6242 0
-6259 6258 6243 0
-6259 -6258 -6243 0
6259 -6258 6243 0
6259 6258 -6243 0
-6260 6259 6244 0
-6260 -6259 -6244 0
6260 -6259 6244 0
6260 6259 -6244 0
-6261 6260 6245 0
-6261 -6260 -6245 0
6261 -6260 6245 0
6261 6260 -6245 0
-6262 6261 6246 0
-6262 -6261 -6246 0
6262 -6261 6246 0
6262 6261 -6246 0
-6263 6262 6247 0
-6263 -6262 -6247 0
6263 -6262 6247 0
6263 6262 -6247 0
-6264 6263 6248 0
-6264 -6263 -6248 0
6264 -6263 6248 0
6264 6263 -6248 0
-6265 6264 6249 0
-6265 -6264 -6249 0
6265 -6264 6249 0
6265 6264 -6249 0
-6266 6265 6250 0
-6266 -6265 -6250 0
6266 -6265 6250 0
6266 6265 -6250 0
-6267 6266 6251 0
-6267 -6266 -6251 0
6267 -6266 6251 0
6267 6266 -6251 0
-6268 6267 6252 0
-6268 -6267 -6252 0
6268 -6267 6252 0
6268 6267 -6252 0
-6269 6268 6253 0
-6269 -6268 -6253 0
6269 -6268 6253 0
6269 6268 -6253 0
6269 0
-6270 5956 0
-6270 42 0
6270 -5956 -42 0
-6271 5958 0
-6271 44 0
6271 -5958 -44 0
-6272 5960 0
-6272 46 0
6272 -5960 -46 0
-6273 5962 0
-6273 40 0
6273 -5962 -40 0
-6274 5964 0
-6274 47 0
6274 -5964 -47 0
-6275 5966 0
-6275 39 0
6275 -5966 -39 0
-6276 5968 0
-6276 39 0
6276 -5968 -39 0
-6277 5970 0
-6277 47 0
6277 -5970 -47 0
-6278 5972 0
-6278 40 0
6278 -5972 -40 0
-6279 5974 0
-6279 46 0
6279 -5974 -46 0
-6280 5976 0
-6280 44 0
6280 -5976 -44 0
-6281 5978 0
-6281 42 0
6281 -5978 -42 0
-6282 5980 0
-6282 90 0
6282 -5980 -90 0
-6283 5982 0
-6283 94 0
6283 -5982 -94 0
-6284 5984 0
-6284 95 0
6284 -5984 -95 0
-6285 5986 0
-6285 138 0
6285 -5986 -138 0
-6286 5988 0
-6286 186 0
6286 -5988 -186 0
-6287 6270 6271 0
-6287 -6270 -6271 0
6287 -6270 6271 0
6287 6270 -6271 0
-6288 6287 6272 0
-6288 -6287 -6272 0
6288 -6287 6272 0
6288 6287 -6272 0
-6289 6288 6273 0
-6289 -6288 -6273 0
6289 -6288 6273 0
6289 6288 -6273 0
-6290 6289 6274 0
-6290 -6289 -6274 0
6290 -6289 6274 0
6290 6289 -6274 0
-6291 6290 6275 0
-6291 -6290 -6275 0
6291 -6290 6275 0
6291 6290 -6275 0
-6292 6291 6276 0
-6292 -6291 -6276 0
6292 -6291 6276 0
6292 6291 -6276 0
-6293 6292 6277 0
-6293 -6292 -6277 0
6293 -6292 6277 0
6293 6292 -6277 0
-6294 6293 6278 0
-6294 -6293 -6278 0
6294 -6293 6278 0
6294 6293 -6278 0
-6295 6294 6279 0
-6295 -6294 -6279 0
6295 -6294 6279 0
6295 6294 -6279 0
-6296 6295 6280 0
-6296 -6295 -6280 0
6296 -6295 6280 0
6296 6295 -6280 0
-6297 6296 6281 0
-6297 -6296 -6281 0
6297 -6296 6281 0
6297 6296 -6281 0
-6298 6297 6282 0
-6298 -6297 -6282 0
6298 -6297 6282 0
6298 6297 -6282 0
-6299 6298 6283 0
-6299 -6298 -6283 0
6299 -6298 6283 0
6299 6298 -6283 0
-6300 6299 6284 0
-6300 -6299 -6284 0
6300 -6299 6284 0
6300 6299 -6284 0
-6301 6300 6285 0
-6301 -6300 -6285 0
6301 -6300 6285 0
6301 6300 -6285 0
-6302 6301 6286 0
-6302 -6301 -6286 0
6302 -6301 6286 0
6302 6301 -6286 0
6302 0
-6303 5956 0
-6303 43 0
6303 -5956 -43 0
-6304 5958 0
-6304 43 0
6304 -5958 -43 0
-6305 5960 0
-6305 48 0
6305 -5960 -48 0
-6306 5962 0
-6306 38 0
6306 -5962 -38 0
-6307 5964 0
-6307 48 0
6307 -5964 -48 0
-6308 5966 0
-6308 38 0
6308 -5966 -38 0
-6309 5968 0
-6309 43 0
6309 -5968 -43 0
-6310 5970 0
-6310 43 0
6310 -5970 -43 0
-6311 5972 0
-6311 48 0
6311 -5972 -48 0
-6312 5974 0
-6312 38 0
6312 -5974 -38 0
-6313 5976 0
-6313 48 0
6313 -5976 -48 0
-6314 5978 0
-6314 38 0
6314 -5978 -38 0
-6315 5980 0
-6315 91 0
6315 -5980 -91 0
-6316 5982 0
-6316 96 0
6316 -5982 -96 0
-6317 5984 0
-6317 96 0
6317 -5984 -96 0
-6318 5986 0
-6318 139 0
6318 -5986 -139 0
-6319 5988 0
-6319 187 0
6319 -5988 -187 0
-6320 6303 6304 0
-6320 -6303 -6304 0
6320 -6303 6304 0
6320 6303 -6304 0
-6321 6320 6305 0
-6321 -6320 -6305 0
6321 -6320 6305 0
6321 6320 -6305 0
-6322 6321 6306 0
-6322 -6321 -6306 0
6322 -6321 6306 0
6322 6321 -6306 0
-6323 6322 6307 0
-6323 -6322 -6307 0
6323 -6322 6307 0
6323 6322 -6307 0
-6324 6323 6308 0
-6324 -6323 -6308 0
6324 -6323 6308 0
6324 6323 -6308 0
-6325 6324 6309 0
-6325 -6324 -6309 0
6325 -6324 6309 0
6325 6324 -6309 0
-6326 6325 6310 0
-6326 -6325 -6310 0
6326 -6325 6310 0
6326 6325 -6310 0
-6327 6326 6311 0
-6327 -6326 -6311 0
6327 -6326 6311 0
6327 6326 -6311 0
-6328 6327 6312 0
-6328 -6327 -6312 0
6328 -6327 6312 0
6328 6327 -6312 0
-6329 6328 6313 0
-6329 -6328 -6313 0
6329 -6328 6313 0
6329 6328 -6313 0
-6330 6329 6314 0
-6330 -6329 -6314 0
6330 -6329 6314 0
6330 6329 -6314 0
-6331 6330 6315 0
-6331 -6330 -6315 0
6331 -6330 6315 0
6331 6330 -6315 0
-6332 6331 6316 0
-6332 -6331 -6316 0
6332 -6331 6316 0
6332 6331 -6316 0
-6333 6332 6317 0
-6333 -6332 -6317 0
6333 -6332 6317 0
6333 6332 -6317 0
-6334 6333 6318 0
-6334 -6333 -6318 0
6334 -6333 6318 0
6334 6333 -6318 0
-6335 6334 6319 0
-6335 -6334 -6319 0
6335 -6334 6319 0
6335 6334 -6319 0
6335 0
-6336 5956 0
-6336 44 0
6336 -5956 -44 0
-6337 5958 0
-6337 42 0
6337 -5958 -42 0
-6338 5960 0
-6338 47 0
6338 -5960 -47 0
-6339 5962 0
-6339 39 0
6339 -5962 -39 0
-6340 5964 0
-6340 46 0
6340 -5964 -46 0
-6341 5966 0
-6341 40 0
6341 -5966 -40 0
-6342 5968 0
-6342 47 0
6342 -5968 -47 0
-6343 5970 0
-6343 39 0
6343 -5970 -39 0
-6344 5972 0
-6344 44 0
6344 -5972 -44 0
-6345 5974 0
-6345 42 0
6345 -5974 -42 0
-6346 5976 0
-6346 40 0
6346 -5976 -40 0
-6347 5978 0
-6347 46 0
6347 -5978 -46 0
-6348 5980 0
-6348 92 0
6348 -5980 -92 0
-6349 5982 0
-6349 95 0
6349 -5982 -95 0
-6350 5984 0
-6350 94 0
6350 -5984 -94 0
-6351 5986 0
-6351 140 0
6351 -5986 -140 0
-6352 5988 0
-6352 188 0
6352 -5988 -188 0
-6353 6336 6337 0
-6353 -6336 -6337 0
6353 -6336 6337 0
6353 6336 -6337 0
-6354 6353 6338 0
-6354 -6353 -6338 0
6354 -6353 6338 0
6354 6353 -6338 0
-6355 6354 6339 0
-6355 -6354 -6339 0
6355 -6354 6339 0
6355 6354 -6339 0
-6356 6355 6340 0
-6356 -6355 -6340 0
6356 -6355 6340 0
6356 6355 -6340 0
-6357 6356 6341 0
-6357 -6356 -6341 0
6357 -6356 6341 0
6357 6356 -6341 0
-6358 6357 6342 0
-6358 -6357 -6342 0
6358 -6357 6342 0
6358 6357 -6342 0
-6359 6358 6343 0
-6359 -6358 -6343 0
6359 -6358 6343 0
6359 6358 -6343 0
-6360 6359 6344 0
-6360 -6359 -6344 0
6360 -6359 6344 0
6360 6359 -6344 0
-6361 6360 6345 0
-6361 -6360 -6345 0
6361 -6360 6345 0
6361 6360 -6345 0
-6362 6361 6346 0
-6362 -6361 -6346 0
6362 -6361 6346 0
6362 6361 -6346 0
-6363 6362 6347 0
-6363 -6362 -6347 0
6363 -6362 6347 0
6363 6362 -6347 0
-6364 6363 6348 0
-6364 -6363 -6348 0
6364 -6363 6348 0
6364 6363 -6348 0
-6365 6364 6349 0
-6365 -6364 -6349 0
6365 -6364 6349 0
6365 6364 -6349 0
-6366 6365 6350 0
-6366 -6365 -6350 0
6366 -6365 6350 0
6366 6365 -6350 0
-6367 6366 6351 0
-6367 -6366 -6351 0
6367 -6366 6351 0
6367 6366 -6351 0
-6368 6367 6352 0
-6368 -6367 -6352 0
6368 -6367 6352 0
6368 6367 -6352 0
-6368 0
-6369 5956 0
-6369 45 0
6369 -5956 -45 0
-6370 5958 0
-6370 37 0
6370 -5958 -37 0
-6371 5960 0
-6371 41 0
6371 -5960 -41 0
-6372 5962 0
-6372 41 0
6372 -5962 -41 0
-6373 5964 0
-6373 37 0
6373 -5964 -37 0
-6374 5966 0
-6374 45 0
6374 -5966 -45 0
-6375 5968 0
-6375 36 0
6375 -5968 -36 0
-6376 5970 0
-6376 34 0
6376 -5970 -34 0
-6377 5972 0
-6377 35 0
6377 -5972 -35 0
-6378 5974 0
-6378 35 0
6378 -5974 -35 0
-6379 5976 0
-6379 34 0
6379 -5976 -34 0
-6380 5978 0
-6380 36 0
6380 -5978 -36 0
-6381 5980 0
-6381 93 0
6381 -5980 -93 0
-6382 5982 0
-6382 89 0
6382 -5982 -89 0
-6383 5984 0
-6383 85 0
6383 -5984 -85 0
-6384 5986 0
-6384 141 0
6384 -5986 -141 0
-6385 5988 0
-6385 189 0
6385 -5988 -189 0
-6386 6369 6370 0
-6386 -6369 -6370 0
6386 -6369 6370 0
6386 6369 -6370 0
-6387 6386 6371 0
-6387 -6386 -6371 0
6387 -6386 6371 0
6387 6386 -6371 0
-6388 6387 6372 0
-6388 -6387 -6372 0
6388 -6387 6372 0
6388 6387 -6372 0
-6389 6388 6373 0
-6389 -6388 -6373 0
6389 -6388 6373 0
6389 6388 -6373 0
-6390 6389 6374 0
-6390 -6389 -6374 0
6390 -6389 6374 0
6390 6389 -6374 0
-6391 6390 6375 0
-6391 -6390 -6375 0
6391 -6390 6375 0
6391 6390 -6375 0
-6392 6391 6376 0
-6392 -6391 -6376 0
6392 -6391 6376 0
6392 6391 -6376 0
-6393 6392 6377 0
-6393 -6392 -6377 0
6393 -6392 6377 0
6393 6392 -6377 0
-6394 6393 6378 0
-6394 -6393 -6378 0
6394 -6393 6378 0
6394 6393 -6378 0
-6395 6394 6379 0
-6395 -6394 -6379 0
6395 -6394 6379 0
6395 6394 -6379 0
-6396 6395 6380 0
-6396 -6395 -6380 0
6396 -6395 6380 0
6396 6395 -6380 0
-6397 6396 6381 0
-6397 -6396 -6381 0
6397 -6396 6381 0
6397 6396 -6381 0
-6398 6397 6382 0
-6398 -6397 -6382 0
6398 -6397 6382 0
6398 6397 -6382 0
-6399 6398 6383 0
-6399 -6398 -6383 0
6399 -6398 6383 0
6399 6398 -6383 0
-6400 6399 6384 0
-6400 -6399 -6384 0
6400 -6399 6384 0
6400 6399 -6384 0
-6401 6400 6385 0
-6401 -6400 -6385 0
6401 -6400 6385 0
6401 6400 -6385 0
-6401 0
-6402 5956 0
-6402 46 0
6402 -5956 -46 0
-6403 5958 0
-6403 40 0
6403 -5958 -40 0
-6404 5960 0
-6404 42 0
6404 -5960 -42 0
-6405 5962 0
-6405 44 0
6405 -5962 -44 0
-6406 5964 0
-6406 39 0
6406 -5964 -39 0
-6407 5966 0
-6407 47 0
6407 -5966 -47 0
-6408 5968 0
-6408 40 0
6408 -5968 -40 0
-6409 5970 0
-6409 46 0
6409 -5970 -46 0
-6410 5972 0
-6410 39 0
6410 -5972 -39 0
-6411 5974 0
-6411 47 0
6411 -5974 -47 0
-6412 5976 0
-6412 42 0
6412 -5976 -42 0
-6413 5978 0
-6413 44 0
6413 -5978 -44 0
-6414 5980 0
-6414 94 0
6414 -5980 -94 0
-6415 5982 0
-6415 90 0
6415 -5982 -90 0
-6416 5984 0
-6416 87 0
6416 -5984 -87 0
-6417 5986 0
-6417 142 0
6417 -5986 -142 0
-6418 5988 0
-6418 190 0
6418 -5988 -190 0
-6419 6402 6403 0
-6419 -6402 -6403 0
6419 -6402 6403 0
6419 6402 -6403 0
-6420 6419 6404 0
-6420 -6419 -6404 0
6420 -6419 6404 0
6420 6419 -6404 0
-6421 6420 6405 0
-6421 -6420 -6405 0
6421 -6420 6405 0
6421 6420 -6405 0
-6422 6421 6406 0
-6422 -6421 -6406 0
6422 -6421 6406 0
6422 6421 -6406 0
-6423 6422 6407 0
-6423 -6422 -6407 0
6423 -6422 6407 0
6423 6422 -6407 0
-6424 6423 6408 0
-6424 -6423 -6408 0
6424 -6423 6408 0
6424 6423 -6408 0
-6425 6424 6409 0
-6425 -6424 -6409 0
6425 -6424 6409 0
6425 6424 -6409 0
-6426 6425 6410 0
-6426 -6425 -6410 0
6426 -6425 6410 0
6426 6425 -6410 0
-6427 6426 6411 0
-6427 -6426 -6411 0
6427 -6426 6411 0
6427 6426 -6411 0
-6428 6427 6412 0
-6428 -6427 -6412 0
6428 -6427 6412 0
6428 6427 -6412 0
-6429 6428 6413 0
-6429 -6428 -6413 0
6429 -6428 6413 0
6429 6428 -6413 0
-6430 6429 6414 0
-6430 -6429 -6414 0
6430 -6429 6414 0
6430 6429 -6414 0
-6431 6430 6415 0
-6431 -6430 -6415 0
6431 -6430 6415 0
6431 6430 -6415 0
-6432 6431 6416 0
-6432 -6431 -6416 0
6432 -6431 6416 0
6432 6431 -6416 0
-6433 6432 6417 0
-6433 -6432 -6417 0
6433 -6432 6417 0
6433 6432 -6417 0
-6434 6433 6418 0
-6434 -6433 -6418 0
6434 -6433 6418 0
6434 6433 -6418 0
-6434 0
-6435 5956 0
-6435 47 0
6435 -5956 -47 0
-6436 5958 0
-6436 39 0
6436 -5958 -39 0
-6437 5960 0
-6437 44 0
6437 -5960 -44 0
-6438 5962 0
-6438 42 0
6438 -5962 -42 0
-6439 5964 0
-6439 40 0
6439 -5964 -40 0
-6440 5966 0
-6440 46 0
6440 -5966 -46 0
-6441 5968 0
-6441 44 0
6441 -5968 -44 0
-6442 5970 0
-6442 42 0
6442 -5970 -42 0
-6443 5972 0
-6443 47 0
6443 -5972 -47 0
-6444 5974 0
-6444 39 0
6444 -5974 -39 0
-6445 5976 0
-6445 46 0
6445 -5976 -46 0
-6446 5978 0
-6446 40 0
6446 -5978 -40 0
-6447 5980 0
-6447 95 0
6447 -5980 -95 0
-6448 5982 0
-6448 92 0
6448 -5982 -92 0
-6449 5984 0
-6449 88 0
6449 -5984 -88 0
-6450 5986 0
-6450 143 0
6450 -5986 -143 0
-6451 5988 0
-6451 191 0
6451 -5988 -191 0
-6452 6435 6436 0
-6452 -6435 -6436 0
6452 -6435 6436 0
6452 6435 -6436 0
-6453 6452 6437 0
-6453 -6452 -6437 0
6453 -6452 6437 0
6453 6452 -6437 0
-6454 6453 6438 0
-6454 -6453 -6438 0
6454 -6453 6438 0
6454 6453 -6438 0
-6455 6454 6439 0
-6455 -6454 -6439 0
6455 -6454 6439 0
6455 6454 -6439 0
-6456 6455 6440 0
-6456 -6455 -6440 0
6456 -6455 6440 0
6456 6455 -6440 0
-6457 6456 6441 0
-6457 -6456 -6441 0
6457 -6456 6441 0
6457 6456 -6441 0
-6458 6457 6442 0
-6458 -6457 -6442 0
6458 -6457 6442 0
6458 6457 -6442 0
-6459 6458 6443 0
-6459 -6458 -6443 0
6459 -6458 6443 0
6459 6458 -6443 0
-6460 6459 6444 0
-6460 -6459 -6444 0
6460 -6459 6444 0
6460 6459 -6444 0
-6461 6460 6445 0
-6461 -6460 -6445 0
6461 -6460 6445 0
6461 6460 -6445 0
-6462 6461 6446 0
-6462 -6461 -6446 0
6462 -6461 6446 0
6462 6461 -6446 0
-6463 6462 6447 0
-6463 -6462 -6447 0
6463 -6462 6447 0
6463 6462 -6447 0
-6464 6463 6448 0
-6464 -6463 -6448 0
6464 -6463 6448 0
6464 6463 -6448 0
-6465 6464 6449 0
-6465 -6464 -6449 0
6465 -6464 6449 0
6465 6464 -6449 0
-6466 6465 6450 0
-6466 -6465 -6450 0
6466 -6465 6450 0
6466 6465 -6450 0
-6467 6466 6451 0
-6467 -6466 -6451 0
6467 -6466 6451 0
6467 6466 -6451 0
-6467 0
-6468 5956 0
-6468 48 0
6468 -5956 -48 0
-6469 5958 0
-6469 38 0
6469 -5958 -38 0
-6470 5960 0
-6470 43 0
6470 -5960 -43 0
-6471 5962 0
-6471 43 0
6471 -5962 -43 0
-6472 5964 0
-6472 38 0
6472 -5964 -38 0
-6473 5966 0
-6473 48 0
6473 -5966 -48 0
-6474 5968 0
-6474 48 0
6474 -5968 -48 0
-6475 5970 0
-6475 38 0
6475 -5970 -38 0
-6476 5972 0
-6476 43 0
6476 -5972 -43 0
-6477 5974 0
-6477 43 0
6477 -5974 -43 0
-6478 5976 0
-6478 38 0
6478 -5976 -38 0
-6479 5978 0
-6479 48 0
6479 -5978 -48 0
-6480 5980 0
-6480 96 0
6480 -5980 -96 0
-6481 5982 0
-6481 91 0
6481 -5982 -91 0
-6482 5984 0
-6482 86 0
6482 -5984 -86 0
-6483 5986 0
-6483 144 0
6483 -5986 -144 0
-6484 5988 0
-6484 192 0
6484 -5988 -192 0
-6485 6468 6469 0
-6485 -6468 -6469 0
6485 -6468 6469 0
6485 6468 -6469 0
-6486 6485 6470 0
-6486 -6485 -6470 0
6486 -6485 6470 0
6486 6485 -6470 0
-6487 6486 6471 0
-6487 -6486 -6471 0
6487 -6486 6471 0
6487 6486 -6471 0
-6488 6487 6472 0
-6488 -6487 -6472 0
6488 -6487 6472 0
6488 6487 -6472 0
-6489 6488 6473 0
-6489 -6488 -6473 0
6489 -6488 6473 0
6489 6488 -6473 0
-6490 6489 6474 0
-6490 -6489 -6474 0
6490 -6489 6474 0
6490 6489 -6474 0
-6491 6490 6475 0
-6491 -6490 -6475 0
6491 -6490 6475 0
6491 6490 -6475 0
-6492 6491 6476 0
-6492 -6491 -6476 0
6492 -6491 6476 0
6492 6491 -6476 0
-6493 6492 6477 0
-6493 -6492 -6477 0
6493 -6492 6477 0
6493 6492 -6477 0
-6494 6493 6478 0
-6494 -6493 -6478 0
6494 -6493 6478 0
6494 6493 -6478 0
-6495 6494 6479 0
-6495 -6494 -6479 0
6495 -6494 6479 0
6495 6494 -6479 0
-6496 6495 6480 0
-6496 -6495 -6480 0
6496 -6495 6480 0
6496 6495 -6480 0
-6497 6496 6481 0
-6497 -6496 -6481 0
6497 -6496 6481 0
6497 6496 -6481 0
-6498 6497 6482 0
-6498 -6497 -6482 0
6498 -6497 6482 0
6498 6497 -6482 0
-6499 6498 6483 0
-6499 -6498 -6483 0
6499 -6498 6483 0
6499 6498 -6483 0
-6500 6499 6484 0
-6500 -6499 -6484 0
6500 -6499 6484 0
6500 6499 -6484 0
-6500 0
-6501 5 0
-6501 20 0
6501 -5 -20 0
-6502 6501 0
-6502 33 0
6502 -6501 -33 0
-6503 13 0
-6503 18 0
6503 -13 -18 0
-6504 6503 0
-6504 33 0
6504 -6503 -33 0
-6505 6 0
-6505 23 0
6505 -6 -23 0
-6506 6505 0
-6506 33 0
6506 -6505 -33 0
-6507 15 0
-6507 27 0
6507 -15 -27 0
-6508 6507 0
-6508 33 0
6508 -6507 -33 0
-6509 10 0
-6509 22 0
6509 -10 -22 0
-6510 6509 0
-6510 33 0
6510 -6509 -33 0
-6511 11 0
-6511 28 0
6511 -11 -28 0
-6512 6511 0
-6512 33 0
6512 -6511 -33 0
-6513 53 0
-6513 68 0
6513 -53 -68 0
-6514 6513 0
-6514 81 0
6514 -6513 -81 0
-6515 54 0
-6515 71 0
6515 -54 -71 0
-6516 6515 0
-6516 81 0
6516 -6515 -81 0
-6517 58 0
-6517 70 0
6517 -58 -70 0
-6518 6517 0
-6518 81 0
6518 -6517 -81 0
-6519 101 0
-6519 116 0
6519 -101 -116 0
-6520 6519 0
-6520 129 0
6520 -6519 -129 0
-6521 149 0
-6521 164 0
6521 -149 -164 0
-6522 6521 0
-6522 177 0
6522 -6521 -177 0
-6523 6502 6504 0
-6523 -6502 -6504 0
6523 -6502 6504 0
6523 6502 -6504 0
-6524 6523 6506 0
-6524 -6523 -6506 0
6524 -6523 6506 0
6524 6523 -6506 0
-6525 6524 6508 0
-6525 -6524 -6508 0
6525 -6524 6508 0
6525 6524 -6508 0
-6526 6525 6510 0
-6526 -6525 -6510 0
6526 -6525 6510 0
6526 6525 -6510 0
-6527 6526 6512 0
-6527 -6526 -6512 0
6527 -6526 6512 0
6527 6526 -6512 0
-6528 6527 6504 0
-6528 -6527 -6504 0
6528 -6527 6504 0
6528 6527 -6504 0
-6529 6528 6502 0
-6529 -6528 -6502 0
6529 -6528 6502 0
6529 6528 -6502 0
-6530 6529 6510 0
-6530 -6529 -6510 0
6530 -6529 6510 0
6530 6529 -6510 0
-6531 6530 6512 0
-6531 -6530 -6512 0
6531 -6530 6512 0
6531 6530 -6512 0
-6532 6531 6506 0
-6532 -6531 -6506 0
6532 -6531 6506 0
6532 6531 -6506 0
-6533 6532 6508 0
-6533 -6532 -6508 0
6533 -6532 6508 0
6533 6532 -6508 0
-6534 6533 6514 0
-6534 -6533 -6514 0
6534 -6533 6514 0
6534 6533 -6514 0
-6535 6534 6516 0
-6535 -6534 -6516 0
6535 -6534 6516 0
6535 6534 -6516 0
-6536 6535 6518 0
-6536 -6535 -6518 0
6536 -6535 6518 0
6536 6535 -6518 0
-6537 6536 6520 0
-6537 -6536 -6520 0
6537 -6536 6520 0
6537 6536 -6520 0
-6538 6537 6522 0
-6538 -6537 -6522 0
6538 -6537 6522 0
6538 6537 -6522 0
-6538 0
-6539 6501 0
-6539 34 0
6539 -6501 -34 0
-6540 6503 0
-6540 36 0
6540 -6503 -36 0
-6541 6505 0
-6541 34 0
6541 -6505 -34 0
-6542 6507 0
-6542 36 0
6542 -6507 -36 0
-6543 6509 0
-6543 35 0
6543 -6509 -35 0
-6544 6511 0
-6544 35 0
6544 -6511 -35 0
-6545 6503 0
-6545 37 0
6545 -6503 -37 0
-6546 6501 0
-6546 45 0
6546 -6501 -45 0
-6547 6509 0
-6547 37 0
6547 -6509 -37 0
-6548 6511 0
-6548 45 0
6548 -6511 -45 0
-6549 6505 0
-6549 41 0
6549 -6505 -41 0
-6550 6507 0
-6550 41 0
6550 -6507 -41 0
-6551 6513 0
-6551 82 0
6551 -6513 -82 0
-6552 6515 0
-6552 82 0
6552 -6515 -82 0
-6553 6517 0
-6553 83 0
6553 -6517 -83 0
-6554 6519 0
-6554 130 0
6554 -6519 -130 0
-6555 6521 0
-6555 178 0
6555 -6521 -178 0
-6556 6539 6540 0
-6556 -6539 -6540 0
6556 -6539 6540 0
6556 6539 -6540 0
-6557 6556 6541 0
-6557 -6556 -6541 0
6557 -6556 6541 0
6557 6556 -6541 0
-6558 6557 6542 0
-6558 -6557 -6542 0
6558 -6557 6542 0
6558 6557 -6542 0
-6559 6558 6543 0
-6559 -6558 -6543 0
6559 -6558 6543 0
6559 6558 -6543 0
-6560 6559 6544 0
-6560 -6559 -6544 0
6560 -6559 6544 0
6560 6559 -6544 0
-6561 6560 6545 0
-6561 -6560 -6545 0
6561 -6560 6545 0
6561 6560 -6545 0
-6562 6561 6546 0
-6562 -6561 -6546 0
6562 -6561 6546 0
6562 6561 -6546 0
-6563 6562 6547 0
-6563 -6562 -6547 0
6563 -6562 6547 0
6563 6562 -6547 0
-6564 6563 6548 0
-6564 -6563 -6548 0
6564 -6563 6548 0
6564 6563 -6548 0
-6565 6564 6549 0
-6565 -6564 -6549 0
6565 -6564 6549 0
6565 6564 -6549 0
-6566 6565 6550 0
-6566 -6565 -6550 0
6566 -6565 6550 0
6566 6565 -6550 0
-6567 6566 6551 0
-6567 -6566 -6551 0
6567 -6566 6551 0
6567 6566 -6551 0
-6568 6567 6552 0
-6568 -6567 -6552 0
6568 -6567 6552 0
6568 6567 -6552 0
-6569 6568 6553 0
-6569 -6568 -6553 0
6569 -6568 6553 0
6569 6568 -6553 0
-6570 6569 6554 0
-6570 -6569 -6554 0
6570 -6569 6554 0
6570 6569 -6554 0
-6571 6570 6555 0
-6571 -6570 -6555 0
6571 -6570 6555 0
6571 6570 -6555 0
6571 0
-6572 6501 0
-6572 35 0
6572 -6501 -35 0
-6573 6503 0
-6573 35 0
6573 -6503 -35 0
-6574 6505 0
-6574 36 0
6574 -6505 -36 0
-6575 6507 0
-6575 34 0
6575 -6507 -34 0
-6576 6509 0
-6576 36 0
6576 -6509 -36 0
-6577 6511 0
-6577 34 0
6577 -6511 -34 0
-6578 6503 0
-6578 41 0
6578 -6503 -41 0
-6579 6501 0
-6579 41 0
6579 -6501 -41 0
-6580 6509 0
-6580 45 0
6580 -6509 -45 0
-6581 6511 0
-6581 37 0
6581 -6511 -37 0
-6582 6505 0
-6582 45 0
6582 -6505 -45 0
-6583 6507 0
-6583 37 0
6583 -6507 -37 0
-6584 6513 0
-6584 83 0
6584 -6513 -83 0
-6585 6515 0
-6585 84 0
6585 -6515 -84 0
-6586 6517 0
-6586 84 0
6586 -6517 -84 0
-6587 6519 0
-6587 131 0
6587 -6519 -131 0
-6588 6521 0
-6588 179 0
6588 -6521 -179 0
-6589 6572 6573 0
-6589 -6572 -6573 0
6589 -6572 6573 0
6589 6572 -6573 0
-6590 6589 6574 0
-6590 -6589 -6574 0
6590 -6589 6574 0
6590 6589 -6574 0
-6591 6590 6575 0
-6591 -6590 -6575 0
6591 -6590 6575 0
6591 6590 -6575 0
-6592 6591 6576 0
-6592 -6591 -6576 0
6592 -6591 6576 0
6592 6591 -6576 0
-6593 6592 6577 0
-6593 -6592 -6577 0
6593 -6592 6577 0
6593 6592 -6577 0
-6594 6593 6578 0
-6594 -6593 -6578 0
6594 -6593 6578 0
6594 6593 -6578 0
-6595 6594 6579 0
-6595 -6594 -6579 0
6595 -6594 6579 0
6595 6594 -6579 0
-6596 6595 6580 0
-6596 -6595 -6580 0
6596 -6595 6580 0
6596 6595 -6580 0
-6597 6596 6581 0
-6597 -6596 -6581 0
6597 -6596 6581 0
6597 6596 -6581 0
-6598 6597 6582 0
-6598 -6597 -6582 0
6598 -6597 6582 0
6598 6597 -6582 0
-6599 6598 6583 0
-6599 -6598 -6583 0
6599 -6598 6583 0
6599 6598 -6583 0
-6600 6599 6584 0
-6600 -6599 -6584 0
6600 -6599 6584 0
6600 6599 -6584 0
-6601 6600 6585 0
-6601 -6600 -6585 0
6601 -6600 6585 0
6601 6600 -6585 0
-6602 6601 6586 0
-6602 -6601 -6586 0
6602 -6601 6586 0
6602 6601 -6586 0
-6603 6602 6587 0
-6603 -6602 -6587 0
6603 -6602 6587 0
6603 6602 -6587 0
-6604 6603 6588 0
-6604 -6603 -6588 0
6604 -6603 6588 0
6604 6603 -6588 0
-6604 0
-6605 6501 0
-6605 36 0
6605 -6501 -36 0
-6606 6503 0
-6606 34 0
6606 -6503 -34 0
-6607 6505 0
-6607 35 0
6607 -6505 -35 0
-6608 6507 0
-6608 35 0
6608 -6507 -35 0
-6609 6509 0
-6609 34 0
6609 -6509 -34 0
-6610 6511 0
-6610 36 0
6610 -6511 -36 0
-6611 6503 0
-6611 45 0
6611 -6503 -45 0
-6612 6501 0
-6612 37 0
6612 -6501 -37 0
-6613 6509 0
-6613 41 0
6613 -6509 -41 0
-6614 6511 0
-6614 41 0
6614 -6511 -41 0
-6615 6505 0
-6615 37 0
6615 -6505 -37 0
-6616 6507 0
-6616 45 0
6616 -6507 -45 0
-6617 6513 0
-6617 84 0
6617 -6513 -84 0
-6618 6515 0
-6618 83 0
6618 -6515 -83 0
-6619 6517 0
-6619 82 0
6619 -6517 -82 0
-6620 6519 0
-6620 132 0
6620 -6519 -132 0
-6621 6521 0
-6621 180 0
6621 -6521 -180 0
-6622 6605 6606 0
-6622 -6605 -6606 0
6622 -6605 6606 0
6622 6605 -6606 0
-6623 6622 6607 0
-6623 -6622 -6607 0
6623 -6622 6607 0
6623 6622 -6607 0
-6624 6623 6608 0
-6624 -6623 -6608 0
6624 -6623 6608 0
6624 6623 -6608 0
-6625 6624 6609 0
-6625 -6624 -6609 0
6625 -6624 6609 0
6625 6624 -6609 0
-6626 6625 6610 0
-6626 -6625 -6610 0
6626 -6625 6610 0
6626 6625 -6610 0
-6627 6626 6611 0
-6627 -6626 -6611 0
6627 -6626 6611 0
6627 6626 -6611 0
-6628 6627 6612 0
-6628 -6627 -6612 0
6628 -6627 6612 0
6628 6627 -6612 0
-6629 6628 6613 0
-6629 -6628 -6613 0
6629 -6628 6613 0
6629 6628 -6613 0
-6630 6629 6614 0
-6630 -6629 -6614 0
6630 -6629 6614 0
6630 6629 -6614 0
-6631 6630 6615 0
-6631 -6630 -6615 0
6631 -6630 6615 0
6631 6630 -6615 0
-6632 6631 6616 0
-6632 -6631 -6616 0
6632 -6631 6616 0
6632 6631 -6616 0
-6633 6632 6617 0
-6633 -6632 -6617 0
6633 -6632 6617 0
6633 6632 -6617 0
-6634 6633 6618 0
-6634 -6633 -6618 0
6634 -6633 6618 0
6634 6633 -6618 0
-6635 6634 6619 0
-6635 -6634 -6619 0
6635 -6634 6619 0
6635 6634 -6619 0
-6636 6635 6620 0
-6636 -6635 -6620 0
6636 -6635 6620 0
6636 6635 -6620 0
-6637 6636 6621 0
-6637 -6636 -6621 0
6637 -6636 6621 0
6637 6636 -6621 0
-6637 0
-6638 6501 0
-6638 38 0
6638 -6501 -38 0
-6639 6503 0
-6639 48 0
6639 -6503 -48 0
-6640 6505 0
-6640 38 0
6640 -6505 -38 0
-6641 6507 0
-6641 48 0
6641 -6507 -48 0
-6642 6509 0
-6642 43 0
6642 -6509 -43 0
-6643 6511 0
-6643 43 0
6643 -6511 -43 0
-6644 6503 0
-6644 38 0
6644 -6503 -38 0
-6645 6501 0
-6645 48 0
6645 -6501 -48 0
-6646 6509 0
-6646 38 0
6646 -6509 -38 0
-6647 6511 0
-6647 48 0
6647 -6511 -48 0
-6648 6505 0
-6648 43 0
6648 -6505 -43 0
-6649 6507 0
-6649 43 0
6649 -6507 -43 0
-6650 6513 0
-6650 86 0
6650 -6513 -86 0
-6651 6515 0
-6651 86 0
6651 -6515 -86 0
-6652 6517 0
-6652 91 0
6652 -6517 -91 0
-6653 6519 0
-6653 134 0
6653 -6519 -134 0
-6654 6521 0
-6654 182 0
6654 -6521 -182 0
-6655 6638 6639 0
-6655 -6638 -6639 0
6655 -6638 6639 0
6655 6638 -6639 0
-6656 6655 6640 0
-6656 -6655 -6640 0
6656 -6655 6640 0
6656 6655 -6640 0
-6657 6656 6641 0
-6657 -6656 -6641 0
6657 -6656 6641 0
6657 6656 -6641 0
-6658 6657 6642 0
-6658 -6657 -6642 0
6658 -6657 6642 0
6658 6657 -6642 0
-6659 6658 6643 0
-6659 -6658 -6643 0
6659 -6658 6643 0
6659 6658 -6643 0
-6660 6659 6644 0
-6660 -6659 -6644 0
6660 -6659 6644 0
6660 6659 -6644 0
-6661 6660 6645 0
-6661 -6660 -6645 0
6661 -6660 6645 0
6661 6660 -6645 0
-6662 6661 6646 0
-6662 -6661 -6646 0
6662 -6661 6646 0
6662 6661 -6646 0
-6663 6662 6647 0
-6663 -6662 -6647 0
6663 -6662 6647 0
6663 6662 -6647 0
-6664 6663 6648 0
-6664 -6663 -6648 0
6664 -6663 6648 0
6664 6663 -6648 0
-6665 6664 6649 0
-6665 -6664 -6649 0
6665 -6664 6649 0
6665 6664 -6649 0
-6666 6665 6650 0
-6666 -6665 -6650 0
6666 -6665 6650 0
6666 6665 -6650 0
-6667 6666 6651 0
-6667 -6666 -6651 0
6667 -6666 6651 0
6667 6666 -6651 0
-6668 6667 6652 0
-6668 -6667 -6652 0
6668 -6667 6652 0
6668 6667 -6652 0
-6669 6668 6653 0
-6669 -6668 -6653 0
6669 -6668 6653 0
6669 6668 -6653 0
-6670 6669 6654 0
-6670 -6669 -6654 0
6670 -6669 6654 0
6670 6669 -6654 0
-6670 0
-6671 6501 0
-6671 39 0
6671 -6501 -39 0
-6672 6503 0
-6672 47 0
6672 -6503 -47 0
-6673 6505 0
-6673 40 0
6673 -6505 -40 0
-6674 6507 0
-6674 46 0
6674 -6507 -46 0
-6675 6509 0
-6675 44 0
6675 -6509 -44 0
-6676 6511 0
-6676 42 0
6676 -6511 -42 0
-6677 6503 0
-6677 42 0
6677 -6503 -42 0
-6678 6501 0
-6678 44 0
6678 -6501 -44 0
-6679 6509 0
-6679 46 0
6679 -6509 -46 0
-6680 6511 0
-6680 40 0
6680 -6511 -40 0
-6681 6505 0
-6681 47 0
6681 -6505 -47 0
-6682 6507 0
-6682 39 0
6682 -6507 -39 0
-6683 6513 0
-6683 87 0
6683 -6513 -87 0
-6684 6515 0
-6684 88 0
6684 -6515 -88 0
-6685 6517 0
-6685 92 0
6685 -6517 -92 0
-6686 6519 0
-6686 135 0
6686 -6519 -135 0
-6687 6521 0
-6687 183 0
6687 -6521 -183 0
-6688 6671 6672 0
-6688 -6671 -6672 0
6688 -6671 6672 0
6688 6671 -6672 0
-6689 6688 6673 0
-6689 -6688 -6673 0
6689 -6688 6673 0
6689 6688 -6673 0
-6690 6689 6674 0
-6690 -6689 -6674 0
6690 -6689 6674 0
6690 6689 -6674 0
-6691 6690 6675 0
-6691 -6690 -6675 0
6691 -6690 6675 0
6691 6690 -6675 0
-6692 6691 6676 0
-6692 -6691 -6676 0
6692 -6691 6676 0
6692 6691 -6676 0
-6693 6692 6677 0
-6693 -6692 -6677 0
6693 -6692 6677 0
6693 6692 -6677 0
-6694 6693 6678 0
-6694 -6693 -6678 0
6694 -6693 6678 0
6694 6693 -6678 0
-6695 6694 6679 0
-6695 -6694 -6679 0
6695 -6694 6679 0
6695 6694 -6679 0
-6696 6695 6680 0
-6696 -6695 -6680 0
6696 -6695 6680 0
6696 6695 -6680 0
-6697 6696 6681 0
-6697 -6696 -6681 0
6697 -6696 6681 0
6697 6696 -6681 0
-6698 6697 6682 0
-6698 -6697 -6682 0
6698 -6697 6682 0
6698 6697 -6682 0
-6699 6698 6683 0
-6699 -6698 -6683 0
6699 -6698 6683 0
6699 6698 -6683 0
-6700 6699 6684 0
-6700 -6699 -6684 0
6700 -6699 6684 0
6700 6699 -6684 0
-6701 6700 6685 0
-6701 -6700 -6685 0
6701 -6700 6685 0
6701 6700 -6685 0
-6702 6701 6686 0
-6702 -6701 -6686 0
6702 -6701 6686 0
6702 6701 -6686 0
-6703 6702 6687 0
-6703 -6702 -6687 0
6703 -6702 6687 0
6703 6702 -6687 0
-6703 0
-6704 6501 0
-6704 40 0
6704 -6501 -40 0
-6705 6503 0
-6705 46 0
6705 -6503 -46 0
-6706 6505 0
-6706 39 0
6706 -6505 -39 0
-6707 6507 0
-6707 47 0
6707 -6507 -47 0
-6708 6509 0
-6708 42 0
6708 -6509 -42 0
-6709 6511 0
-6709 44 0
6709 -6511 -44 0
-6710 6513 0
-6710 88 0
6710 -6513 -88 0
-6711 6515 0
-6711 87 0
6711 -6515 -87 0
-6712 6517 0
-6712 90 0
6712 -6517 -90 0
-6713 6519 0
-6713 136 0
6713 -6519 -136 0
-6714 6521 0
-6714 184 0
6714 -6521 -184 0
-6715 6704 6705 0
-6715 -6704 -6705 0
6715 -6704 6705 0
6715 6704 -6705 0
-6716 6715 6706 0
-6716 -6715 -6706 0
6716 -6715 6706 0
6716 6715 -6706 0
-6717 6716 6707 0
-6717 -6716 -6707 0
6717 -6716 6707 0
6717 6716 -6707 0
-6718 6717 6708 0
-6718 -6717 -6708 0
6718 -6717 6708 0
6718 6717 -6708 0
-6719 6718 6709 0
-6719 -6718 -6709 0
6719 -6718 6709 0
6719 6718 -6709 0
-6720 6719 6705 0
-6720 -6719 -6705 0
6720 -6719 6705 0
6720 6719 -6705 0
-6721 6720 6704 0
-6721 -6720 -6704 0
6721 -6720 6704 0
6721 6720 -6704 0
-6722 6721 6708 0
-6722 -6721 -6708 0
6722 -6721 6708 0
6722 6721 -6708 0
-6723 6722 6709 0
-6723 -6722 -6709 0
6723 -6722 6709 0
6723 6722 -6709 0
-6724 6723 6706 0
-6724 -6723 -6706 0
6724 -6723 6706 0
6724 6723 -6706 0
-6725 6724 6707 0
-6725 -6724 -6707 0
6725 -6724 6707 0
6725 6724 -6707 0
-6726 6725 6710 0
-6726 -6725 -6710 0
6726 -6725 6710 0
6726 6725 -6710 0
-6727 6726 6711 0
-6727 -6726 -6711 0
6727 -6726 6711 0
6727 6726 -6711 0
-6728 6727 6712 0
-6728 -6727 -6712 0
6728 -6727 6712 0
6728 6727 -6712 0
-6729 6728 6713 0
-6729 -6728 -6713 0
6729 -6728 6713 0
6729 6728 -6713 0
-6730 6729 6714 0
-6730 -6729 -6714 0
6730 -6729 6714 0
6730 6729 -6714 0
-6730 0
-6731 6501 0
-6731 42 0
6731 -6501 -42 0
-6732 6503 0
-6732 44 0
6732 -6503 -44 0
-6733 6505 0
-6733 46 0
6733 -6505 -46 0
-6734 6507 0
-6734 40 0
6734 -6507 -40 0
-6735 6509 0
-6735 47 0
6735 -6509 -47 0
-6736 6511 0
-6736 39 0
6736 -6511 -39 0
-6737 6503 0
-6737 39 0
6737 -6503 -39 0
-6738 6501 0
-6738 47 0
6738 -6501 -47 0
-6739 6509 0
-6739 40 0
6739 -6509 -40 0
-6740 6511 0
-6740 46 0
6740 -6511 -46 0
-6741 6505 0
-6741 44 0
6741 -6505 -44 0
-6742 6507 0
-6742 42 0
6742 -6507 -42 0
-6743 6513 0
-6743 90 0
6743 -6513 -90 0
-6744 6515 0
-6744 94 0
6744 -6515 -94 0
-6745 6517 0
-6745 95 0
6745 -6517 -95 0
-6746 6519 0
-6746 138 0
6746 -6519 -138 0
-6747 6521 0
-6747 186 0
6747 -6521 -186 0
-6748 6731 6732 0
-6748 -6731 -6732 0
6748 -6731 6732 0
6748 6731 -6732 0
-6749 6748 6733 0
-6749 -6748 -6733 0
6749 -6748 6733 0
6749 6748 -6733 0
-6750 6749 6734 0
-6750 -6749 -6734 0
6750 -6749 6734 0
6750 6749 -6734 0
-6751 6750 6735 0
-6751 -6750 -6735 0
6751 -6750 6735 0
6751 6750 -6735 0
-6752 6751 6736 0
-6752 -6751 -6736 0
6752 -6751 6736 0
6752 6751 -6736 0
-6753 6752 6737 0
-6753 -6752 -6737 0
6753 -6752 6737 0
6753 6752 -6737 0
-6754 6753 6738 0
-6754 -6753 -6738 0
6754 -6753 6738 0
6754 6753 -6738 0
-6755 6754 6739 0
-6755 -6754 -6739 0
6755 -6754 6739 0
6755 6754 -6739 0
-6756 6755 6740 0
-6756 -6755 -6740 0
6756 -6755 6740 0
6756 6755 -6740 0
-6757 6756 6741 0
-6757 -6756 -6741 0
6757 -6756 6741 0
6757 6756 -6741 0
-6758 6757 6742 0
-6758 -6757 -6742 0
6758 -6757 6742 0
6758 6757 -6742 0
-6759 6758 6743 0
-6759 -6758 -6743 0
6759 -6758 6743 0
6759 6758 -6743 0
-6760 6759 6744 0
-6760 -6759 -6744 0
6760 -6759 6744 0
6760 6759 -6744 0
-6761 6760 6745 0
-6761 -6760 -6745 0
6761 -6760 6745 0
6761 6760 -6745 0
-6762 6761 6746 0
-6762 -6761 -6746 0
6762 -6761 6746 0
6762 6761 -6746 0
-6763 6762 6747 0
-6763 -6762 -6747 0
6763 -6762 6747 0
6763 6762 -6747 0
6763 0
-6764 6501 0
-6764 43 0
6764 -6501 -43 0
-6765 6503 0
-6765 43 0
6765 -6503 -43 0
-6766 6505 0
-6766 48 0
6766 -6505 -48 0
-6767 6507 0
-6767 38 0
6767 -6507 -38 0
-6768 6509 0
-6768 48 0
6768 -6509 -48 0
-6769 6511 0
-6769 38 0
6769 -6511 -38 0
-6770 6513 0
-6770 91 0
6770 -6513 -91 0
-6771 6515 0
-6771 96 0
6771 -6515 -96 0
-6772 6517 0
-6772 96 0
6772 -6517 -96 0
-6773 6519 0
-6773 139 0
6773 -6519 -139 0
-6774 6521 0
-6774 187 0
6774 -6521 -187 0
-6775 6764 6765 0
-6775 -6764 -6765 0
6775 -6764 6765 0
6775 6764 -6765 0
-6776 6775 6766 0
-6776 -6775 -6766 0
6776 -6775 6766 0
6776 6775 -6766 0
-6777 6776 6767 0
-6777 -6776 -6767 0
6777 -6776 6767 0
6777 6776 -6767 0
-6778 6777 6768 0
-6778 -6777 -6768 0
6778 -6777 6768 0
6778 6777 -6768 0
-6779 6778 6769 0
-6779 -6778 -6769 0
6779 -6778 6769 0
6779 6778 -6769 0
-6780 6779 6765 0
-6780 -6779 -6765 0
6780 -6779 6765 0
6780 6779 -6765 0
-6781 6780 6764 0
-6781 -6780 -6764 0
6781 -6780 6764 0
6781 6780 -6764 0
-6782 6781 6768 0
-6782 -6781 -6768 0
6782 -6781 6768 0
6782 6781 -6768 0
-6783 6782 6769 0
-6783 -6782 -6769 0
6783 -6782 6769 0
6783 6782 -6769 0
-6784 6783 6766 0
-6784 -6783 -6766 0
6784 -6783 6766 0
6784 6783 -6766 0
-6785 6784 6767 0
-6785 -6784 -6767 0
6785 -6784 6767 0
6785 6784 -6767 0
-6786 6785 6770 0
-6786 -6785 -6770 0
6786 -6785 6770 0
6786 6785 -6770 0
-6787 6786 6771 0
-6787 -6786 -6771 0
6787 -6786 6771 0
6787 6786 -6771 0
-6788 6787 6772 0
-6788 -6787 -6772 0
6788 -6787 6772 0
6788 6787 -6772 0
-6789 6788 6773 0
-6789 -6788 -6773 0
6789 -6788 6773 0
6789 6788 -6773 0
-6790 6789 6774 0
-6790 -6789 -6774 0
6790 -6789 6774 0
6790 6789 -6774 0
-6790 0
-6791 6501 0
-6791 46 0
6791 -6501 -46 0
-6792 6503 0
-6792 40 0
6792 -6503 -40 0
-6793 6505 0
-6793 42 0
6793 -6505 -42 0
-6794 6507 0
-6794 44 0
6794 -6507 -44 0
-6795 6509 0
-6795 39 0
6795 -6509 -39 0
-6796 6511 0
-6796 47 0
6796 -6511 -47 0
-6797 6513 0
-6797 94 0
6797 -6513 -94 0
-6798 6515 0
-6798 90 0
6798 -6515 -90 0
-6799 6517 0
-6799 87 0
6799 -6517 -87 0
-6800 6519 0
-6800 142 0
6800 -6519 -142 0
-6801 6521 0
-6801 190 0
6801 -6521 -190 0
-6802 6791 6792 0
-6802 -6791 -6792 0
6802 -6791 6792 0
6802 6791 -6792 0
-6803 6802 6793 0
-6803 -6802 -6793 0
6803 -6802 6793 0
6803 6802 -6793 0
-6804 6803 6794 0
-6804 -6803 -6794 0
6804 -6803 6794 0
6804 6803 -6794 0
-6805 6804 6795 0
-6805 -6804 -6795 0
6805 -6804 6795 0
6805 6804 -6795 0
-6806 6805 6796 0
-6806 -6805 -6796 0
6806 -6805 6796 0
6806 6805 -6796 0
-6807 6806 6792 0
-6807 -6806 -6792 0
6807 -6806 6792 0
6807 6806 -6792 0
-6808 6807 6791 0
-6808 -6807 -6791 0
6808 -6807 6791 0
6808 6807 -6791 0
-6809 6808 6795 0
-6809 -6808 -6795 0
6809 -6808 6795 0
6809 6808 -6795 0
-6810 6809 6796 0
-6810 -6809 -6796 0
6810 -6809 6796 0
6810 6809 -6796 0
-6811 6810 6793 0
-6811 -6810 -6793 0
6811 -6810 6793 0
6811 6810 -6793 0
-6812 6811 6794 0
-6812 -6811 -6794 0
6812 -6811 6794 0
6812 6811 -6794 0
-6813 6812 6797 0
-6813 -6812 -6797 0
6813 -6812 6797 0
6813 6812 -6797 0
-6814 6813 6798 0
-6814 -6813 -6798 0
6814 -6813 6798 0
6814 6813 -6798 0
-6815 6814 6799 0
-6815 -6814 -6799 0
6815 -6814 6799 0
6815 6814 -6799 0
-6816 6815 6800 0
-6816 -6815 -6800 0
6816 -6815 6800 0
6816 6815 -6800 0
-6817 6816 6801 0
-6817 -6816 -6801 0
6817 -6816 6801 0
6817 6816 -6801 0
-6817 0
-6818 5 0
-6818 22 0
6818 -5 -22 0
-6819 6818 0
-6819 33 0
6819 -6818 -33 0
-6820 13 0
-6820 28 0
6820 -13 -28 0
-6821 6820 0
-6821 33 0
6821 -6820 -33 0
-6822 6 0
-6822 18 0
6822 -6 -18 0
-6823 6822 0
-6823 33 0
6823 -6822 -33 0
-6824 15 0
-6824 20 0
6824 -15 -20 0
-6825 6824 0
-6825 33 0
6825 -6824 -33 0
-6826 10 0
-6826 27 0
6826 -10 -27 0
-6827 6826 0
-6827 33 0
6827 -6826 -33 0
-6828 11 0
-6828 23 0
6828 -11 -23 0
-6829 6828 0
-6829 33 0
6829 -6828 -33 0
-6830 53 0
-6830 70 0
6830 -53 -70 0
-6831 6830 0
-6831 81 0
6831 -6830 -81 0
-6832 54 0
-6832 66 0
6832 -54 -66 0
-6833 6832 0
-6833 81 0
6833 -6832 -81 0
-6834 58 0
-6834 75 0
6834 -58 -75 0
-6835 6834 0
-6835 81 0
6835 -6834 -81 0
-6836 101 0
-6836 118 0
6836 -101 -118 0
-6837 6836 0
-6837 129 0
6837 -6836 -129 0
-6838 149 0
-6838 166 0
6838 -149 -166 0
-6839 6838 0
-6839 177 0
6839 -6838 -177 0
-6840 6819 6821 0
-6840 -6819 -6821 0
6840 -6819 6821 0
6840 6819 -6821 0
-6841 6840 6823 0
-6841 -6840 -6823 0
6841 -6840 6823 0
6841 6840 -6823 0
-6842 6841 6825 0
-6842 -6841 -6825 0
6842 -6841 6825 0
6842 6841 -6825 0
-6843 6842 6827 0
-6843 -6842 -6827 0
6843 -6842 6827 0
6843 6842 -6827 0
-6844 6843 6829 0
-6844 -6843 -6829 0
6844 -6843 6829 0
6844 6843 -6829 0
-6845 6844 6823 0
-6845 -6844 -6823 0
6845 -6844 6823 0
6845 6844 -6823 0
-6846 6845 6825 0
-6846 -6845 -6825 0
6846 -6845 6825 0
6846 6845 -6825 0
-6847 6846 6819 0
-6847 -6846 -6819 0
6847 -6846 6819 0
6847 6846 -6819 0
-6848 6847 6821 0
-6848 -6847 -6821 0
6848 -6847 6821 0
6848 6847 -6821 0
-6849 6848 6829 0
-6849 -6848 -6829 0
6849 -6848 6829 0
6849 6848 -6829 0
-6850 6849 6827 0
-6850 -6849 -6827 0
6850 -6849 6827 0
6850 6849 -6827 0
-6851 6850 6831 0
-6851 -6850 -6831 0
6851 -6850 6831 0
6851 6850 -6831 0
-6852 6851 6833 0
-6852 -6851 -6833 0
6852 -6851 6833 0
6852 6851 -6833 0
-6853 6852 6835 0
-6853 -6852 -6835 0
6853 -6852 6835 0
6853 6852 -6835 0
-6854 6853 6837 0
-6854 -6853 -6837 0
6854 -6853 6837 0
6854 6853 -6837 0
-6855 6854 6839 0
-6855 -6854 -6839 0
6855 -6854 6839 0
6855 6854 -6839 0
-6855 0
-6856 6818 0
-6856 34 0
6856 -6818 -34 0
-6857 6820 0
-6857 36 0
6857 -6820 -36 0
-6858 6822 0
-6858 34 0
6858 -6822 -34 0
-6859 6824 0
-6859 36 0
6859 -6824 -36 0
-6860 6826 0
-6860 35 0
6860 -6826 -35 0
-6861 6828 0
-6861 35 0
6861 -6828 -35 0
-6862 6822 0
-6862 37 0
6862 -6822 -37 0
-6863 6824 0
-6863 45 0
6863 -6824 -45 0
-6864 6818 0
-6864 37 0
6864 -6818 -37 0
-6865 6820 0
-6865 45 0
6865 -6820 -45 0
-6866 6828 0
-6866 41 0
6866 -6828 -41 0
-6867 6826 0
-6867 41 0
6867 -6826 -41 0
-6868 6830 0
-6868 82 0
6868 -6830 -82 0
-6869 6832 0
-6869 82 0
6869 -6832 -82 0
-6870 6834 0
-6870 83 0
6870 -6834 -83 0
-6871 6836 0
-6871 130 0
6871 -6836 -130 0
-6872 6838 0
-6872 178 0
6872 -6838 -178 0
-6873 6856 6857 0
-6873 -6856 -6857 0
6873 -6856 6857 0
6873 6856 -6857 0
-6874 6873 6858 0
-6874 -6873 -6858 0
6874 -6873 6858 0
6874 6873 -6858 0
-6875 6874 6859 0
-6875 -6874 -6859 0
6875 -6874 6859 0
6875 6874 -6859 0
-6876 6875 6860 0
-6876 -6875 -6860 0
6876 -6875 6860 0
6876 6875 -6860 0
-6877 6876 6861 0
-6877 -6876 -6861 0
6877 -6876 6861 0
6877 6876 -6861 0
-6878 6877 6862 0
-6878 -6877 -6862 0
6878 -6877 6862 0
6878 6877 -6862 0
-6879 6878 6863 0
-6879 -6878 -6863 0
6879 -6878 6863 0
6879 6878 -6863 0
-6880 6879 6864 0
-6880 -6879 -6864 0
6880 -6879 6864 0
6880 6879 -6864 0
-6881 6880 6865 0
-6881 -6880 -6865 0
6881 -6880 6865 0
6881 6880 -6865 0
-6882 6881 6866 0
-6882 -6881 -6866 0
6882 -6881 6866 0
6882 6881 -6866 0
-6883 6882 6867 0
-6883 -6882 -6867 0
6883 -6882 6867 0
6883 6882 -6867 0
-6884 6883 6868 0
-6884 -6883 -6868 0
6884 -6883 6868 0
6884 6883 -6868 0
-6885 6884 6869 0
-6885 -6884 -6869 0
6885 -6884 6869 0
6885 6884 -6869 0
-6886 6885 6870 0
-6886 -6885 -6870 0
6886 -6885 6870 0
6886 6885 -6870 0
-6887 6886 6871 0
-6887 -6886 -6871 0
6887 -6886 6871 0
6887 6886 -6871 0
-6888 6887 6872 0
-6888 -6887 -6872 0
6888 -6887 6872 0
6888 6887 -6872 0
-6888 0
-6889 6818 0
-6889 35 0
6889 -6818 -35 0
-6890 6820 0
-6890 35 0
6890 -6820 -35 0
-6891 6822 0
-6891 36 0
6891 -6822 -36 0
-6892 6824 0
-6892 34 0
6892 -6824 -34 0
-6893 6826 0
-6893 36 0
6893 -6826 -36 0
-6894 6828 0
-6894 34 0
6894 -6828 -34 0
-6895 6822 0
-6895 41 0
6895 -6822 -41 0
-6896 6824 0
-6896 41 0
6896 -6824 -41 0
-6897 6818 0
-6897 45 0
6897 -6818 -45 0
-6898 6820 0
-6898 37 0
6898 -6820 -37 0
-6899 6828 0
-6899 45 0
6899 -6828 -45 0
-6900 6826 0
-6900 37 0
6900 -6826 -37 0
-6901 6830 0
-6901 83 0
6901 -6830 -83 0
-6902 6832 0
-6902 84 0
6902 -6832 -84 0
-6903 6834 0
-6903 84 0
6903 -6834 -84 0
-6904 6836 0
-6904 131 0
6904 -6836 -131 0
-6905 6838 0
-6905 179 0
6905 -6838 -179 0
-6906 6889 6890 0
-6906 -6889 -6890 0
6906 -6889 6890 0
6906 6889 -6890 0
-6907 6906 6891 0
-6907 -6906 -6891 0
6907 -6906 6891 0
6907 6906 -6891 0
-6908 6907 6892 0
-6908 -6907 -6892 0
6908 -6907 6892 0
6908 6907 -6892 0
-6909 6908 6893 0
-6909 -6908 -6893 0
6909 -6908 6893 0
6909 6908 -6893 0
-6910 6909 6894 0
-6910 -6909 -6894 0
6910 -6909 6894 0
6910 6909 -6894 0
-6911 6910 6895 0
-6911 -6910 -6895 0
6911 -6910 6895 0
6911 6910 -6895 0
-6912 6911 6896 0
-6912 -6911 -6896 0
6912 -6911 6896 0
6912 6911 -6896 0
-6913 6912 6897 0
-6913 -6912 -6897 0
6913 -6912 6897 0
6913 6912 -6897 0
-6914 6913 6898 0
-6914 -6913 -6898 0
6914 -6913 6898 0
6914 6913 -6898 0
-6915 6914 6899 0
-6915 -6914 -6899 0
6915 -6914 6899 0
6915 6914 -6899 0
-6916 6915 6900 0
-6916 -6915 -6900 0
6916 -6915 6900 0
6916 6915 -6900 0
-6917 6916 6901 0
-6917 -6916 -6901 0
6917 -6916 6901 0
6917 6916 -6901 0
-6918 6917 6902 0
-6918 -6917 -6902 0
6918 -6917 6902 0
6918 6917 -6902 0
-6919 6918 6903 0
-6919 -6918 -6903 0
6919 -6918 6903 0
6919 6918 -6903 0
-6920 6919 6904 0
-6920 -6919 -6904 0
6920 -6919 6904 0
6920 6919 -6904 0
-6921 6920 6905 0
-6921 -6920 -6905 0
6921 -6920 6905 0
6921 6920 -6905 0
-6921 0
-6922 6818 0
-6922 36 0
6922 -6818 -36 0
-6923 6820 0
-6923 34 0
6923 -6820 -34 0
-6924 6822 0
-6924 35 0
6924 -6822 -35 0
-6925 6824 0
-6925 35 0
6925 -6824 -35 0
-6926 6826 0
-6926 34 0
6926 -6826 -34 0
-6927 6828 0
-6927 36 0
6927 -6828 -36 0
-6928 6822 0
-6928 45 0
6928 -6822 -45 0
-6929 6824 0
-6929 37 0
6929 -6824 -37 0
-6930 6818 0
-6930 41 0
6930 -6818 -41 0
-6931 6820 0
-6931 41 0
6931 -6820 -41 0
-6932 6828 0
-6932 37 0
6932 -6828 -37 0
-6933 6826 0
-6933 45 0
6933 -6826 -45 0
-6934 6830 0
-6934 84 0
6934 -6830 -84 0
-6935 6832 0
-6935 83 0
6935 -6832 -83 0
-6936 6834 0
-6936 82 0
6936 -6834 -82 0
-6937 6836 0
-6937 132 0
6937 -6836 -132 0
-6938 6838 0
-6938 180 0
6938 -6838 -180 0
-6939 6922 6923 0
-6939 -6922 -6923 0
6939 -6922 6923 0
6939 6922 -6923 0
-6940 6939 6924 0
-6940 -6939 -6924 0
6940 -6939 6924 0
6940 6939 -6924 0
-6941 6940 6925 0
-6941 -6940 -6925 0
6941 -6940 6925 0
6941 6940 -6925 0
-6942 6941 6926 0
-6942 -6941 -6926 0
6942 -6941 6926 0
6942 6941 -6926 0
-6943 6942 6927 0
-6943 -6942 -6927 0
6943 -6942 6927 0
6943 6942 -6927 0
-6944 6943 6928 0
-6944 -6943 -6928 0
6944 -6943 6928 0
6944 6943 -6928 0
-6945 6944 6929 0
-6945 -6944 -6929 0
6945 -6944 6929 0
6945 6944 -6929 0
-6946 6945 6930 0
-6946 -6945 -6930 0
6946 -6945 6930 0
6946 6945 -6930 0
-6947 6946 6931 0
-6947 -6946 -6931 0
6947 -6946 6931 0
6947 6946 -6931 0
-6948 6947 6932 0
-6948 -6947 -6932 0
6948 -6947 6932 0
6948 6947 -6932 0
-6949 6948 6933 0
-6949 -6948 -6933 0
6949 -6948 6933 0
6949 6948 -6933 0
-6950 6949 6934 0
-6950 -6949 -6934 0
6950 -6949 6934 0
6950 6949 -6934 0
-6951 6950 6935 0
-6951 -6950 -6935 0
6951 -6950 6935 0
6951 6950 -6935 0
-6952 6951 6936 0
-6952 -6951 -6936 0
6952 -6951 6936 0
6952 6951 -6936 0
-6953 6952 6937 0
-6953 -6952 -6937 0
6953 -6952 6937 0
6953 6952 -6937 0
-6954 6953 6938 0
-6954 -6953 -6938 0
6954 -6953 6938 0
6954 6953 -6938 0
-6954 0
-6955 6818 0
-6955 38 0
6955 -6818 -38 0
-6956 6820 0
-6956 48 0
6956 -6820 -48 0
-6957 6822 0
-6957 38 0
6957 -6822 -38 0
-6958 6824 0
-6958 48 0
6958 -6824 -48 0
-6959 6826 0
-6959 43 0
6959 -6826 -43 0
-6960 6828 0
-6960 43 0
6960 -6828 -43 0
-6961 6830 0
-6961 86 0
6961 -6830 -86 0
-6962 6832 0
-6962 86 0
6962 -6832 -86 0
-6963 6834 0
-6963 91 0
6963 -6834 -91 0
-6964 6836 0
-6964 134 0
6964 -6836 -134 0
-6965 6838 0
-6965 182 0
6965 -6838 -182 0
-6966 6955 6956 0
-6966 -6955 -6956 0
6966 -6955 6956 0
6966 6955 -6956 0
-6967 6966 6957 0
-6967 -6966 -6957 0
6967 -6966 6957 0
6967 6966 -6957 0
-6968 6967 6958 0
-6968 -6967 -6958 0
6968 -6967 6958 0
6968 6967 -6958 0
-6969 6968 6959 0
-6969 -6968 -6959 0
6969 -6968 6959 0
6969 6968 -6959 0
-6970 6969 6960 0
-6970 -6969 -6960 0
6970 -6969 6960 0
6970 6969 -6960 0
-6971 6970 6957 0
-6971 -6970 -6957 0
6971 -6970 6957 0
6971 6970 -6957 0
-6972 6971 6958 0
-6972 -6971 -6958 0
6972 -6971 6958 0
6972 6971 -6958 0
-6973 6972 6955 0
-6973 -6972 -6955 0
6973 -6972 6955 0
6973 6972 -6955 0
-6974 6973 6956 0
-6974 -6973 -6956 0
6974 -6973 6956 0
6974 6973 -6956 0
-6975 6974 6960 0
-6975 -6974 -6960 0
6975 -6974 6960 0
6975 6974 -6960 0
-6976 6975 6959 0
-6976 -6975 -6959 0
6976 -6975 6959 0
6976 6975 -6959 0
-6977 6976 6961 0
-6977 -6976 -6961 0
6977 -6976 6961 0
6977 6976 -6961 0
-6978 6977 6962 0
-6978 -6977 -6962 0
6978 -6977 6962 0
6978 6977 -6962 0
-6979 6978 6963 0
-6979 -6978 -6963 0
6979 -6978 6963 0
6979 6978 -6963 0
-6980 6979 6964 0
-6980 -6979 -6964 0
6980 -6979 6964 0
6980 6979 -6964 0
-6981 6980 6965 0
-6981 -6980 -6965 0
6981 -6980 6965 0
6981 6980 -6965 0
-6981 0
-6982 6818 0
-6982 39 0
6982 -6818 -39 0
-6983 6820 0
-6983 47 0
6983 -6820 -47 0
-6984 6822 0
-6984 40 0
6984 -6822 -40 0
-6985 6824 0
-6985 46 0
6985 -6824 -46 0
-6986 6826 0
-6986 44 0
6986 -6826 -44 0
-6987 6828 0
-6987 42 0
6987 -6828 -42 0
-6988 6822 0
-6988 42 0
6988 -6822 -42 0
-6989 6824 0
-6989 44 0
6989 -6824 -44 0
-6990 6818 0
-6990 46 0
6990 -6818 -46 0
-6991 6820 0
-6991 40 0
6991 -6820 -40 0
-6992 6828 0
-6992 47 0
6992 -6828 -47 0
-6993 6826 0
-6993 39 0
6993 -6826 -39 0
-6994 6830 0
-6994 87 0
6994 -6830 -87 0
-6995 6832 0
-6995 88 0
6995 -6832 -88 0
-6996 6834 0
-6996 92 0
6996 -6834 -92 0
-6997 6836 0
-6997 135 0
6997 -6836 -135 0
-6998 6838 0
-6998 183 0
6998 -6838 -183 0
-6999 6982 6983 0
-6999 -6982 -6983 0
6999 -6982 6983 0
6999 6982 -6983 0
-7000 6999 6984 0
-7000 -6999 -6984 0
7000 -6999 6984 0
7000 6999 -6984 0
-7001 7000 6985 0
-7001 -7000 -6985 0
7001 -7000 6985 0
7001 7000 -6985 0
-7002 7001 6986 0
-7002 -7001 -6986 0
7002 -7001 6986 0
7002 7001 -6986 0
-7003 7002 6987 0
-7003 -7002 -6987 0
7003 -7002 6987 0
7003 7002 -6987 0
-7004 7003 6988 0
-7004 -7003 -6988 0
7004 -7003 6988 0
7004 7003 -6988 0
-7005 7004 6989 0
-7005 -7004 -6989 0
7005 -7004 6989 0
7005 7004 -6989 0
-7006 7005 6990 0
-7006 -7005 -6990 0
7006 -7005 6990 0
7006 7005 -6990 0
-7007 7006 6991 0
-7007 -7006 -6991 0
7007 -7006 6991 0
7007 7006 -6991 0
-7008 7007 6992 0
-7008 -7007 -6992 0
7008 -7007 6992 0
7008 7007 -6992 0
-7009 7008 6993 0
-7009 -7008 -6993 0
7009 -7008 6993 0
7009 7008 -6993 0
-7010 7009 6994 0
-7010 -7009 -6994 0
7010 -7009 6994 0
7010 7009 -6994 0
-7011 7010 6995 0
-7011 -7010 -6995 0
7011 -7010 6995 0
7011 7010 -6995 0
-7012 7011 6996 0
-7012 -7011 -6996 0
7012 -7011 6996 0
7012 7011 -6996 0
-7013 7012 6997 0
-7013 -7012 -6997 0
7013 -7012 6997 0
7013 7012 -6997 0
-7014 7013 6998 0
-7014 -7013 -6998 0
7014 -7013 6998 0
7014 7013 -6998 0
-7014 0
-7015 6818 0
-7015 40 0
7015 -6818 -40 0
-7016 6820 0
-7016 46 0
7016 -6820 -46 0
-7017 6822 0
-7017 39 0
7017 -6822 -39 0
-7018 6824 0
-7018 47 0
7018 -6824 -47 0
-7019 6826 0
-7019 42 0
7019 -6826 -42 0
-7020 6828 0
-7020 44 0
7020 -6828 -44 0
-7021 6822 0
-7021 46 0
7021 -6822 -46 0
-7022 6824 0
-7022 40 0
7022 -6824 -40 0
-7023 6818 0
-7023 42 0
7023 -6818 -42 0
-7024 6820 0
-7024 44 0
7024 -6820 -44 0
-7025 6828 0
-7025 39 0
7025 -6828 -39 0
-7026 6826 0
-7026 47 0
7026 -6826 -47 0
-7027 6830 0
-7027 88 0
7027 -6830 -88 0
-7028 6832 0
-7028 87 0
7028 -6832 -87 0
-7029 6834 0
-7029 90 0
7029 -6834 -90 0
-7030 6836 0
-7030 136 0
7030 -6836 -136 0
-7031 6838 0
-7031 184 0
7031 -6838 -184 0
-7032 7015 7016 0
-7032 -7015 -7016 0
7032 -7015 7016 0
7032 7015 -7016 0
-7033 7032 7017 0
-7033 -7032 -7017 0
7033 -7032 7017 0
7033 7032 -7017 0
-7034 7033 7018 0
-7034 -7033 -7018 0
7034 -7033 7018 0
7034 7033 -7018 0
-7035 7034 7019 0
-7035 -7034 -7019 0
7035 -7034 7019 0
7035 7034 -7019 0
-7036 7035 7020 0
-7036 -7035 -7020 0
7036 -7035 7020 0
7036 7035 -7020 0
-7037 7036 7021 0
-7037 -7036 -7021 0
7037 -7036 7021 0
7037 7036 -7021 0
-7038 7037 7022 0
-7038 -7037 -7022 0
7038 -7037 7022 0
7038 7037 -7022 0
-7039 7038 7023 0
-7039 -7038 -7023 0
7039 -7038 7023 0
7039 7038 -7023 0
-7040 7039 7024 0
-7040 -7039 -7024 0
7040 -7039 7024 0
7040 7039 -7024 0
-7041 7040 7025 0
-7041 -7040 -7025 0
7041 -7040 7025 0
7041 7040 -7025 0
-7042 7041 7026 0
-7042 -7041 -7026 0
7042 -7041 7026 0
7042 7041 -7026 0
-7043 7042 7027 0
-7043 -7042 -7027 0
7043 -7042 7027 0
7043 7042 -7027 0
-7044 7043 7028 0
-7044 -7043 -7028 0
7044 -7043 7028 0
7044 7043 -7028 0
-7045 7044 7029 0
-7045 -7044 -7029 0
7045 -7044 7029 0
7045 7044 -7029 0
-7046 7045 7030 0
-7046 -7045 -7030 0
7046 -7045 7030 0
7046 7045 -7030 0
-7047 7046 7031 0
-7047 -7046 -7031 0
7047 -7046 7031 0
7047 7046 -7031 0
-7047 0
-7048 6818 0
-7048 43 0
7048 -6818 -43 0
-7049 6820 0
-7049 43 0
7049 -6820 -43 0
-7050 6822 0
-7050 48 0
7050 -6822 -48 0
-7051 6824 0
-7051 38 0
7051 -6824 -38 0
-7052 6826 0
-7052 48 0
7052 -6826 -48 0
-7053 6828 0
-7053 38 0
7053 -6828 -38 0
-7054 6822 0
-7054 43 0
7054 -6822 -43 0
-7055 6824 0
-7055 43 0
7055 -6824 -43 0
-7056 6818 0
-7056 48 0
7056 -6818 -48 0
-7057 6820 0
-7057 38 0
7057 -6820 -38 0
-7058 6828 0
-7058 48 0
7058 -6828 -48 0
-7059 6826 0
-7059 38 0
7059 -6826 -38 0
-7060 6830 0
-7060 91 0
7060 -6830 -91 0
-7061 6832 0
-7061 96 0
7061 -6832 -96 0
-7062 6834 0
-7062 96 0
7062 -6834 -96 0
-7063 6836 0
-7063 139 0
7063 -6836 -139 0
-7064 6838 0
-7064 187 0
7064 -6838 -187 0
-7065 7048 7049 0
-7065 -7048 -7049 0
7065 -7048 7049 0
7065 7048 -7049 0
-7066 7065 7050 0
-7066 -7065 -7050 0
7066 -7065 7050 0
7066 7065 -7050 0
-7067 7066 7051 0
-7067 -7066 -7051 0
7067 -7066 7051 0
7067 7066 -7051 0
-7068 7067 7052 0
-7068 -7067 -7052 0
7068 -7067 7052 0
7068 7067 -7052 0
-7069 7068 7053 0
-7069 -7068 -7053 0
7069 -7068 7053 0
7069 7068 -7053 0
-7070 7069 7054 0
-7070 -7069 -7054 0
7070 -7069 7054 0
7070 7069 -7054 0
-7071 7070 7055 0
-7071 -7070 -7055 0
7071 -7070 7055 0
7071 7070 -7055 0
-7072 7071 7056 0
-7072 -7071 -7056 0
7072 -7071 7056 0
7072 7071 -7056 0
-7073 7072 7057 0
-7073 -7072 -7057 0
7073 -7072 7057 0
7073 7072 -7057 0
-7074 7073 7058 0
-7074 -7073 -7058 0
7074 -7073 7058 0
7074 7073 -7058 0
-7075 7074 7059 0
-7075 -7074 -7059 0
7075 -7074 7059 0
7075 7074 -7059 0
-7076 7075 7060 0
-7076 -7075 -7060 0
7076 -7075 7060 0
7076 7075 -7060 0
-7077 7076 7061 0
-7077 -7076 -7061 0
7077 -7076 7061 0
7077 7076 -7061 0
-7078 7077 7062 0
-7078 -7077 -7062 0
7078 -7077 7062 0
7078 7077 -7062 0
-7079 7078 7063 0
-7079 -7078 -7063 0
7079 -7078 7063 0
7079 7078 -7063 0
-7080 7079 7064 0
-7080 -7079 -7064 0
7080 -7079 7064 0
7080 7079 -7064 0
-7080 0
-7081 6818 0
-7081 44 0
7081 -6818 -44 0
-7082 6820 0
-7082 42 0
7082 -6820 -42 0
-7083 6822 0
-7083 47 0
7083 -6822 -47 0
-7084 6824 0
-7084 39 0
7084 -6824 -39 0
-7085 6826 0
-7085 46 0
7085 -6826 -46 0
-7086 6828 0
-7086 40 0
7086 -6828 -40 0
-7087 6830 0
-7087 92 0
7087 -6830 -92 0
-7088 6832 0
-7088 95 0
7088 -6832 -95 0
-7089 6834 0
-7089 94 0
7089 -6834 -94 0
-7090 6836 0
-7090 140 0
7090 -6836 -140 0
-7091 6838 0
-7091 188 0
7091 -6838 -188 0
-7092 7081 7082 0
-7092 -7081 -7082 0
7092 -7081 7082 0
7092 7081 -7082 0
-7093 7092 7083 0
-7093 -7092 -7083 0
7093 -7092 7083 0
7093 7092 -7083 0
-7094 7093 7084 0
-7094 -7093 -7084 0
7094 -7093 7084 0
7094 7093 -7084 0
-7095 7094 7085 0
-7095 -7094 -7085 0
7095 -7094 7085 0
7095 7094 -7085 0
-7096 7095 7086 0
-7096 -7095 -7086 0
7096 -7095 7086 0
7096 7095 -7086 0
-7097 7096 7083 0
-7097 -7096 -7083 0
7097 -7096 7083 0
7097 7096 -7083 0
-7098 7097 7084 0
-7098 -7097 -7084 0
7098 -7097 7084 0
7098 7097 -7084 0
-7099 7098 7081 0
-7099 -7098 -7081 0
7099 -7098 7081 0
7099 7098 -7081 0
-7100 7099 7082 0
-7100 -7099 -7082 0
7100 -7099 7082 0
7100 7099 -7082 0
-7101 7100 7086 0
-7101 -7100 -7086 0
7101 -7100 7086 0
7101 7100 -7086 0
-7102 7101 7085 0
-7102 -7101 -7085 0
7102 -7101 7085 0
7102 7101 -7085 0
-7103 7102 7087 0
-7103 -7102 -7087 0
7103 -7102 7087 0
7103 7102 -7087 0
-7104 7103 7088 0
-7104 -7103 -7088 0
7104 -7103 7088 0
7104 7103 -7088 0
-7105 7104 7089 0
-7105 -7104 -7089 0
7105 -7104 7089 0
7105 7104 -7089 0
-7106 7105 7090 0
-7106 -7105 -7090 0
7106 -7105 7090 0
7106 7105 -7090 0
-7107 7106 7091 0
-7107 -7106 -7091 0
7107 -7106 7091 0
7107 7106 -7091 0
-7107 0
-7108 6818 0
-7108 47 0
7108 -6818 -47 0
-7109 6820 0
-7109 39 0
7109 -6820 -39 0
-7110 6822 0
-7110 44 0
7110 -6822 -44 0
-7111 6824 0
-7111 42 0
7111 -6824 -42 0
-7112 6826 0
-7112 40 0
7112 -6826 -40 0
-7113 6828 0
-7113 46 0
7113 -6828 -46 0
-7114 6830 0
-7114 95 0
7114 -6830 -95 0
-7115 6832 0
-7115 92 0
7115 -6832 -92 0
-7116 6834 0
-7116 88 0
7116 -6834 -88 0
-7117 6836 0
-7117 143 0
7117 -6836 -143 0
-7118 6838 0
-7118 191 0
7118 -6838 -191 0
-7119 7108 7109 0
-7119 -7108 -7109 0
7119 -7108 7109 0
7119 7108 -7109 0
-7120 7119 7110 0
-7120 -7119 -7110 0
7120 -7119 7110 0
7120 7119 -7110 0
-7121 7120 7111 0
-7121 -7120 -7111 0
7121 -7120 7111 0
7121 7120 -7111 0
-7122 7121 7112 0
-7122 -7121 -7112 0
7122 -7121 7112 0
7122 7121 -7112 0
-7123 7122 7113 0
-7123 -7122 -7113 0
7123 -7122 7113 0
7123 7122 -7113 0
-7124 7123 7110 0
-7124 -7123 -7110 0
7124 -7123 7110 0
7124 7123 -7110 0
-7125 7124 7111 0
-7125 -7124 -7111 0
7125 -7124 7111 0
7125 7124 -7111 0
-7126 7125 7108 0
-7126 -7125 -7108 0
7126 -7125 7108 0
7126 7125 -7108 0
-7127 7126 7109 0
-7127 -7126 -7109 0
7127 -7126 7109 0
7127 7126 -7109 0
-7128 7127 7113 0
-7128 -7127 -7113 0
7128 -7127 7113 0
7128 7127 -7113 0
-7129 7128 7112 0
-7129 -7128 -7112 0
7129 -7128 7112 0
7129 7128 -7112 0
-7130 7129 7114 0
-7130 -7129 -7114 0
7130 -7129 7114 0
7130 7129 -7114 0
-7131 7130 7115 0
-7131 -7130 -7115 0
7131 -7130 7115 0
7131 7130 -7115 0
-7132 7131 7116 0
-7132 -7131 -7116 0
7132 -7131 7116 0
7132 7131 -7116 0
-7133 7132 7117 0
-7133 -7132 -7117 0
7133 -7132 7117 0
7133 7132 -7117 0
-7134 7133 7118 0
-7134 -7133 -7118 0
7134 -7133 7118 0
7134 7133 -7118 0
-7134 0
-7135 5 0
-7135 23 0
7135 -5 -23 0
-7136 7135 0
-7136 33 0
7136 -7135 -33 0
-7137 13 0
-7137 27 0
7137 -13 -27 0
-7138 7137 0
-7138 33 0
7138 -7137 -33 0
-7139 6 0
-7139 20 0
7139 -6 -20 0
-7140 7139 0
-7140 33 0
7140 -7139 -33 0
-7141 15 0
-7141 18 0
7141 -15 -18 0
-7142 7141 0
-7142 33 0
7142 -7141 -33 0
-7143 10 0
-7143 28 0
7143 -10 -28 0
-7144 7143 0
-7144 33 0
7144 -7143 -33 0
-7145 11 0
-7145 22 0
7145 -11 -22 0
-7146 7145 0
-7146 33 0
7146 -7145 -33 0
-7147 18 0
-7147 10 0
7147 -18 -10 0
-7148 7147 0
-7148 33 0
7148 -7147 -33 0
-7149 20 0
-7149 11 0
7149 -20 -11 0
-7150 7149 0
-7150 33 0
7150 -7149 -33 0
-7151 22 0
-7151 13 0
7151 -22 -13 0
-7152 7151 0
-7152 33 0
7152 -7151 -33 0
-7153 28 0
-7153 5 0
7153 -28 -5 0
-7154 7153 0
-7154 33 0
7154 -7153 -33 0
-7155 23 0
-7155 15 0
7155 -23 -15 0
-7156 7155 0
-7156 33 0
7156 -7155 -33 0
-7157 27 0
-7157 6 0
7157 -27 -6 0
-7158 7157 0
-7158 33 0
7158 -7157 -33 0
-7159 53 0
-7159 71 0
7159 -53 -71 0
-7160 7159 0
-7160 81 0
7160 -7159 -81 0
-7161 54 0
-7161 68 0
7161 -54 -68 0
-7162 7161 0
-7162 81 0
7162 -7161 -81 0
-7163 58 0
-7163 76 0
7163 -58 -76 0
-7164 7163 0
-7164 81 0
7164 -7163 -81 0
-7165 101 0
-7165 119 0
7165 -101 -119 0
-7166 7165 0
-7166 129 0
7166 -7165 -129 0
-7167 149 0
-7167 167 0
7167 -149 -167 0
-7168 7167 0
-7168 177 0
7168 -7167 -177 0
-7169 7136 7138 0
-7169 -7136 -7138 0
7169 -7136 7138 0
7169 7136 -7138 0
-7170 7169 7140 0
-7170 -7169 -7140 0
7170 -7169 7140 0
7170 7169 -7140 0
-7171 7170 7142 0
-7171 -7170 -7142 0
7171 -7170 7142 0
7171 7170 -7142 0
-7172 7171 7144 0
-7172 -7171 -7144 0
7172 -7171 7144 0
7172 7171 -7144 0
-7173 7172 7146 0
-7173 -7172 -7146 0
7173 -7172 7146 0
7173 7172 -7146 0
-7174 7173 7148 0
-7174 -7173 -7148 0
7174 -7173 7148 0
7174 7173 -7148 0
-7175 7174 7150 0
-7175 -7174 -7150 0
7175 -7174 7150 0
7175 7174 -7150 0
-7176 7175 7152 0
-7176 -7175 -7152 0
7176 -7175 7152 0
7176 7175 -7152 0
-7177 7176 7154 0
-7177 -7176 -7154 0
7177 -7176 7154 0
7177 7176 -7154 0
-7178 7177 7156 0
-7178 -7177 -7156 0
7178 -7177 7156 0
7178 7177 -7156 0
-7179 7178 7158 0
-7179 -7178 -7158 0
7179 -7178 7158 0
7179 7178 -7158 0
-7180 7179 7160 0
-7180 -7179 -7160 0
7180 -7179 7160 0
7180 7179 -7160 0
-7181 7180 7162 0
-7181 -7180 -7162 0
7181 -7180 7162 0
7181 7180 -7162 0
-7182 7181 7164 0
-7182 -7181 -7164 0
7182 -7181 7164 0
7182 7181 -7164 0
-7183 7182 7166 0
-7183 -7182 -7166 0
7183 -7182 7166 0
7183 7182 -7166 0
-7184 7183 7168 0
-7184 -7183 -7168 0
7184 -7183 7168 0
7184 7183 -7168 0
-7184 0
-7185 7135 0
-7185 34 0
7185 -7135 -34 0
-7186 7137 0
-7186 36 0
7186 -7137 -36 0
-7187 7139 0
-7187 34 0
7187 -7139 -34 0
-7188 7141 0
-7188 36 0
7188 -7141 -36 0
-7189 7143 0
-7189 35 0
7189 -7143 -35 0
-7190 7145 0
-7190 35 0
7190 -7145 -35 0
-7191 7147 0
-7191 37 0
7191 -7147 -37 0
-7192 7149 0
-7192 45 0
7192 -7149 -45 0
-7193 7151 0
-7193 37 0
7193 -7151 -37 0
-7194 7153 0
-7194 45 0
7194 -7153 -45 0
-7195 7155 0
-7195 41 0
7195 -7155 -41 0
-7196 7157 0
-7196 41 0
7196 -7157 -41 0
-7197 7159 0
-7197 82 0
7197 -7159 -82 0
-7198 7161 0
-7198 82 0
7198 -7161 -82 0
-7199 7163 0
-7199 83 0
7199 -7163 -83 0
-7200 7165 0
-7200 130 0
7200 -7165 -130 0
-7201 7167 0
-7201 178 0
7201 -7167 -178 0
-7202 7185 7186 0
-7202 -7185 -7186 0
7202 -7185 7186 0
7202 7185 -7186 0
-7203 7202 7187 0
-7203 -7202 -7187 0
7203 -7202 7187 0
7203 7202 -7187 0
-7204 7203 7188 0
-7204 -7203 -7188 0
7204 -7203 7188 0
7204 7203 -7188 0
-7205 7204 7189 0
-7205 -7204 -7189 0
7205 -7204 7189 0
7205 7204 -7189 0
-7206 7205 7190 0
-7206 -7205 -7190 0
7206 -7205 7190 0
7206 7205 -7190 0
-7207 7206 7191 0
-7207 -7206 -7191 0
7207 -7206 7191 0
7207 7206 -7191 0
-7208 7207 7192 0
-7208 -7207 -7192 0
7208 -7207 7192 0
7208 7207 -7192 0
-7209 7208 7193 0
-7209 -7208 -7193 0
7209 -7208 7193 0
7209 7208 -7193 0
-7210 7209 7194 0
-7210 -7209 -7194 0
7210 -7209 7194 0
7210 7209 -7194 0
-7211 7210 7195 0
-7211 -7210 -7195 0
7211 -7210 7195 0
7211 7210 -7195 0
-7212 7211 7196 0
-7212 -7211 -7196 0
7212 -7211 7196 0
7212 7211 -7196 0
-7213 7212 7197 0
-7213 -7212 -7197 0
7213 -7212 7197 0
7213 7212 -7197 0
-7214 7213 7198 0
-7214 -7213 -7198 0
7214 -7213 7198 0
7214 7213 -7198 0
-7215 7214 7199 0
-7215 -7214 -7199 0
7215 -7214 7199 0
7215 7214 -7199 0
-7216 7215 7200 0
-7216 -7215 -7200 0
7216 -7215 7200 0
7216 7215 -7200 0
-7217 7216 7201 0
-7217 -7216 -7201 0
7217 -7216 7201 0
7217 7216 -7201 0
-7217 0
-7218 7135 0
-7218 35 0
7218 -7135 -35 0
-7219 7137 0
-7219 35 0
7219 -7137 -35 0
-7220 7139 0
-7220 36 0
7220 -7139 -36 0
-7221 7141 0
-7221 34 0
7221 -7141 -34 0
-7222 7143 0
-7222 36 0
7222 -7143 -36 0
-7223 7145 0
-7223 34 0
7223 -7145 -34 0
-7224 7147 0
-7224 41 0
7224 -7147 -41 0
-7225 7149 0
-7225 41 0
7225 -7149 -41 0
-7226 7151 0
-7226 45 0
7226 -7151 -45 0
-7227 7153 0
-7227 37 0
7227 -7153 -37 0
-7228 7155 0
-7228 45 0
7228 -7155 -45 0
-7229 7157 0
-7229 37 0
7229 -7157 -37 0
-7230 7159 0
-7230 83 0
7230 -7159 -83 0
-7231 7161 0
-7231 84 0
7231 -7161 -84 0
-7232 7163 0
-7232 84 0
7232 -7163 -84 0
-7233 7165 0
-7233 131 0
7233 -7165 -131 0
-7234 7167 0
-7234 179 0
7234 -7167 -179 0
-7235 7218 7219 0
-7235 -7218 -7219 0
7235 -7218 7219 0
7235 7218 -7219 0
-7236 7235 7220 0
-7236 -7235 -7220 0
7236 -7235 7220 0
7236 7235 -7220 0
-7237 7236 7221 0
-7237 -7236 -7221 0
7237 -7236 7221 0
7237 7236 -7221 0
-7238 7237 7222 0
-7238 -7237 -7222 0
7238 -7237 7222 0
7238 7237 -7222 0
-7239 7238 7223 0
-7239 -7238 -7223 0
7239 -7238 7223 0
7239 7238 -7223 0
-7240 7239 7224 0
-7240 -7239 -7224 0
7240 -7239 7224 0
7240 7239 -7224 0
-7241 7240 7225 0
-7241 -7240 -7225 0
7241 -7240 7225 0
7241 7240 -7225 0
-7242 7241 7226 0
-7242 -7241 -7226 0
7242 -7241 7226 0
7242 7241 -7226 0
-7243 7242 7227 0
-7243 -7242 -7227 0
7243 -7242 7227 0
7243 7242 -7227 0
-7244 7243 7228 0
-7244 -7243 -7228 0
7244 -7243 7228 0
7244 7243 -7228 0
-7245 7244 7229 0
-7245 -7244 -7229 0
7245 -7244 7229 0
7245 7244 -7229 0
-7246 7245 7230 0
-7246 -7245 -7230 0
7246 -7245 7230 0
7246 7245 -7230 0
-7247 7246 7231 0
-7247 -7246 -7231 0
7247 -7246 7231 0
7247 7246 -7231 0
-7248 7247 7232 0
-7248 -7247 -7232 0
7248 -7247 7232 0
7248 7247 -7232 0
-7249 7248 7233 0
-7249 -7248 -7233 0
7249 -7248 7233 0
7249 7248 -7233 0
-7250 7249 7234 0
-7250 -7249 -7234 0
7250 -7249 7234 0
7250 7249 -7234 0
-7250 0
-7251 7135 0
-7251 36 0
7251 -7135 -36 0
-7252 7137 0
-7252 34 0
7252 -7137 -34 0
-7253 7139 0
-7253 35 0
7253 -7139 -35 0
-7254 7141 0
-7254 35 0
7254 -7141 -35 0
-7255 7143 0
-7255 34 0
7255 -7143 -34 0
-7256 7145 0
-7256 36 0
7256 -7145 -36 0
-7257 7147 0
-7257 45 0
7257 -7147 -45 0
-7258 7149 0
-7258 37 0
7258 -7149 -37 0
-7259 7151 0
-7259 41 0
7259 -7151 -41 0
-7260 7153 0
-7260 41 0
7260 -7153 -41 0
-7261 7155 0
-7261 37 0
7261 -7155 -37 0
-7262 7157 0
-7262 45 0
7262 -7157 -45 0
-7263 7159 0
-7263 84 0
7263 -7159 -84 0
-7264 7161 0
-7264 83 0
7264 -7161 -83 0
-7265 7163 0
-7265 82 0
7265 -7163 -82 0
-7266 7165 0
-7266 132 0
7266 -7165 -132 0
-7267 7167 0
-7267 180 0
7267 -7167 -180 0
-7268 7251 7252 0
-7268 -7251 -7252 0
7268 -7251 7252 0
7268 7251 -7252 0
-7269 7268 7253 0
-7269 -7268 -7253 0
7269 -7268 7253 0
7269 7268 -7253 0
-7270 7269 7254 0
-7270 -7269 -7254 0
7270 -7269 7254 0
7270 7269 -7254 0
-7271 7270 7255 0
-7271 -7270 -7255 0
7271 -7270 7255 0
7271 7270 -7255 0
-7272 7271 7256 0
-7272 -7271 -7256 0
7272 -7271 7256 0
7272 7271 -7256 0
-7273 7272 7257 0
-7273 -7272 -7257 0
7273 -7272 7257 0
7273 7272 -7257 0
-7274 7273 7258 0
-7274 -7273 -7258 0
7274 -7273 7258 0
7274 7273 -7258 0
-7275 7274 7259 0
-7275 -7274 -7259 0
7275 -7274 7259 0
7275 7274 -7259 0
-7276 7275 7260 0
-7276 -7275 -7260 0
7276 -7275 7260 0
7276 7275 -7260 0
-7277 7276 7261 0
-7277 -7276 -7261 0
7277 -7276 7261 0
7277 7276 -7261 0
-7278 7277 7262 0
-7278 -7277 -7262 0
7278 -7277 7262 0
7278 7277 -7262 0
-7279 7278 7263 0
-7279 -7278 -7263 0
7279 -7278 7263 0
7279 7278 -7263 0
-7280 7279 7264 0
-7280 -7279 -7264 0
7280 -7279 7264 0
7280 7279 -7264 0
-7281 7280 7265 0
-7281 -7280 -7265 0
7281 -7280 7265 0
7281 7280 -7265 0
-7282 7281 7266 0
-7282 -7281 -7266 0
7282 -7281 7266 0
7282 7281 -7266 0
-7283 7282 7267 0
-7283 -7282 -7267 0
7283 -7282 7267 0
7283 7282 -7267 0
-7283 0
-7284 7135 0
-7284 37 0
7284 -7135 -37 0
-7285 7137 0
-7285 45 0
7285 -7137 -45 0
-7286 7139 0
-7286 37 0
7286 -7139 -37 0
-7287 7141 0
-7287 45 0
7287 -7141 -45 0
-7288 7143 0
-7288 41 0
7288 -7143 -41 0
-7289 7145 0
-7289 41 0
7289 -7145 -41 0
-7290 7147 0
-7290 34 0
7290 -7147 -34 0
-7291 7149 0
-7291 36 0
7291 -7149 -36 0
-7292 7151 0
-7292 34 0
7292 -7151 -34 0
-7293 7153 0
-7293 36 0
7293 -7153 -36 0
-7294 7155 0
-7294 35 0
7294 -7155 -35 0
-7295 7157 0
-7295 35 0
7295 -7157 -35 0
-7296 7159 0
-7296 85 0
7296 -7159 -85 0
-7297 7161 0
-7297 85 0
7297 -7161 -85 0
-7298 7163 0
-7298 89 0
7298 -7163 -89 0
-7299 7165 0
-7299 133 0
7299 -7165 -133 0
-7300 7167 0
-7300 181 0
7300 -7167 -181 0
-7301 7284 7285 0
-7301 -7284 -7285 0
7301 -7284 7285 0
7301 7284 -7285 0
-7302 7301 7286 0
-7302 -7301 -7286 0
7302 -7301 7286 0
7302 7301 -7286 0
-7303 7302 7287 0
-7303 -7302 -7287 0
7303 -7302 7287 0
7303 7302 -7287 0
-7304 7303 7288 0
-7304 -7303 -7288 0
7304 -7303 7288 0
7304 7303 -7288 0
-7305 7304 7289 0
-7305 -7304 -7289 0
7305 -7304 7289 0
7305 7304 -7289 0
-7306 7305 7290 0
-7306 -7305 -7290 0
7306 -7305 7290 0
7306 7305 -7290 0
-7307 7306 7291 0
-7307 -7306 -7291 0
7307 -7306 7291 0
7307 7306 -7291 0
-7308 7307 7292 0
-7308 -7307 -7292 0
7308 -7307 7292 0
7308 7307 -7292 0
-7309 7308 7293 0
-7309 -7308 -7293 0
7309 -7308 7293 0
7309 7308 -7293 0
-7310 7309 7294 0
-7310 -7309 -7294 0
7310 -7309 7294 0
7310 7309 -7294 0
-7311 7310 7295 0
-7311 -7310 -7295 0
7311 -7310 7295 0
7311 7310 -7295 0
-7312 7311 7296 0
-7312 -7311 -7296 0
7312 -7311 7296 0
7312 7311 -7296 0
-7313 7312 7297 0
-7313 -7312 -7297 0
7313 -7312 7297 0
7313 7312 -7297 0
-7314 7313 7298 0
-7314 -7313 -7298 0
7314 -7313 7298 0
7314 7313 -7298 0
-7315 7314 7299 0
-7315 -7314 -7299 0
7315 -7314 7299 0
7315 7314 -7299 0
-7316 7315 7300 0
-7316 -7315 -7300 0
7316 -7315 7300 0
7316 7315 -7300 0
-7316 0
-7317 7135 0
-7317 38 0
7317 -7135 -38 0
-7318 7137 0
-7318 48 0
7318 -7137 -48 0
-7319 7139 0
-7319 38 0
7319 -7139 -38 0
-7320 7141 0
-7320 48 0
7320 -7141 -48 0
-7321 7143 0
-7321 43 0
7321 -7143 -43 0
-7322 7145 0
-7322 43 0
7322 -7145 -43 0
-7323 7147 0
-7323 38 0
7323 -7147 -38 0
-7324 7149 0
-7324 48 0
7324 -7149 -48 0
-7325 7151 0
-7325 38 0
7325 -7151 -38 0
-7326 7153 0
-7326 48 0
7326 -7153 -48 0
-7327 7155 0
-7327 43 0
7327 -7155 -43 0
-7328 7157 0
-7328 43 0
7328 -7157 -43 0
-7329 7159 0
-7329 86 0
7329 -7159 -86 0
-7330 7161 0
-7330 86 0
7330 -7161 -86 0
-7331 7163 0
-7331 91 0
7331 -7163 -91 0
-7332 7165 0
-7332 134 0
7332 -7165 -134 0
-7333 7167 0
-7333 182 0
7333 -7167 -182 0
-7334 7317 7318 0
-7334 -7317 -7318 0
7334 -7317 7318 0
7334 7317 -7318 0
-7335 7334 7319 0
-7335 -7334 -7319 0
7335 -7334 7319 0
7335 7334 -7319 0
-7336 7335 7320 0
-7336 -7335 -7320 0
7336 -7335 7320 0
7336 7335 -7320 0
-7337 7336 7321 0
-7337 -7336 -7321 0
7337 -7336 7321 0
7337 7336 -7321 0
-7338 7337 7322 0
-7338 -7337 -7322 0
7338 -7337 7322 0
7338 7337 -7322 0
-7339 7338 7323 0
-7339 -7338 -7323 0
7339 -7338 7323 0
7339 7338 -7323 0
-7340 7339 7324 0
-7340 -7339 -7324 0
7340 -7339 7324 0
7340 7339 -7324 0
-7341 7340 7325 0
-7341 -7340 -7325 0
7341 -7340 7325 0
7341 7340 -7325 0
-7342 7341 7326 0
-7342 -7341 -7326 0
7342 -7341 7326 0
7342 7341 -7326 0
-7343 7342 7327 0
-7343 -7342 -7327 0
7343 -7342 7327 0
7343 7342 -7327 0
-7344 7343 7328 0
-7344 -7343 -7328 0
7344 -7343 7328 0
7344 7343 -7328 0
-7345 7344 7329 0
-7345 -7344 -7329 0
7345 -7344 7329 0
7345 7344 -7329 0
-7346 7345 7330 0
-7346 -7345 -7330 0
7346 -7345 7330 0
7346 7345 -7330 0
-7347 7346 7331 0
-7347 -7346 -7331 0
7347 -7346 7331 0
7347 7346 -7331 0
-7348 7347 7332 0
-7348 -7347 -7332 0
7348 -7347 7332 0
7348 7347 -7332 0
-7349 7348 7333 0
-7349 -7348 -7333 0
7349 -7348 7333 0
7349 7348 -7333 0
-7349 0
-7350 7135 0
-7350 39 0
7350 -7135 -39 0
-7351 7137 0
-7351 47 0
7351 -7137 -47 0
-7352 7139 0
-7352 40 0
7352 -7139 -40 0
-7353 7141 0
-7353 46 0
7353 -7141 -46 0
-7354 7143 0
-7354 44 0
7354 -7143 -44 0
-7355 7145 0
-7355 42 0
7355 -7145 -42 0
-7356 7147 0
-7356 42 0
7356 -7147 -42 0
-7357 7149 0
-7357 44 0
7357 -7149 -44 0
-7358 7151 0
-7358 46 0
7358 -7151 -46 0
-7359 7153 0
-7359 40 0
7359 -7153 -40 0
-7360 7155 0
-7360 47 0
7360 -7155 -47 0
-7361 7157 0
-7361 39 0
7361 -7157 -39 0
-7362 7159 0
-7362 87 0
7362 -7159 -87 0
-7363 7161 0
-7363 88 0
7363 -7161 -88 0
-7364 7163 0
-7364 92 0
7364 -7163 -92 0
-7365 7165 0
-7365 135 0
7365 -7165 -135 0
-7366 7167 0
-7366 183 0
7366 -7167 -183 0
-7367 7350 7351 0
-7367 -7350 -7351 0
7367 -7350 7351 0
7367 7350 -7351 0
-7368 7367 7352 0
-7368 -7367 -7352 0
7368 -7367 7352 0
7368 7367 -7352 0
-7369 7368 7353 0
-7369 -7368 -7353 0
7369 -7368 7353 0
7369 7368 -7353 0
-7370 7369 7354 0
-7370 -7369 -7354 0
7370 -7369 7354 0
7370 7369 -7354 0
-7371 7370 7355 0
-7371 -7370 -7355 0
7371 -7370 7355 0
7371 7370 -7355 0
-7372 7371 7356 0
-7372 -7371 -7356 0
7372 -7371 7356 0
7372 7371 -7356 0
-7373 7372 7357 0
-7373 -7372 -7357 0
7373 -7372 7357 0
7373 7372 -7357 0
-7374 7373 7358 0
-7374 -7373 -7358 0
7374 -7373 7358 0
7374 7373 -7358 0
-7375 7374 7359 0
-7375 -7374 -7359 0
7375 -7374 7359 0
7375 7374 -7359 0
-7376 7375 7360 0
-7376 -7375 -7360 0
7376 -7375 7360 0
7376 7375 -7360 0
-7377 7376 7361 0
-7377 -7376 -7361 0
7377 -7376 7361 0
7377 7376 -7361 0
-7378 7377 7362 0
-7378 -7377 -7362 0
7378 -7377 7362 0
7378 7377 -7362 0
-7379 7378 7363 0
-7379 -7378 -7363 0
7379 -7378 7363 0
7379 7378 -7363 0
-7380 7379 7364 0
-7380 -7379 -7364 0
7380 -7379 7364 0
7380 7379 -7364 0
-7381 7380 7365 0
-7381 -7380 -7365 0
7381 -7380 7365 0
7381 7380 -7365 0
-7382 7381 7366 0
-7382 -7381 -7366 0
7382 -7381 7366 0
7382 7381 -7366 0
-7382 0
-7383 7135 0
-7383 40 0
7383 -7135 -40 0
-7384 7137 0
-7384 46 0
7384 -7137 -46 0
-7385 7139 0
-7385 39 0
7385 -7139 -39 0
-7386 7141 0
-7386 47 0
7386 -7141 -47 0
-7387 7143 0
-7387 42 0
7387 -7143 -42 0
-7388 7145 0
-7388 44 0
7388 -7145 -44 0
-7389 7147 0
-7389 46 0
7389 -7147 -46 0
-7390 7149 0
-7390 40 0
7390 -7149 -40 0
-7391 7151 0
-7391 42 0
7391 -7151 -42 0
-7392 7153 0
-7392 44 0
7392 -7153 -44 0
-7393 7155 0
-7393 39 0
7393 -7155 -39 0
-7394 7157 0
-7394 47 0
7394 -7157 -47 0
-7395 7159 0
-7395 88 0
7395 -7159 -88 0
-7396 7161 0
-7396 87 0
7396 -7161 -87 0
-7397 7163 0
-7397 90 0
7397 -7163 -90 0
-7398 7165 0
-7398 136 0
7398 -7165 -136 0
-7399 7167 0
-7399 184 0
7399 -7167 -184 0
-7400 7383 7384 0
-7400 -7383 -7384 0
7400 -7383 7384 0
7400 7383 -7384 0
-7401 7400 7385 0
-7401 -7400 -7385 0
7401 -7400 7385 0
7401 7400 -7385 0
-7402 7401 7386 0
-7402 -7401 -7386 0
7402 -7401 7386 0
7402 7401 -7386 0
-7403 7402 7387 0
-7403 -7402 -7387 0
7403 -7402 7387 0
7403 7402 -7387 0
-7404 7403 7388 0
-7404 -7403 -7388 0
7404 -7403 7388 0
7404 7403 -7388 0
-7405 7404 7389 0
-7405 -7404 -7389 0
7405 -7404 7389 0
7405 7404 -7389 0
-7406 7405 7390 0
-7406 -7405 -7390 0
7406 -7405 7390 0
7406 7405 -7390 0
-7407 7406 7391 0
-7407 -7406 -7391 0
7407 -7406 7391 0
7407 7406 -7391 0
-7408 7407 7392 0
-7408 -7407 -7392 0
7408 -7407 7392 0
7408 7407 -7392 0
-7409 7408 7393 0
-7409 -7408 -7393 0
7409 -7408 7393 0
7409 7408 -7393 0
-7410 7409 7394 0
-7410 -7409 -7394 0
7410 -7409 7394 0
7410 7409 -7394 0
-7411 7410 7395 0
-7411 -7410 -7395 0
7411 -7410 7395 0
7411 7410 -7395 0
-7412 7411 7396 0
-7412 -7411 -7396 0
7412 -7411 7396 0
7412 7411 -7396 0
-7413 7412 7397 0
-7413 -7412 -7397 0
7413 -7412 7397 0
7413 7412 -7397 0
-7414 7413 7398 0
-7414 -7413 -7398 0
7414 -7413 7398 0
7414 7413 -7398 0
-7415 7414 7399 0
-7415 -7414 -7399 0
7415 -7414 7399 0
7415 7414 -7399 0
-7415 0
-7416 7135 0
-7416 41 0
7416 -7135 -41 0
-7417 7137 0
-7417 41 0
7417 -7137 -41 0
-7418 7139 0
-7418 45 0
7418 -7139 -45 0
-7419 7141 0
-7419 37 0
7419 -7141 -37 0
-7420 7143 0
-7420 45 0
7420 -7143 -45 0
-7421 7145 0
-7421 37 0
7421 -7145 -37 0
-7422 7147 0
-7422 35 0
7422 -7147 -35 0
-7423 7149 0
-7423 35 0
7423 -7149 -35 0
-7424 7151 0
-7424 36 0
7424 -7151 -36 0
-7425 7153 0
-7425 34 0
7425 -7153 -34 0
-7426 7155 0
-7426 36 0
7426 -7155 -36 0
-7427 7157 0
-7427 34 0
7427 -7157 -34 0
-7428 7159 0
-7428 89 0
7428 -7159 -89 0
-7429 7161 0
-7429 93 0
7429 -7161 -93 0
-7430 7163 0
-7430 93 0
7430 -7163 -93 0
-7431 7165 0
-7431 137 0
7431 -7165 -137 0
-7432 7167 0
-7432 185 0
7432 -7167 -185 0
-7433 7416 7417 0
-7433 -7416 -7417 0
7433 -7416 7417 0
7433 7416 -7417 0
-7434 7433 7418 0
-7434 -7433 -7418 0
7434 -7433 7418 0
7434 7433 -7418 0
-7435 7434 7419 0
-7435 -7434 -7419 0
7435 -7434 7419 0
7435 7434 -7419 0
-7436 7435 7420 0
-7436 -7435 -7420 0
7436 -7435 7420 0
7436 7435 -7420 0
-7437 7436 7421 0
-7437 -7436 -7421 0
7437 -7436 7421 0
7437 7436 -7421 0
-7438 7437 7422 0
-7438 -7437 -7422 0
7438 -7437 7422 0
7438 7437 -7422 0
-7439 7438 7423 0
-7439 -7438 -7423 0
7439 -7438 7423 0
7439 7438 -7423 0
-7440 7439 7424 0
-7440 -7439 -7424 0
7440 -7439 7424 0
7440 7439 -7424 0
-7441 7440 7425 0
-7441 -7440 -7425 0
7441 -7440 7425 0
7441 7440 -7425 0
-7442 7441 7426 0
-7442 -7441 -7426 0
7442 -7441 7426 0
7442 7441 -7426 0
-7443 7442 7427 0
-7443 -7442 -7427 0
7443 -7442 7427 0
7443 7442 -7427 0
-7444 7443 7428 0
-7444 -7443 -7428 0
7444 -7443 7428 0
7444 7443 -7428 0
-7445 7444 7429 0
-7445 -7444 -7429 0
7445 -7444 7429 0
7445 7444 -7429 0
-7446 7445 7430 0
-7446 -7445 -7430 0
7446 -7445 7430 0
7446 7445 -7430 0
-7447 7446 7431 0
-7447 -7446 -7431 0
7447 -7446 7431 0
7447 7446 -7431 0
-7448 7447 7432 0
-7448 -7447 -7432 0
7448 -7447 7432 0
7448 7447 -7432 0
-7448 0
-7449 7135 0
-7449 42 0
7449 -7135 -42 0
-7450 7137 0
-7450 44 0
7450 -7137 -44 0
-7451 7139 0
-7451 46 0
7451 -7139 -46 0
-7452 7141 0
-7452 40 0
7452 -7141 -40 0
-7453 7143 0
-7453 47 0
7453 -7143 -47 0
-7454 7145 0
-7454 39 0
7454 -7145 -39 0
-7455 7147 0
-7455 39 0
7455 -7147 -39 0
-7456 7149 0
-7456 47 0
7456 -7149 -47 0
-7457 7151 0
-7457 40 0
7457 -7151 -40 0
-7458 7153 0
-7458 46 0
7458 -7153 -46 0
-7459 7155 0
-7459 44 0
7459 -7155 -44 0
-7460 7157 0
-7460 42 0
7460 -7157 -42 0
-7461 7159 0
-7461 90 0
7461 -7159 -90 0
-7462 7161 0
-7462 94 0
7462 -7161 -94 0
-7463 7163 0
-7463 95 0
7463 -7163 -95 0
-7464 7165 0
-7464 138 0
7464 -7165 -138 0
-7465 7167 0
-7465 186 0
7465 -7167 -186 0
-7466 7449 7450 0
-7466 -7449 -7450 0
7466 -7449 7450 0
7466 7449 -7450 0
-7467 7466 7451 0
-7467 -7466 -7451 0
7467 -7466 7451 0
7467 7466 -7451 0
-7468 7467 7452 0
-7468 -7467 -7452 0
7468 -7467 7452 0
7468 7467 -7452 0
-7469 7468 7453 0
-7469 -7468 -7453 0
7469 -7468 7453 0
7469 7468 -7453 0
-7470 7469 7454 0
-7470 -7469 -7454 0
7470 -7469 7454 0
7470 7469 -7454 0
-7471 7470 7455 0
-7471 -7470 -7455 0
7471 -7470 7455 0
7471 7470 -7455 0
-7472 7471 7456 0
-7472 -7471 -7456 0
7472 -7471 7456 0
7472 7471 -7456 0
-7473 7472 7457 0
-7473 -7472 -7457 0
7473 -7472 7457 0
7473 7472 -7457 0
-7474 7473 7458 0
-7474 -7473 -7458 0
7474 -7473 7458 0
7474 7473 -7458 0
-7475 7474 7459 0
-7475 -7474 -7459 0
7475 -7474 7459 0
7475 7474 -7459 0
-7476 7475 7460 0
-7476 -7475 -7460 0
7476 -7475 7460 0
7476 7475 -7460 0
-7477 7476 7461 0
-7477 -7476 -7461 0
7477 -7476 7461 0
7477 7476 -7461 0
-7478 7477 7462 0
-7478 -7477 -7462 0
7478 -7477 7462 0
7478 7477 -7462 0
-7479 7478 7463 0
-7479 -7478 -7463 0
7479 -7478 7463 0
7479 7478 -7463 0
-7480 7479 7464 0
-7480 -7479 -7464 0
7480 -7479 7464 0
7480 7479 -7464 0
-7481 7480 7465 0
-7481 -7480 -7465 0
7481 -7480 7465 0
7481 7480 -7465 0
-7481 0
-7482 7135 0
-7482 43 0
7482 -7135 -43 0
-7483 7137 0
-7483 43 0
7483 -7137 -43 0
-7484 7139 0
-7484 48 0
7484 -7139 -48 0
-7485 7141 0
-7485 38 0
7485 -7141 -38 0
-7486 7143 0
-7486 48 0
7486 -7143 -48 0
-7487 7145 0
-7487 38 0
7487 -7145 -38 0
-7488 7147 0
-7488 43 0
7488 -7147 -43 0
-7489 7149 0
-7489 43 0
7489 -7149 -43 0
-7490 7151 0
-7490 48 0
7490 -7151 -48 0
-7491 7153 0
-7491 38 0
7491 -7153 -38 0
-7492 7155 0
-7492 48 0
7492 -7155 -48 0
-7493 7157 0
-7493 38 0
7493 -7157 -38 0
-7494 7159 0
-7494 91 0
7494 -7159 -91 0
-7495 7161 0
-7495 96 0
7495 -7161 -96 0
-7496 7163 0
-7496 96 0
7496 -7163 -96 0
-7497 7165 0
-7497 139 0
7497 -7165 -139 0
-7498 7167 0
-7498 187 0
7498 -7167 -187 0
-7499 7482 7483 0
-7499 -7482 -7483 0
7499 -7482 7483 0
7499 7482 -7483 0
-7500 7499 7484 0
-7500 -7499 -7484 0
7500 -7499 7484 0
7500 7499 -7484 0
-7501 7500 7485 0
-7501 -7500 -7485 0
7501 -7500 7485 0
7501 7500 -7485 0
-7502 7501 7486 0
-7502 -7501 -7486 0
7502 -7501 7486 0
7502 7501 -7486 0
-7503 7502 7487 0
-7503 -7502 -7487 0
7503 -7502 7487 0
7503 7502 -7487 0
-7504 7503 7488 0
-7504 -7503 -7488 0
7504 -7503 7488 0
7504 7503 -7488 0
-7505 7504 7489 0
-7505 -7504 -7489 0
7505 -7504 7489 0
7505 7504 -7489 0
-7506 7505 7490 0
-7506 -7505 -7490 0
7506 -7505 7490 0
7506 7505 -7490 0
-7507 7506 7491 0
-7507 -7506 -7491 0
7507 -7506 7491 0
7507 7506 -7491 0
-7508 7507 7492 0
-7508 -7507 -7492 0
7508 -7507 7492 0
7508 7507 -7492 0
-7509 7508 7493 0
-7509 -7508 -7493 0
7509 -7508 7493 0
7509 7508 -7493 0
-7510 7509 7494 0
-7510 -7509 -7494 0
7510 -7509 7494 0
7510 7509 -7494 0
-7511 7510 7495 0
-7511 -7510 -7495 0
7511 -7510 7495 0
7511 7510 -7495 0
-7512 7511 7496 0
-7512 -7511 -7496 0
7512 -7511 7496 0
7512 7511 -7496 0
-7513 7512 7497 0
-7513 -7512 -7497 0
7513 -7512 7497 0
7513 7512 -7497 0
-7514 7513 7498 0
-7514 -7513 -7498 0
7514 -7513 7498 0
7514 7513 -7498 0
-7514 0
-7515 7135 0
-7515 44 0
7515 -7135 -44 0
-7516 7137 0
-7516 42 0
7516 -7137 -42 0
-7517 7139 0
-7517 47 0
7517 -7139 -47 0
-7518 7141 0
-7518 39 0
7518 -7141 -39 0
-7519 7143 0
-7519 46 0
7519 -7143 -46 0
-7520 7145 0
-7520 40 0
7520 -7145 -40 0
-7521 7147 0
-7521 47 0
7521 -7147 -47 0
-7522 7149 0
-7522 39 0
7522 -7149 -39 0
-7523 7151 0
-7523 44 0
7523 -7151 -44 0
-7524 7153 0
-7524 42 0
7524 -7153 -42 0
-7525 7155 0
-7525 40 0
7525 -7155 -40 0
-7526 7157 0
-7526 46 0
7526 -7157 -46 0
-7527 7159 0
-7527 92 0
7527 -7159 -92 0
-7528 7161 0
-7528 95 0
7528 -7161 -95 0
-7529 7163 0
-7529 94 0
7529 -7163 -94 0
-7530 7165 0
-7530 140 0
7530 -7165 -140 0
-7531 7167 0
-7531 188 0
7531 -7167 -188 0
-7532 7515 7516 0
-7532 -7515 -7516 0
7532 -7515 7516 0
7532 7515 -7516 0
-7533 7532 7517 0
-7533 -7532 -7517 0
7533 -7532 7517 0
7533 7532 -7517 0
-7534 7533 7518 0
-7534 -7533 -7518 0
7534 -7533 7518 0
7534 7533 -7518 0
-7535 7534 7519 0
-7535 -7534 -7519 0
7535 -7534 7519 0
7535 7534 -7519 0
-7536 7535 7520 0
-7536 -7535 -7520 0
7536 -7535 7520 0
7536 7535 -7520 0
-7537 7536 7521 0
-7537 -7536 -7521 0
7537 -7536 7521 0
7537 7536 -7521 0
-7538 7537 7522 0
-7538 -7537 -7522 0
7538 -7537 7522 0
7538 7537 -7522 0
-7539 7538 7523 0
-7539 -7538 -7523 0
7539 -7538 7523 0
7539 7538 -7523 0
-7540 7539 7524 0
-7540 -7539 -7524 0
7540 -7539 7524 0
7540 7539 -7524 0
-7541 7540 7525 0
-7541 -7540 -7525 0
7541 -7540 7525 0
7541 7540 -7525 0
-7542 7541 7526 0
-7542 -7541 -7526 0
7542 -7541 7526 0
7542 7541 -7526 0
-7543 7542 7527 0
-7543 -7542 -7527 0
7543 -7542 7527 0
7543 7542 -7527 0
-7544 7543 7528 0
-7544 -7543 -7528 0
7544 -7543 7528 0
7544 7543 -7528 0
-7545 7544 7529 0
-7545 -7544 -7529 0
7545 -7544 7529 0
7545 7544 -7529 0
-7546 7545 7530 0
-7546 -7545 -7530 0
7546 -7545 7530 0
7546 7545 -7530 0
-7547 7546 7531 0
-7547 -7546 -7531 0
7547 -7546 7531 0
7547 7546 -7531 0
-7547 0
-7548 7135 0
-7548 45 0
7548 -7135 -45 0
-7549 7137 0
-7549 37 0
7549 -7137 -37 0
-7550 7139 0
-7550 41 0
7550 -7139 -41 0
-7551 7141 0
-7551 41 0
7551 -7141 -41 0
-7552 7143 0
-7552 37 0
7552 -7143 -37 0
-7553 7145 0
-7553 45 0
7553 -7145 -45 0
-7554 7147 0
-7554 36 0
7554 -7147 -36 0
-7555 7149 0
-7555 34 0
7555 -7149 -34 0
-7556 7151 0
-7556 35 0
7556 -7151 -35 0
-7557 7153 0
-7557 35 0
7557 -7153 -35 0
-7558 7155 0
-7558 34 0
7558 -7155 -34 0
-7559 7157 0
-7559 36 0
7559 -7157 -36 0
-7560 7159 0
-7560 93 0
7560 -7159 -93 0
-7561 7161 0
-7561 89 0
7561 -7161 -89 0
-7562 7163 0
-7562 85 0
7562 -7163 -85 0
-7563 7165 0
-7563 141 0
7563 -7165 -141 0
-7564 7167 0
-7564 189 0
7564 -7167 -189 0
-7565 7548 7549 0
-7565 -7548 -7549 0
7565 -7548 7549 0
7565 7548 -7549 0
-7566 7565 7550 0
-7566 -7565 -7550 0
7566 -7565 7550 0
7566 7565 -7550 0
-7567 7566 7551 0
-7567 -7566 -7551 0
7567 -7566 7551 0
7567 7566 -7551 0
-7568 7567 7552 0
-7568 -7567 -7552 0
7568 -7567 7552 0
7568 7567 -7552 0
-7569 7568 7553 0
-7569 -7568 -7553 0
7569 -7568 7553 0
7569 7568 -7553 0
-7570 7569 7554 0
-7570 -7569 -7554 0
7570 -7569 7554 0
7570 7569 -7554 0
-7571 7570 7555 0
-7571 -7570 -7555 0
7571 -7570 7555 0
7571 7570 -7555 0
-7572 7571 7556 0
-7572 -7571 -7556 0
7572 -7571 7556 0
7572 7571 -7556 0
-7573 7572 7557 0
-7573 -7572 -7557 0
7573 -7572 7557 0
7573 7572 -7557 0
-7574 7573 7558 0
-7574 -7573 -7558 0
7574 -7573 7558 0
7574 7573 -7558 0
-7575 7574 7559 0
-7575 -7574 -7559 0
7575 -7574 7559 0
7575 7574 -7559 0
-7576 7575 7560 0
-7576 -7575 -7560 0
7576 -7575 7560 0
7576 7575 -7560 0
-7577 7576 7561 0
-7577 -7576 -7561 0
7577 -7576 7561 0
7577 7576 -7561 0
-7578 7577 7562 0
-7578 -7577 -7562 0
7578 -7577 7562 0
7578 7577 -7562 0
-7579 7578 7563 0
-7579 -7578 -7563 0
7579 -7578 7563 0
7579 7578 -7563 0
-7580 7579 7564 0
-7580 -7579 -7564 0
7580 -7579 7564 0
7580 7579 -7564 0
-7580 0
-7581 7135 0
-7581 46 0
7581 -7135 -46 0
-7582 7137 0
-7582 40 0
7582 -7137 -40 0
-7583 7139 0
-7583 42 0
7583 -7139 -42 0
-7584 7141 0
-7584 44 0
7584 -7141 -44 0
-7585 7143 0
-7585 39 0
7585 -7143 -39 0
-7586 7145 0
-7586 47 0
7586 -7145 -47 0
-7587 7147 0
-7587 40 0
7587 -7147 -40 0
-7588 7149 0
-7588 46 0
7588 -7149 -46 0
-7589 7151 0
-7589 39 0
7589 -7151 -39 0
-7590 7153 0
-7590 47 0
7590 -7153 -47 0
-7591 7155 0
-7591 42 0
7591 -7155 -42 0
-7592 7157 0
-7592 44 0
7592 -7157 -44 0
-7593 7159 0
-7593 94 0
7593 -7159 -94 0
-7594 7161 0
-7594 90 0
7594 -7161 -90 0
-7595 7163 0
-7595 87 0
7595 -7163 -87 0
-7596 7165 0
-7596 142 0
7596 -7165 -142 0
-7597 7167 0
-7597 190 0
7597 -7167 -190 0
-7598 7581 7582 0
-7598 -7581 -7582 0
7598 -7581 7582 0
7598 7581 -7582 0
-7599 7598 7583 0
-7599 -7598 -7583 0
7599 -7598 7583 0
7599 7598 -7583 0
-7600 7599 7584 0
-7600 -7599 -7584 0
7600 -7599 7584 0
7600 7599 -7584 0
-7601 7600 7585 0
-7601 -7600 -7585 0
7601 -7600 7585 0
7601 7600 -7585 0
-7602 7601 7586 0
-7602 -7601 -7586 0
7602 -7601 7586 0
7602 7601 -7586 0
-7603 7602 7587 0
-7603 -7602 -7587 0
7603 -7602 7587 0
7603 7602 -7587 0
-7604 7603 7588 0
-7604 -7603 -7588 0
7604 -7603 7588 0
7604 7603 -7588 0
-7605 7604 7589 0
-7605 -7604 -7589 0
7605 -7604 7589 0
7605 7604 -7589 0
-7606 7605 7590 0
-7606 -7605 -7590 0
7606 -7605 7590 0
7606 7605 -7590 0
-7607 7606 7591 0
-7607 -7606 -7591 0
7607 -7606 7591 0
7607 7606 -7591 0
-7608 7607 7592 0
-7608 -7607 -7592 0
7608 -7607 7592 0
7608 7607 -7592 0
-7609 7608 7593 0
-7609 -7608 -7593 0
7609 -7608 7593 0
7609 7608 -7593 0
-7610 7609 7594 0
-7610 -7609 -7594 0
7610 -7609 7594 0
7610 7609 -7594 0
-7611 7610 7595 0
-7611 -7610 -7595 0
7611 -7610 7595 0
7611 7610 -7595 0
-7612 7611 7596 0
-7612 -7611 -7596 0
7612 -7611 7596 0
7612 7611 -7596 0
-7613 7612 7597 0
-7613 -7612 -7597 0
7613 -7612 7597 0
7613 7612 -7597 0
-7613 0
-7614 7135 0
-7614 47 0
7614 -7135 -47 0
-7615 7137 0
-7615 39 0
7615 -7137 -39 0
-7616 7139 0
-7616 44 0
7616 -7139 -44 0
-7617 7141 0
-7617 42 0
7617 -7141 -42 0
-7618 7143 0
-7618 40 0
7618 -7143 -40 0
-7619 7145 0
-7619 46 0
7619 -7145 -46 0
-7620 7147 0
-7620 44 0
7620 -7147 -44 0
-7621 7149 0
-7621 42 0
7621 -7149 -42 0
-7622 7151 0
-7622 47 0
7622 -7151 -47 0
-7623 7153 0
-7623 39 0
7623 -7153 -39 0
-7624 7155 0
-7624 46 0
7624 -7155 -46 0
-7625 7157 0
-7625 40 0
7625 -7157 -40 0
-7626 7159 0
-7626 95 0
7626 -7159 -95 0
-7627 7161 0
-7627 92 0
7627 -7161 -92 0
-7628 7163 0
-7628 88 0
7628 -7163 -88 0
-7629 7165 0
-7629 143 0
7629 -7165 -143 0
-7630 7167 0
-7630 191 0
7630 -7167 -191 0
-7631 7614 7615 0
-7631 -7614 -7615 0
7631 -7614 7615 0
7631 7614 -7615 0
-7632 7631 7616 0
-7632 -7631 -7616 0
7632 -7631 7616 0
7632 7631 -7616 0
-7633 7632 7617 0
-7633 -7632 -7617 0
7633 -7632 7617 0
7633 7632 -7617 0
-7634 7633 7618 0
-7634 -7633 -7618 0
7634 -7633 7618 0
7634 7633 -7618 0
-7635 7634 7619 0
-7635 -7634 -7619 0
7635 -7634 7619 0
7635 7634 -7619 0
-7636 7635 7620 0
-7636 -7635 -7620 0
7636 -7635 7620 0
7636 7635 -7620 0
-7637 7636 7621 0
-7637 -7636 -7621 0
7637 -7636 7621 0
7637 7636 -7621 0
-7638 7637 7622 0
-7638 -7637 -7622 0
7638 -7637 7622 0
7638 7637 -7622 0
-7639 7638 7623 0
-7639 -7638 -7623 0
7639 -7638 7623 0
7639 7638 -7623 0
-7640 7639 7624 0
-7640 -7639 -7624 0
7640 -7639 7624 0
7640 7639 -7624 0
-7641 7640 7625 0
-7641 -7640 -7625 0
7641 -7640 7625 0
7641 7640 -7625 0
-7642 7641 7626 0
-7642 -7641 -7626 0
7642 -7641 7626 0
7642 7641 -7626 0
-7643 7642 7627 0
-7643 -7642 -7627 0
7643 -7642 7627 0
7643 7642 -7627 0
-7644 7643 7628 0
-7644 -7643 -7628 0
7644 -7643 7628 0
7644 7643 -7628 0
-7645 7644 7629 0
-7645 -7644 -7629 0
7645 -7644 7629 0
7645 7644 -7629 0
-7646 7645 7630 0
-7646 -7645 -7630 0
7646 -7645 7630 0
7646 7645 -7630 0
-7646 0
-7647 7135 0
-7647 48 0
7647 -7135 -48 0
-7648 7137 0
-7648 38 0
7648 -7137 -38 0
-7649 7139 0
-7649 43 0
7649 -7139 -43 0
-7650 7141 0
-7650 43 0
7650 -7141 -43 0
-7651 7143 0
-7651 38 0
7651 -7143 -38 0
-7652 7145 0
-7652 48 0
7652 -7145 -48 0
-7653 7147 0
-7653 48 0
7653 -7147 -48 0
-7654 7149 0
-7654 38 0
7654 -7149 -38 0
-7655 7151 0
-7655 43 0
7655 -7151 -43 0
-7656 7153 0
-7656 43 0
7656 -7153 -43 0
-7657 7155 0
-7657 38 0
7657 -7155 -38 0
-7658 7157 0
-7658 48 0
7658 -7157 -48 0
-7659 7159 0
-7659 96 0
7659 -7159 -96 0
-7660 7161 0
-7660 91 0
7660 -7161 -91 0
-7661 7163 0
-7661 86 0
7661 -7163 -86 0
-7662 7165 0
-7662 144 0
7662 -7165 -144 0
-7663 7167 0
-7663 192 0
7663 -7167 -192 0
-7664 7647 7648 0
-7664 -7647 -7648 0
7664 -7647 7648 0
7664 7647 -7648 0
-7665 7664 7649 0
-7665 -7664 -7649 0
7665 -7664 7649 0
7665 7664 -7649 0
-7666 7665 7650 0
-7666 -7665 -7650 0
7666 -7665 7650 0
7666 7665 -7650 0
-7667 7666 7651 0
-7667 -7666 -7651 0
7667 -7666 7651 0
7667 7666 -7651 0
-7668 7667 7652 0
-7668 -7667 -7652 0
7668 -7667 7652 0
7668 7667 -7652 0
-7669 7668 7653 0
-7669 -7668 -7653 0
7669 -7668 7653 0
7669 7668 -7653 0
-7670 7669 7654 0
-7670 -7669 -7654 0
7670 -7669 7654 0
7670 7669 -7654 0
-7671 7670 7655 0
-7671 -7670 -7655 0
7671 -7670 7655 0
7671 7670 -7655 0
-7672 7671 7656 0
-7672 -7671 -7656 0
7672 -7671 7656 0
7672 7671 -7656 0
-7673 7672 7657 0
-7673 -7672 -7657 0
7673 -7672 7657 0
7673 7672 -7657 0
-7674 7673 7658 0
-7674 -7673 -7658 0
7674 -7673 7658 0
7674 7673 -7658 0
-7675 7674 7659 0
-7675 -7674 -7659 0
7675 -7674 7659 0
7675 7674 -7659 0
-7676 7675 7660 0
-7676 -7675 -7660 0
7676 -7675 7660 0
7676 7675 -7660 0
-7677 7676 7661 0
-7677 -7676 -7661 0
7677 -7676 7661 0
7677 7676 -7661 0
-7678 7677 7662 0
-7678 -7677 -7662 0
7678 -7677 7662 0
7678 7677 -7662 0
-7679 7678 7663 0
-7679 -7678 -7663 0
7679 -7678 7663 0
7679 7678 -7663 0
-7679 0
-7680 5 0
-7680 24 0
7680 -5 -24 0
-7681 7680 0
-7681 33 0
7681 -7680 -33 0
-7682 13 0
-7682 26 0
7682 -13 -26 0
-7683 7682 0
-7683 33 0
7683 -7682 -33 0
-7684 6 0
-7684 19 0
7684 -6 -19 0
-7685 7684 0
-7685 33 0
7685 -7684 -33 0
-7686 15 0
-7686 19 0
7686 -15 -19 0
-7687 7686 0
-7687 33 0
7687 -7686 -33 0
-7688 10 0
-7688 26 0
7688 -10 -26 0
-7689 7688 0
-7689 33 0
7689 -7688 -33 0
-7690 11 0
-7690 24 0
7690 -11 -24 0
-7691 7690 0
-7691 33 0
7691 -7690 -33 0
-7692 18 0
-7692 14 0
7692 -18 -14 0
-7693 7692 0
-7693 33 0
7693 -7692 -33 0
-7694 20 0
-7694 7 0
7694 -20 -7 0
-7695 7694 0
-7695 33 0
7695 -7694 -33 0
-7696 22 0
-7696 9 0
7696 -22 -9 0
-7697 7696 0
-7697 33 0
7697 -7696 -33 0
-7698 28 0
-7698 9 0
7698 -28 -9 0
-7699 7698 0
-7699 33 0
7699 -7698 -33 0
-7700 23 0
-7700 7 0
7700 -23 -7 0
-7701 7700 0
-7701 33 0
7701 -7700 -33 0
-7702 27 0
-7702 14 0
7702 -27 -14 0
-7703 7702 0
-7703 33 0
7703 -7702 -33 0
-7704 53 0
-7704 72 0
7704 -53 -72 0
-7705 7704 0
-7705 81 0
7705 -7704 -81 0
-7706 54 0
-7706 67 0
7706 -54 -67 0
-7707 7706 0
-7707 81 0
7707 -7706 -81 0
-7708 58 0
-7708 74 0
7708 -58 -74 0
-7709 7708 0
-7709 81 0
7709 -7708 -81 0
-7710 101 0
-7710 120 0
7710 -101 -120 0
-7711 7710 0
-7711 129 0
7711 -7710 -129 0
-7712 149 0
-7712 168 0
7712 -149 -168 0
-7713 7712 0
-7713 177 0
7713 -7712 -177 0
-7714 7681 7683 0
-7714 -7681 -7683 0
7714 -7681 7683 0
7714 7681 -7683 0
-7715 7714 7685 0
-7715 -7714 -7685 0
7715 -7714 7685 0
7715 7714 -7685 0
-7716 7715 7687 0
-7716 -7715 -7687 0
7716 -7715 7687 0
7716 7715 -7687 0
-7717 7716 7689 0
-7717 -7716 -7689 0
7717 -7716 7689 0
7717 7716 -7689 0
-7718 7717 7691 0
-7718 -7717 -7691 0
7718 -7717 7691 0
7718 7717 -7691 0
-7719 7718 7693 0
-7719 -7718 -7693 0
7719 -7718 7693 0
7719 7718 -7693 0
-7720 7719 7695 0
-7720 -7719 -7695 0
7720 -7719 7695 0
7720 7719 -7695 0
-7721 7720 7697 0
-7721 -7720 -7697 0
7721 -7720 7697 0
7721 7720 -7697 0
-7722 7721 7699 0
-7722 -7721 -7699 0
7722 -7721 7699 0
7722 7721 -7699 0
-7723 7722 7701 0
-7723 -7722 -7701 0
7723 -7722 7701 0
7723 7722 -7701 0
-7724 7723 7703 0
-7724 -7723 -7703 0
7724 -7723 7703 0
7724 7723 -7703 0
-7725 7724 7705 0
-7725 -7724 -7705 0
7725 -7724 7705 0
7725 7724 -7705 0
-7726 7725 7707 0
-7726 -7725 -7707 0
7726 -7725 7707 0
7726 7725 -7707 0
-7727 7726 7709 0
-7727 -7726 -7709 0
7727 -7726 7709 0
7727 7726 -7709 0
-7728 7727 7711 0
-7728 -7727 -7711 0
7728 -7727 7711 0
7728 7727 -7711 0
-7729 7728 7713 0
-7729 -7728 -7713 0
7729 -7728 7713 0
7729 7728 -7713 0
-7729 0
-7730 7680 0
-7730 34 0
7730 -7680 -34 0
-7731 7682 0
-7731 36 0
7731 -7682 -36 0
-7732 7684 0
-7732 34 0
7732 -7684 -34 0
-7733 7686 0
-7733 36 0
7733 -7686 -36 0
-7734 7688 0
-7734 35 0
7734 -7688 -35 0
-7735 7690 0
-7735 35 0
7735 -7690 -35 0
-7736 7692 0
-7736 37 0
7736 -7692 -37 0
-7737 7694 0
-7737 45 0
7737 -7694 -45 0
-7738 7696 0
-7738 37 0
7738 -7696 -37 0
-7739 7698 0
-7739 45 0
7739 -7698 -45 0
-7740 7700 0
-7740 41 0
7740 -7700 -41 0
-7741 7702 0
-7741 41 0
7741 -7702 -41 0
-7742 7704 0
-7742 82 0
7742 -7704 -82 0
-7743 7706 0
-7743 82 0
7743 -7706 -82 0
-7744 7708 0
-7744 83 0
7744 -7708 -83 0
-7745 7710 0
-7745 130 0
7745 -7710 -130 0
-7746 7712 0
-7746 178 0
7746 -7712 -178 0
-7747 7730 7731 0
-7747 -7730 -7731 0
7747 -7730 7731 0
7747 7730 -7731 0
-7748 7747 7732 0
-7748 -7747 -7732 0
7748 -7747 7732 0
7748 7747 -7732 0
-7749 7748 7733 0
-7749 -7748 -7733 0
7749 -7748 7733 0
7749 7748 -7733 0
-7750 7749 7734 0
-7750 -7749 -7734 0
7750 -7749 7734 0
7750 7749 -7734 0
-7751 7750 7735 0
-7751 -7750 -7735 0
7751 -7750 7735 0
7751 7750 -7735 0
-7752 7751 7736 0
-7752 -7751 -7736 0
7752 -7751 7736 0
7752 7751 -7736 0
-7753 7752 7737 0
-7753 -7752 -7737 0
7753 -7752 7737 0
7753 7752 -7737 0
-7754 7753 7738 0
-7754 -7753 -7738 0
7754 -7753 7738 0
7754 7753 -7738 0
-7755 7754 7739 0
-7755 -7754 -7739 0
7755 -7754 7739 0
7755 7754 -7739 0
-7756 7755 7740 0
-7756 -7755 -7740 0
7756 -7755 7740 0
7756 7755 -7740 0
-7757 7756 7741 0
-7757 -7756 -7741 0
7757 -7756 7741 0
7757 7756 -7741 0
-7758 7757 7742 0
-7758 -7757 -7742 0
7758 -7757 7742 0
7758 7757 -7742 0
-7759 7758 7743 0
-7759 -7758 -7743 0
7759 -7758 7743 0
7759 7758 -7743 0
-7760 7759 7744 0
-7760 -7759 -7744 0
7760 -7759 7744 0
7760 7759 -7744 0
-7761 7760 7745 0
-7761 -7760 -7745 0
7761 -7760 7745 0
7761 7760 -7745 0
-7762 7761 7746 0
-7762 -7761 -7746 0
7762 -7761 7746 0
7762 7761 -7746 0
-7762 0
-7763 7680 0
-7763 35 0
7763 -7680 -35 0
-7764 7682 0
-7764 35 0
7764 -7682 -35 0
-7765 7684 0
-7765 36 0
7765 -7684 -36 0
-7766 7686 0
-7766 34 0
7766 -7686 -34 0
-7767 7688 0
-7767 36 0
7767 -7688 -36 0
-7768 7690 0
-7768 34 0
7768 -7690 -34 0
-7769 7692 0
-7769 41 0
7769 -7692 -41 0
-7770 7694 0
-7770 41 0
7770 -7694 -41 0
-7771 7696 0
-7771 45 0
7771 -7696 -45 0
-7772 7698 0
-7772 37 0
7772 -7698 -37 0
-7773 7700 0
-7773 45 0
7773 -7700 -45 0
-7774 7702 0
-7774 37 0
7774 -7702 -37 0
-7775 7704 0
-7775 83 0
7775 -7704 -83 0
-7776 7706 0
-7776 84 0
7776 -7706 -84 0
-7777 7708 0
-7777 84 0
7777 -7708 -84 0
-7778 7710 0
-7778 131 0
7778 -7710 -131 0
-7779 7712 0
-7779 179 0
7779 -7712 -179 0
-7780 7763 7764 0
-7780 -7763 -7764 0
7780 -7763 7764 0
7780 7763 -7764 0
-7781 7780 7765 0
-7781 -7780 -7765 0
7781 -7780 7765 0
7781 7780 -7765 0
-7782 7781 7766 0
-7782 -7781 -7766 0
7782 -7781 7766 0
7782 7781 -7766 0
-7783 7782 7767 0
-7783 -7782 -7767 0
7783 -7782 7767 0
7783 7782 -7767 0
-7784 7783 7768 0
-7784 -7783 -7768 0
7784 -7783 7768 0
7784 7783 -7768 0
-7785 7784 7769 0
-7785 -7784 -7769 0
7785 -7784 7769 0
7785 7784 -7769 0
-7786 7785 7770 0
-7786 -7785 -7770 0
7786 -7785 7770 0
7786 7785 -7770 0
-7787 7786 7771 0
-7787 -7786 -7771 0
7787 -7786 7771 0
7787 7786 -7771 0
-7788 7787 7772 0
-7788 -7787 -7772 0
7788 -7787 7772 0
7788 7787 -7772 0
-7789 7788 7773 0
-7789 -7788 -7773 0
7789 -7788 7773 0
7789 7788 -7773 0
-7790 7789 7774 0
-7790 -7789 -7774 0
7790 -7789 7774 0
7790 7789 -7774 0
-7791 7790 7775 0
-7791 -7790 -7775 0
7791 -7790 7775 0
7791 7790 -7775 0
-7792 7791 7776 0
-7792 -7791 -7776 0
7792 -7791 7776 0
7792 7791 -7776 0
-7793 7792 7777 0
-7793 -7792 -7777 0
7793 -7792 7777 0
7793 7792 -7777 0
-7794 7793 7778 0
-7794 -7793 -7778 0
7794 -7793 7778 0
7794 7793 -7778 0
-7795 7794 7779 0
-7795 -7794 -7779 0
7795 -7794 7779 0
7795 7794 -7779 0
-7795 0
-7796 7680 0
-7796 36 0
7796 -7680 -36 0
-7797 7682 0
-7797 34 0
7797 -7682 -34 0
-7798 7684 0
-7798 35 0
7798 -7684 -35 0
-7799 7686 0
-7799 35 0
7799 -7686 -35 0
-7800 7688 0
-7800 34 0
7800 -7688 -34 0
-7801 7690 0
-7801 36 0
7801 -7690 -36 0
-7802 7692 0
-7802 45 0
7802 -7692 -45 0
-7803 7694 0
-7803 37 0
7803 -7694 -37 0
-7804 7696 0
-7804 41 0
7804 -7696 -41 0
-7805 7698 0
-7805 41 0
7805 -7698 -41 0
-7806 7700 0
-7806 37 0
7806 -7700 -37 0
-7807 7702 0
-7807 45 0
7807 -7702 -45 0
-7808 7704 0
-7808 84 0
7808 -7704 -84 0
-7809 7706 0
-7809 83 0
7809 -7706 -83 0
-7810 7708 0
-7810 82 0
7810 -7708 -82 0
-7811 7710 0
-7811 132 0
7811 -7710 -132 0
-7812 7712 0
-7812 180 0
7812 -7712 -180 0
-7813 7796 7797 0
-7813 -7796 -7797 0
7813 -7796 7797 0
7813 7796 -7797 0
-7814 7813 7798 0
-7814 -7813 -7798 0
7814 -7813 7798 0
7814 7813 -7798 0
-7815 7814 7799 0
-7815 -7814 -7799 0
7815 -7814 7799 0
7815 7814 -7799 0
-7816 7815 7800 0
-7816 -7815 -7800 0
7816 -7815 7800 0
7816 7815 -7800 0
-7817 7816 7801 0
-7817 -7816 -7801 0
7817 -7816 7801 0
7817 7816 -7801 0
-7818 7817 7802 0
-7818 -7817 -7802 0
7818 -7817 7802 0
7818 7817 -7802 0
-7819 7818 7803 0
-7819 -7818 -7803 0
7819 -7818 7803 0
7819 7818 -7803 0
-7820 7819 7804 0
-7820 -7819 -7804 0
7820 -7819 7804 0
7820 7819 -7804 0
-7821 7820 7805 0
-7821 -7820 -7805 0
7821 -7820 7805 0
7821 7820 -7805 0
-7822 7821 7806 0
-7822 -7821 -7806 0
7822 -7821 7806 0
7822 7821 -7806 0
-7823 7822 7807 0
-7823 -7822 -7807 0
7823 -7822 7807 0
7823 7822 -7807 0
-7824 7823 7808 0
-7824 -7823 -7808 0
7824 -7823 7808 0
7824 7823 -7808 0
-7825 7824 7809 0
-7825 -7824 -7809 0
7825 -7824 7809 0
7825 7824 -7809 0
-7826 7825 7810 0
-7826 -7825 -7810 0
7826 -7825 7810 0
7826 7825 -7810 0
-7827 7826 7811 0
-7827 -7826 -7811 0
7827 -7826 7811 0
7827 7826 -7811 0
-7828 7827 7812 0
-7828 -7827 -7812 0
7828 -7827 7812 0
7828 7827 -7812 0
-7828 0
-7829 7680 0
-7829 37 0
7829 -7680 -37 0
-7830 7682 0
-7830 45 0
7830 -7682 -45 0
-7831 7684 0
-7831 37 0
7831 -7684 -37 0
-7832 7686 0
-7832 45 0
7832 -7686 -45 0
-7833 7688 0
-7833 41 0
7833 -7688 -41 0
-7834 7690 0
-7834 41 0
7834 -7690 -41 0
-7835 7692 0
-7835 34 0
7835 -7692 -34 0
-7836 7694 0
-7836 36 0
7836 -7694 -36 0
-7837 7696 0
-7837 34 0
7837 -7696 -34 0
-7838 7698 0
-7838 36 0
7838 -7698 -36 0
-7839 7700 0
-7839 35 0
7839 -7700 -35 0
-7840 7702 0
-7840 35 0
7840 -7702 -35 0
-7841 7704 0
-7841 85 0
7841 -7704 -85 0
-7842 7706 0
-7842 85 0
7842 -7706 -85 0
-7843 7708 0
-7843 89 0
7843 -7708 -89 0
-7844 7710 0
-7844 133 0
7844 -7710 -133 0
-7845 7712 0
-7845 181 0
7845 -7712 -181 0
-7846 7829 7830 0
-7846 -7829 -7830 0
7846 -7829 7830 0
7846 7829 -7830 0
-7847 7846 7831 0
-7847 -7846 -7831 0
7847 -7846 7831 0
7847 7846 -7831 0
-7848 7847 7832 0
-7848 -7847 -7832 0
7848 -7847 7832 0
7848 7847 -7832 0
-7849 7848 7833 0
-7849 -7848 -7833 0
7849 -7848 7833 0
7849 7848 -7833 0
-7850 7849 7834 0
-7850 -7849 -7834 0
7850 -7849 7834 0
7850 7849 -7834 0
-7851 7850 7835 0
-7851 -7850 -7835 0
7851 -7850 7835 0
7851 7850 -7835 0
-7852 7851 7836 0
-7852 -7851 -7836 0
7852 -7851 7836 0
7852 7851 -7836 0
-7853 7852 7837 0
-7853 -7852 -7837 0
7853 -7852 7837 0
7853 7852 -7837 0
-7854 7853 7838 0
-7854 -7853 -7838 0
7854 -7853 7838 0
7854 7853 -7838 0
-7855 7854 7839 0
-7855 -7854 -7839 0
7855 -7854 7839 0
7855 7854 -7839 0
-7856 7855 7840 0
-7856 -7855 -7840 0
7856 -7855 7840 0
7856 7855 -7840 0
-7857 7856 7841 0
-7857 -7856 -7841 0
7857 -7856 7841 0
7857 7856 -7841 0
-7858 7857 7842 0
-7858 -7857 -7842 0
7858 -7857 7842 0
7858 7857 -7842 0
-7859 7858 7843 0
-7859 -7858 -7843 0
7859 -7858 7843 0
7859 7858 -7843 0
-7860 7859 7844 0
-7860 -7859 -7844 0
7860 -7859 7844 0
7860 7859 -7844 0
-7861 7860 7845 0
-7861 -7860 -7845 0
7861 -7860 7845 0
7861 7860 -7845 0
-7861 0
-7862 7680 0
-7862 38 0
7862 -7680 -38 0
-7863 7682 0
-7863 48 0
7863 -7682 -48 0
-7864 7684 0
-7864 38 0
7864 -7684 -38 0
-7865 7686 0
-7865 48 0
7865 -7686 -48 0
-7866 7688 0
-7866 43 0
7866 -7688 -43 0
-7867 7690 0
-7867 43 0
7867 -7690 -43 0
-7868 7692 0
-7868 38 0
7868 -7692 -38 0
-7869 7694 0
-7869 48 0
7869 -7694 -48 0
-7870 7696 0
-7870 38 0
7870 -7696 -38 0
-7871 7698 0
-7871 48 0
7871 -7698 -48 0
-7872 7700 0
-7872 43 0
7872 -7700 -43 0
-7873 7702 0
-7873 43 0
7873 -7702 -43 0
-7874 7704 0
-7874 86 0
7874 -7704 -86 0
-7875 7706 0
-7875 86 0
7875 -7706 -86 0
-7876 7708 0
-7876 91 0
7876 -7708 -91 0
-7877 7710 0
-7877 134 0
7877 -7710 -134 0
-7878 7712 0
-7878 182 0
7878 -7712 -182 0
-7879 7862 7863 0
-7879 -7862 -7863 0
7879 -7862 7863 0
7879 7862 -7863 0
-7880 7879 7864 0
-7880 -7879 -7864 0
7880 -7879 7864 0
7880 7879 -7864 0
-7881 7880 7865 0
-7881 -7880 -7865 0
7881 -7880 7865 0
7881 7880 -7865 0
-7882 7881 7866 0
-7882 -7881 -7866 0
7882 -7881 7866 0
7882 7881 -7866 0
-7883 7882 7867 0
-7883 -7882 -7867 0
7883 -7882 7867 0
7883 7882 -7867 0
-7884 7883 7868 0
-7884 -7883 -7868 0
7884 -7883 7868 0
7884 7883 -7868 0
-7885 7884 7869 0
-7885 -7884 -7869 0
7885 -7884 7869 0
7885 7884 -7869 0
-7886 7885 7870 0
-7886 -7885 -7870 0
7886 -7885 7870 0
7886 7885 -7870 0
-7887 7886 7871 0
-7887 -7886 -7871 0
7887 -7886 7871 0
7887 7886 -7871 0
-7888 7887 7872 0
-7888 -7887 -7872 0
7888 -7887 7872 0
7888 7887 -7872 0
-7889 7888 7873 0
-7889 -7888 -7873 0
7889 -7888 7873 0
7889 7888 -7873 0
-7890 7889 7874 0
-7890 -7889 -7874 0
7890 -7889 7874 0
7890 7889 -7874 0
-7891 7890 7875 0
-7891 -7890 -7875 0
7891 -7890 7875 0
7891 7890 -7875 0
-7892 7891 7876 0
-7892 -7891 -7876 0
7892 -7891 7876 0
7892 7891 -7876 0
-7893 7892 7877 0
-7893 -7892 -7877 0
7893 -7892 7877 0
7893 7892 -7877 0
-7894 7893 7878 0
-7894 -7893 -7878 0
7894 -7893 7878 0
7894 7893 -7878 0
-7894 0
-7895 7680 0
-7895 39 0
7895 -7680 -39 0
-7896 7682 0
-7896 47 0
7896 -7682 -47 0
-7897 7684 0
-7897 40 0
7897 -7684 -40 0
-7898 7686 0
-7898 46 0
7898 -7686 -46 0
-7899 7688 0
-7899 44 0
7899 -7688 -44 0
-7900 7690 0
-7900 42 0
7900 -7690 -42 0
-7901 7692 0
-7901 42 0
7901 -7692 -42 0
-7902 7694 0
-7902 44 0
7902 -7694 -44 0
-7903 7696 0
-7903 46 0
7903 -7696 -46 0
-7904 7698 0
-7904 40 0
7904 -7698 -40 0
-7905 7700 0
-7905 47 0
7905 -7700 -47 0
-7906 7702 0
-7906 39 0
7906 -7702 -39 0
-7907 7704 0
-7907 87 0
7907 -7704 -87 0
-7908 7706 0
-7908 88 0
7908 -7706 -88 0
-7909 7708 0
-7909 92 0
7909 -7708 -92 0
-7910 7710 0
-7910 135 0
7910 -7710 -135 0
-7911 7712 0
-7911 183 0
7911 -7712 -183 0
-7912 7895 7896 0
-7912 -7895 -7896 0
7912 -7895 7896 0
7912 7895 -7896 0
-7913 7912 7897 0
-7913 -7912 -7897 0
7913 -7912 7897 0
7913 7912 -7897 0
-7914 7913 7898 0
-7914 -7913 -7898 0
7914 -7913 7898 0
7914 7913 -7898 0
-7915 7914 7899 0
-7915 -7914 -7899 0
7915 -7914 7899 0
7915 7914 -7899 0
-7916 7915 7900 0
-7916 -7915 -7900 0
7916 -7915 7900 0
7916 7915 -7900 0
-7917 7916 7901 0
-7917 -7916 -7901 0
7917 -7916 7901 0
7917 7916 -7901 0
-7918 7917 7902 0
-7918 -7917 -7902 0
7918 -7917 7902 0
7918 7917 -7902 0
-7919 7918 7903 0
-7919 -7918 -7903 0
7919 -7918 7903 0
7919 7918 -7903 0
-7920 7919 7904 0
-7920 -7919 -7904 0
7920 -7919 7904 0
7920 7919 -7904 0
-7921 7920 7905 0
-7921 -7920 -7905 0
7921 -7920 7905 0
7921 7920 -7905 0
-7922 7921 7906 0
-7922 -7921 -7906 0
7922 -7921 7906 0
7922 7921 -7906 0
-7923 7922 7907 0
-7923 -7922 -7907 0
7923 -7922 7907 0
7923 7922 -7907 0
-7924 7923 7908 0
-7924 -7923 -7908 0
7924 -7923 7908 0
7924 7923 -7908 0
-7925 7924 7909 0
-7925 -7924 -7909 0
7925 -7924 7909 0
7925 7924 -7909 0
-7926 7925 7910 0
-7926 -7925 -7910 0
7926 -7925 7910 0
7926 7925 -7910 0
-7927 7926 7911 0
-7927 -7926 -7911 0
7927 -7926 7911 0
7927 7926 -7911 0
-7927 0
-7928 7680 0
-7928 40 0
7928 -7680 -40 0
-7929 7682 0
-7929 46 0
7929 -7682 -46 0
-7930 7684 0
-7930 39 0
7930 -7684 -39 0
-7931 7686 0
-7931 47 0
7931 -7686 -47 0
-7932 7688 0
-7932 42 0
7932 -7688 -42 0
-7933 7690 0
-7933 44 0
7933 -7690 -44 0
-7934 7692 0
-7934 46 0
7934 -7692 -46 0
-7935 7694 0
-7935 40 0
7935 -7694 -40 0
-7936 7696 0
-7936 42 0
7936 -7696 -42 0
-7937 7698 0
-7937 44 0
7937 -7698 -44 0
-7938 7700 0
-7938 39 0
7938 -7700 -39 0
-7939 7702 0
-7939 47 0
7939 -7702 -47 0
-7940 7704 0
-7940 88 0
7940 -7704 -88 0
-7941 7706 0
-7941 87 0
7941 -7706 -87 0
-7942 7708 0
-7942 90 0
7942 -7708 -90 0
-7943 7710 0
-7943 136 0
7943 -7710 -136 0
-7944 7712 0
-7944 184 0
7944 -7712 -184 0
-7945 7928 7929 0
-7945 -7928 -7929 0
7945 -7928 7929 0
7945 7928 -7929 0
-7946 7945 7930 0
-7946 -7945 -7930 0
7946 -7945 7930 0
7946 7945 -7930 0
-7947 7946 7931 0
-7947 -7946 -7931 0
7947 -7946 7931 0
7947 7946 -7931 0
-7948 7947 7932 0
-7948 -7947 -7932 0
7948 -7947 7932 0
7948 7947 -7932 0
-7949 7948 7933 0
-7949 -7948 -7933 0
7949 -7948 7933 0
7949 7948 -7933 0
-7950 7949 7934 0
-7950 -7949 -7934 0
7950 -7949 7934 0
7950 7949 -7934 0
-7951 7950 7935 0
-7951 -7950 -7935 0
7951 -7950 7935 0
7951 7950 -7935 0
-7952 7951 7936 0
-7952 -7951 -7936 0
7952 -7951 7936 0
7952 7951 -7936 0
-7953 7952 7937 0
-7953 -7952 -7937 0
7953 -7952 7937 0
7953 7952 -7937 0
-7954 7953 7938 0
-7954 -7953 -7938 0
7954 -7953 7938 0
7954 7953 -7938 0
-7955 7954 7939 0
-7955 -7954 -7939 0
7955 -7954 7939 0
7955 7954 -7939 0
-7956 7955 7940 0
-7956 -7955 -7940 0
7956 -7955 7940 0
7956 7955 -7940 0
-7957 7956 7941 0
-7957 -7956 -7941 0
7957 -7956 7941 0
7957 7956 -7941 0
-7958 7957 7942 0
-7958 -7957 -7942 0
7958 -7957 7942 0
7958 7957 -7942 0
-7959 7958 7943 0
-7959 -7958 -7943 0
7959 -7958 7943 0
7959 7958 -7943 0
-7960 7959 7944 0
-7960 -7959 -7944 0
7960 -7959 7944 0
7960 7959 -7944 0
-7960 0
-7961 7680 0
-7961 41 0
7961 -7680 -41 0
-7962 7682 0
-7962 41 0
7962 -7682 -41 0
-7963 7684 0
-7963 45 0
7963 -7684 -45 0
-7964 7686 0
-7964 37 0
7964 -7686 -37 0
-7965 7688 0
-7965 45 0
7965 -7688 -45 0
-7966 7690 0
-7966 37 0
7966 -7690 -37 0
-7967 7692 0
-7967 35 0
7967 -7692 -35 0
-7968 7694 0
-7968 35 0
7968 -7694 -35 0
-7969 7696 0
-7969 36 0
7969 -7696 -36 0
-7970 7698 0
-7970 34 0
7970 -7698 -34 0
-7971 7700 0
-7971 36 0
7971 -7700 -36 0
-7972 7702 0
-7972 34 0
7972 -7702 -34 0
-7973 7704 0
-7973 89 0
7973 -7704 -89 0
-7974 7706 0
-7974 93 0
7974 -7706 -93 0
-7975 7708 0
-7975 93 0
7975 -7708 -93 0
-7976 7710 0
-7976 137 0
7976 -7710 -137 0
-7977 7712 0
-7977 185 0
7977 -7712 -185 0
-7978 7961 7962 0
-7978 -7961 -7962 0
7978 -7961 7962 0
7978 7961 -7962 0
-7979 7978 7963 0
-7979 -7978 -7963 0
7979 -7978 7963 0
7979 7978 -7963 0
-7980 7979 7964 0
-7980 -7979 -7964 0
7980 -7979 7964 0
7980 7979 -7964 0
-7981 7980 7965 0
-7981 -7980 -7965 0
7981 -7980 7965 0
7981 7980 -7965 0
-7982 7981 7966 0
-7982 -7981 -7966 0
7982 -7981 7966 0
7982 7981 -7966 0
-7983 7982 7967 0
-7983 -7982 -7967 0
7983 -7982 7967 0
7983 7982 -7967 0
-7984 7983 7968 0
-7984 -7983 -7968 0
7984 -7983 7968 0
7984 7983 -7968 0
-7985 7984 7969 0
-7985 -7984 -7969 0
7985 -7984 7969 0
7985 7984 -7969 0
-7986 7985 7970 0
-7986 -7985 -7970 0
7986 -7985 7970 0
7986 7985 -7970 0
-7987 7986 7971 0
-7987 -7986 -7971 0
7987 -7986 7971 0
7987 7986 -7971 0
-7988 7987 7972 0
-7988 -7987 -7972 0
7988 -7987 7972 0
7988 7987 -7972 0
-7989 7988 7973 0
-7989 -7988 -7973 0
7989 -7988 7973 0
7989 7988 -7973 0
-7990 7989 7974 0
-7990 -7989 -7974 0
7990 -7989 7974 0
7990 7989 -7974 0
-7991 7990 7975 0
-7991 -7990 -7975 0
7991 -7990 7975 0
7991 7990 -7975 0
-7992 7991 7976 0
-7992 -7991 -7976 0
7992 -7991 7976 0
7992 7991 -7976 0
-7993 7992 7977 0
-7993 -7992 -7977 0
7993 -7992 7977 0
7993 7992 -7977 0
-7993 0
-7994 7680 0
-7994 42 0
7994 -7680 -42 0
-7995 7682 0
-7995 44 0
7995 -7682 -44 0
-7996 7684 0
-7996 46 0
7996 -7684 -46 0
-7997 7686 0
-7997 40 0
7997 -7686 -40 0
-7998 7688 0
-7998 47 0
7998 -7688 -47 0
-7999 7690 0
-7999 39 0
7999 -7690 -39 0
-8000 7692 0
-8000 39 0
8000 -7692 -39 0
-8001 7694 0
-8001 47 0
8001 -7694 -47 0
-8002 7696 0
-8002 40 0
8002 -7696 -40 0
-8003 7698 0
-8003 46 0
8003 -7698 -46 0
-8004 7700 0
-8004 44 0
8004 -7700 -44 0
-8005 7702 0
-8005 42 0
8005 -7702 -42 0
-8006 7704 0
-8006 90 0
8006 -7704 -90 0
-8007 7706 0
-8007 94 0
8007 -7706 -94 0
-8008 7708 0
-8008 95 0
8008 -7708 -95 0
-8009 7710 0
-8009 138 0
8009 -7710 -138 0
-8010 7712 0
-8010 186 0
8010 -7712 -186 0
-8011 7994 7995 0
-8011 -7994 -7995 0
8011 -7994 7995 0
8011 7994 -7995 0
-8012 8011 7996 0
-8012 -8011 -7996 0
8012 -8011 7996 0
8012 8011 -7996 0
-8013 8012 7997 0
-8013 -8012 -7997 0
8013 -8012 7997 0
8013 8012 -7997 0
-8014 8013 7998 0
-8014 -8013 -7998 0
8014 -8013 7998 0
8014 8013 -7998 0
-8015 8014 7999 0
-8015 -8014 -7999 0
8015 -8014 7999 0
8015 8014 -7999 0
-8016 8015 8000 0
-8016 -8015 -8000 0
8016 -8015 8000 0
8016 8015 -8000 0
-8017 8016 8001 0
-8017 -8016 -8001 0
8017 -8016 8001 0
8017 8016 -8001 0
-8018 8017 8002 0
-8018 -8017 -8002 0
8018 -8017 8002 0
8018 8017 -8002 0
-8019 8018 8003 0
-8019 -8018 -8003 0
8019 -8018 8003 0
8019 8018 -8003 0
-8020 8019 8004 0
-8020 -8019 -8004 0
8020 -8019 8004 0
8020 8019 -8004 0
-8021 8020 8005 0
-8021 -8020 -8005 0
8021 -8020 8005 0
8021 8020 -8005 0
-8022 8021 8006 0
-8022 -8021 -8006 0
8022 -8021 8006 0
8022 8021 -8006 0
-8023 8022 8007 0
-8023 -8022 -8007 0
8023 -8022 8007 0
8023 8022 -8007 0
-8024 8023 8008 0
-8024 -8023 -8008 0
8024 -8023 8008 0
8024 8023 -8008 0
-8025 8024 8009 0
-8025 -8024 -8009 0
8025 -8024 8009 0
8025 8024 -8009 0
-8026 8025 8010 0
-8026 -8025 -8010 0
8026 -8025 8010 0
8026 8025 -8010 0
-8026 0
-8027 7680 0
-8027 43 0
8027 -7680 -43 0
-8028 7682 0
-8028 43 0
8028 -7682 -43 0
-8029 7684 0
-8029 48 0
8029 -7684 -48 0
-8030 7686 0
-8030 38 0
8030 -7686 -38 0
-8031 7688 0
-8031 48 0
8031 -7688 -48 0
-8032 7690 0
-8032 38 0
8032 -7690 -38 0
-8033 7692 0
-8033 43 0
8033 -7692 -43 0
-8034 7694 0
-8034 43 0
8034 -7694 -43 0
-8035 7696 0
-8035 48 0
8035 -7696 -48 0
-8036 7698 0
-8036 38 0
8036 -7698 -38 0
-8037 7700 0
-8037 48 0
8037 -7700 -48 0
-8038 7702 0
-8038 38 0
8038 -7702 -38 0
-8039 7704 0
-8039 91 0
8039 -7704 -91 0
-8040 7706 0
-8040 96 0
8040 -7706 -96 0
-8041 7708 0
-8041 96 0
8041 -7708 -96 0
-8042 7710 0
-8042 139 0
8042 -7710 -139 0
-8043 7712 0
-8043 187 0
8043 -7712 -187 0
-8044 8027 8028 0
-8044 -8027 -8028 0
8044 -8027 8028 0
8044 8027 -8028 0
-8045 8044 8029 0
-8045 -8044 -8029 0
8045 -8044 8029 0
8045 8044 -8029 0
-8046 8045 8030 0
-8046 -8045 -8030 0
8046 -8045 8030 0
8046 8045 -8030 0
-8047 8046 8031 0
-8047 -8046 -8031 0
8047 -8046 8031 0
8047 8046 -8031 0
-8048 8047 8032 0
-8048 -8047 -8032 0
8048 -8047 8032 0
8048 8047 -8032 0
-8049 8048 8033 0
-8049 -8048 -8033 0
8049 -8048 8033 0
8049 8048 -8033 0
-8050 8049 8034 0
-8050 -8049 -8034 0
8050 -8049 8034 0
8050 8049 -8034 0
-8051 8050 8035 0
-8051 -8050 -8035 0
8051 -8050 8035 0
8051 8050 -8035 0
-8052 8051 8036 0
-8052 -8051 -8036 0
8052 -8051 8036 0
8052 8051 -8036 0
-8053 8052 8037 0
-8053 -8052 -8037 0
8053 -8052 8037 0
8053 8052 -8037 0
-8054 8053 8038 0
-8054 -8053 -8038 0
8054 -8053 8038 0
8054 8053 -8038 0
-8055 8054 8039 0
-8055 -8054 -8039 0
8055 -8054 8039 0
8055 8054 -8039 0
-8056 8055 8040 0
-8056 -8055 -8040 0
8056 -8055 8040 0
8056 8055 -8040 0
-8057 8056 8041 0
-8057 -8056 -8041 0
8057 -8056 8041 0
8057 8056 -8041 0
-8058 8057 8042 0
-8058 -8057 -8042 0
8058 -8057 8042 0
8058 8057 -8042 0
-8059 8058 8043 0
-8059 -8058 -8043 0
8059 -8058 8043 0
8059 8058 -8043 0
-8059 0
-8060 7680 0
-8060 44 0
8060 -7680 -44 0
-8061 7682 0
-8061 42 0
8061 -7682 -42 0
-8062 7684 0
-8062 47 0
8062 -7684 -47 0
-8063 7686 0
-8063 39 0
8063 -7686 -39 0
-8064 7688 0
-8064 46 0
8064 -7688 -46 0
-8065 7690 0
-8065 40 0
8065 -7690 -40 0
-8066 7692 0
-8066 47 0
8066 -7692 -47 0
-8067 7694 0
-8067 39 0
8067 -7694 -39 0
-8068 7696 0
-8068 44 0
8068 -7696 -44 0
-8069 7698 0
-8069 42 0
8069 -7698 -42 0
-8070 7700 0
-8070 40 0
8070 -7700 -40 0
-8071 7702 0
-8071 46 0
8071 -7702 -46 0
-8072 7704 0
-8072 92 0
8072 -7704 -92 0
-8073 7706 0
-8073 95 0
8073 -7706 -95 0
-8074 7708 0
-8074 94 0
8074 -7708 -94 0
-8075 7710 0
-8075 140 0
8075 -7710 -140 0
-8076 7712 0
-8076 188 0
8076 -7712 -188 0
-8077 8060 8061 0
-8077 -8060 -8061 0
8077 -8060 8061 0
8077 8060 -8061 0
-8078 8077 8062 0
-8078 -8077 -8062 0
8078 -8077 8062 0
8078 8077 -8062 0
-8079 8078 8063 0
-8079 -8078 -8063 0
8079 -8078 8063 0
8079 8078 -8063 0
-8080 8079 8064 0
-8080 -8079 -8064 0
8080 -8079 8064 0
8080 8079 -8064 0
-8081 8080 8065 0
-8081 -8080 -8065 0
8081 -8080 8065 0
8081 8080 -8065 0
-8082 8081 8066 0
-8082 -8081 -8066 0
8082 -8081 8066 0
8082 8081 -8066 0
-8083 8082 8067 0
-8083 -8082 -8067 0
8083 -8082 8067 0
8083 8082 -8067 0
-8084 8083 8068 0
-8084 -8083 -8068 0
8084 -8083 8068 0
8084 8083 -8068 0
-8085 8084 8069 0
-8085 -8084 -8069 0
8085 -8084 8069 0
8085 8084 -8069 0
-8086 8085 8070 0
-8086 -8085 -8070 0
8086 -8085 8070 0
8086 8085 -8070 0
-8087 8086 8071 0
-8087 -8086 -8071 0
8087 -8086 8071 0
8087 8086 -8071 0
-8088 8087 8072 0
-8088 -8087 -8072 0
8088 -8087 8072 0
8088 8087 -8072 0
-8089 8088 8073 0
-8089 -8088 -8073 0
8089 -8088 8073 0
8089 8088 -8073 0
-8090 8089 8074 0
-8090 -8089 -8074 0
8090 -8089 8074 0
8090 8089 -8074 0
-8091 8090 8075 0
-8091 -8090 -8075 0
8091 -8090 8075 0
8091 8090 -8075 0
-8092 8091 8076 0
-8092 -8091 -8076 0
8092 -8091 8076 0
8092 8091 -8076 0
-8092 0
-8093 7680 0
-8093 45 0
8093 -7680 -45 0
-8094 7682 0
-8094 37 0
8094 -7682 -37 0
-8095 7684 0
-8095 41 0
8095 -7684 -41 0
-8096 7686 0
-8096 41 0
8096 -7686 -41 0
-8097 7688 0
-8097 37 0
8097 -7688 -37 0
-8098 7690 0
-8098 45 0
8098 -7690 -45 0
-8099 7692 0
-8099 36 0
8099 -7692 -36 0
-8100 7694 0
-8100 34 0
8100 -7694 -34 0
-8101 7696 0
-8101 35 0
8101 -7696 -35 0
-8102 7698 0
-8102 35 0
8102 -7698 -35 0
-8103 7700 0
-8103 34 0
8103 -7700 -34 0
-8104 7702 0
-8104 36 0
8104 -7702 -36 0
-8105 7704 0
-8105 93 0
8105 -7704 -93 0
-8106 7706 0
-8106 89 0
8106 -7706 -89 0
-8107 7708 0
-8107 85 0
8107 -7708 -85 0
-8108 7710 0
-8108 141 0
8108 -7710 -141 0
-8109 7712 0
-8109 189 0
8109 -7712 -189 0
-8110 8093 8094 0
-8110 -8093 -8094 0
8110 -8093 8094 0
8110 8093 -8094 0
-8111 8110 8095 0
-8111 -8110 -8095 0
8111 -8110 8095 0
8111 8110 -8095 0
-8112 8111 8096 0
-8112 -8111 -8096 0
8112 -8111 8096 0
8112 8111 -8096 0
-8113 8112 8097 0
-8113 -8112 -8097 0
8113 -8112 8097 0
8113 8112 -8097 0
-8114 8113 8098 0
-8114 -8113 -8098 0
8114 -8113 8098 0
8114 8113 -8098 0
-8115 8114 8099 0
-8115 -8114 -8099 0
8115 -8114 8099 0
8115 8114 -8099 0
-8116 8115 8100 0
-8116 -8115 -8100 0
8116 -8115 8100 0
8116 8115 -8100 0
-8117 8116 8101 0
-8117 -8116 -8101 0
8117 -8116 8101 0
8117 8116 -8101 0
-8118 8117 8102 0
-8118 -8117 -8102 0
8118 -8117 8102 0
8118 8117 -8102 0
-8119 8118 8103 0
-8119 -8118 -8103 0
8119 -8118 8103 0
8119 8118 -8103 0
-8120 8119 8104 0
-8120 -8119 -8104 0
8120 -8119 8104 0
8120 8119 -8104 0
-8121 8120 8105 0
-8121 -8120 -8105 0
8121 -8120 8105 0
8121 8120 -8105 0
-8122 8121 8106 0
-8122 -8121 -8106 0
8122 -8121 8106 0
8122 8121 -8106 0
-8123 8122 8107 0
-8123 -8122 -8107 0
8123 -8122 8107 0
8123 8122 -8107 0
-8124 8123 8108 0
-8124 -8123 -8108 0
8124 -8123 8108 0
8124 8123 -8108 0
-8125 8124 8109 0
-8125 -8124 -8109 0
8125 -8124 8109 0
8125 8124 -8109 0
-8125 0
-8126 7680 0
-8126 46 0
8126 -7680 -46 0
-8127 7682 0
-8127 40 0
8127 -7682 -40 0
-8128 7684 0
-8128 42 0
8128 -7684 -42 0
-8129 7686 0
-8129 44 0
8129 -7686 -44 0
-8130 7688 0
-8130 39 0
8130 -7688 -39 0
-8131 7690 0
-8131 47 0
8131 -7690 -47 0
-8132 7692 0
-8132 40 0
8132 -7692 -40 0
-8133 7694 0
-8133 46 0
8133 -7694 -46 0
-8134 7696 0
-8134 39 0
8134 -7696 -39 0
-8135 7698 0
-8135 47 0
8135 -7698 -47 0
-8136 7700 0
-8136 42 0
8136 -7700 -42 0
-8137 7702 0
-8137 44 0
8137 -7702 -44 0
-8138 7704 0
-8138 94 0
8138 -7704 -94 0
-8139 7706 0
-8139 90 0
8139 -7706 -90 0
-8140 7708 0
-8140 87 0
8140 -7708 -87 0
-8141 7710 0
-8141 142 0
8141 -7710 -142 0
-8142 7712 0
-8142 190 0
8142 -7712 -190 0
-8143 8126 8127 0
-8143 -8126 -8127 0
8143 -8126 8127 0
8143 8126 -8127 0
-8144 8143 8128 0
-8144 -8143 -8128 0
8144 -8143 8128 0
8144 8143 -8128 0
-8145 8144 8129 0
-8145 -8144 -8129 0
8145 -8144 8129 0
8145 8144 -8129 0
-8146 8145 8130 0
-8146 -8145 -8130 0
8146 -8145 8130 0
8146 8145 -8130 0
-8147 8146 8131 0
-8147 -8146 -8131 0
8147 -8146 8131 0
8147 8146 -8131 0
-8148 8147 8132 0
-8148 -8147 -8132 0
8148 -8147 8132 0
8148 8147 -8132 0
-8149 8148 8133 0
-8149 -8148 -8133 0
8149 -8148 8133 0
8149 8148 -8133 0
-8150 8149 8134 0
-8150 -8149 -8134 0
8150 -8149 8134 0
8150 8149 -8134 0
-8151 8150 8135 0
-8151 -8150 -8135 0
8151 -8150 8135 0
8151 8150 -8135 0
-8152 8151 8136 0
-8152 -8151 -8136 0
8152 -8151 8136 0
8152 8151 -8136 0
-8153 8152 8137 0
-8153 -8152 -8137 0
8153 -8152 8137 0
8153 8152 -8137 0
-8154 8153 8138 0
-8154 -8153 -8138 0
8154 -8153 8138 0
8154 8153 -8138 0
-8155 8154 8139 0
-8155 -8154 -8139 0
8155 -8154 8139 0
8155 8154 -8139 0
-8156 8155 8140 0
-8156 -8155 -8140 0
8156 -8155 8140 0
8156 8155 -8140 0
-8157 8156 8141 0
-8157 -8156 -8141 0
8157 -8156 8141 0
8157 8156 -8141 0
-8158 8157 8142 0
-8158 -8157 -8142 0
8158 -8157 8142 0
8158 8157 -8142 0
-8158 0
-8159 7680 0
-8159 47 0
8159 -7680 -47 0
-8160 7682 0
-8160 39 0
8160 -7682 -39 0
-8161 7684 0
-8161 44 0
8161 -7684 -44 0
-8162 7686 0
-8162 42 0
8162 -7686 -42 0
-8163 7688 0
-8163 40 0
8163 -7688 -40 0
-8164 7690 0
-8164 46 0
8164 -7690 -46 0
-8165 7692 0
-8165 44 0
8165 -7692 -44 0
-8166 7694 0
-8166 42 0
8166 -7694 -42 0
-8167 7696 0
-8167 47 0
8167 -7696 -47 0
-8168 7698 0
-8168 39 0
8168 -7698 -39 0
-8169 7700 0
-8169 46 0
8169 -7700 -46 0
-8170 7702 0
-8170 40 0
8170 -7702 -40 0
-8171 7704 0
-8171 95 0
8171 -7704 -95 0
-8172 7706 0
-8172 92 0
8172 -7706 -92 0
-8173 7708 0
-8173 88 0
8173 -7708 -88 0
-8174 7710 0
-8174 143 0
8174 -7710 -143 0
-8175 7712 0
-8175 191 0
8175 -7712 -191 0
-8176 8159 8160 0
-8176 -8159 -8160 0
8176 -8159 8160 0
8176 8159 -8160 0
-8177 8176 8161 0
-8177 -8176 -8161 0
8177 -8176 8161 0
8177 8176 -8161 0
-8178 8177 8162 0
-8178 -8177 -8162 0
8178 -8177 8162 0
8178 8177 -8162 0
-8179 8178 8163 0
-8179 -8178 -8163 0
8179 -8178 8163 0
8179 8178 -8163 0
-8180 8179 8164 0
-8180 -8179 -8164 0
8180 -8179 8164 0
8180 8179 -8164 0
-8181 8180 8165 0
-8181 -8180 -8165 0
8181 -8180 8165 0
8181 8180 -8165 0
-8182 8181 8166 0
-8182 -8181 -8166 0
8182 -8181 8166 0
8182 8181 -8166 0
-8183 8182 8167 0
-8183 -8182 -8167 0
8183 -8182 8167 0
8183 8182 -8167 0
-8184 8183 8168 0
-8184 -8183 -8168 0
8184 -8183 8168 0
8184 8183 -8168 0
-8185 8184 8169 0
-8185 -8184 -8169 0
8185 -8184 8169 0
8185 8184 -8169 0
-8186 8185 8170 0
-8186 -8185 -8170 0
8186 -8185 8170 0
8186 8185 -8170 0
-8187 8186 8171 0
-8187 -8186 -8171 0
8187 -8186 8171 0
8187 8186 -8171 0
-8188 8187 8172 0
-8188 -8187 -8172 0
8188 -8187 8172 0
8188 8187 -8172 0
-8189 8188 8173 0
-8189 -8188 -8173 0
8189 -8188 8173 0
8189 8188 -8173 0
-8190 8189 8174 0
-8190 -8189 -8174 0
8190 -8189 8174 0
8190 8189 -8174 0
-8191 8190 8175 0
-8191 -8190 -8175 0
8191 -8190 8175 0
8191 8190 -8175 0
-8191 0
-8192 7680 0
-8192 48 0
8192 -7680 -48 0
-8193 7682 0
-8193 38 0
8193 -7682 -38 0
-8194 7684 0
-8194 43 0
8194 -7684 -43 0
-8195 7686 0
-8195 43 0
8195 -7686 -43 0
-8196 7688 0
-8196 38 0
8196 -7688 -38 0
-8197 7690 0
-8197 48 0
8197 -7690 -48 0
-8198 7692 0
-8198 48 0
8198 -7692 -48 0
-8199 7694 0
-8199 38 0
8199 -7694 -38 0
-8200 7696 0
-8200 43 0
8200 -7696 -43 0
-8201 7698 0
-8201 43 0
8201 -7698 -43 0
-8202 7700 0
-8202 38 0
8202 -7700 -38 0
-8203 7702 0
-8203 48 0
8203 -7702 -48 0
-8204 7704 0
-8204 96 0
8204 -7704 -96 0
-8205 7706 0
-8205 91 0
8205 -7706 -91 0
-8206 7708 0
-8206 86 0
8206 -7708 -86 0
-8207 7710 0
-8207 144 0
8207 -7710 -144 0
-8208 7712 0
-8208 192 0
8208 -7712 -192 0
-8209 8192 8193 0
-8209 -8192 -8193 0
8209 -8192 8193 0
8209 8192 -8193 0
-8210 8209 8194 0
-8210 -8209 -8194 0
8210 -8209 8194 0
8210 8209 -8194 0
-8211 8210 8195 0
-8211 -8210 -8195 0
8211 -8210 8195 0
8211 8210 -8195 0
-8212 8211 8196 0
-8212 -8211 -8196 0
8212 -8211 8196 0
8212 8211 -8196 0
-8213 8212 8197 0
-8213 -8212 -8197 0
8213 -8212 8197 0
8213 8212 -8197 0
-8214 8213 8198 0
-8214 -8213 -8198 0
8214 -8213 8198 0
8214 8213 -8198 0
-8215 8214 8199 0
-8215 -8214 -8199 0
8215 -8214 8199 0
8215 8214 -8199 0
-8216 8215 8200 0
-8216 -8215 -8200 0
8216 -8215 8200 0
8216 8215 -8200 0
-8217 8216 8201 0
-8217 -8216 -8201 0
8217 -8216 8201 0
8217 8216 -8201 0
-8218 8217 8202 0
-8218 -8217 -8202 0
8218 -8217 8202 0
8218 8217 -8202 0
-8219 8218 8203 0
-8219 -8218 -8203 0
8219 -8218 8203 0
8219 8218 -8203 0
-8220 8219 8204 0
-8220 -8219 -8204 0
8220 -8219 8204 0
8220 8219 -8204 0
-8221 8220 8205 0
-8221 -8220 -8205 0
8221 -8220 8205 0
8221 8220 -8205 0
-8222 8221 8206 0
-8222 -8221 -8206 0
8222 -8221 8206 0
8222 8221 -8206 0
-8223 8222 8207 0
-8223 -8222 -8207 0
8223 -8222 8207 0
8223 8222 -8207 0
-8224 8223 8208 0
-8224 -8223 -8208 0
8224 -8223 8208 0
8224 8223 -8208 0
-8224 0
-8225 5 0
-8225 26 0
8225 -5 -26 0
-8226 8225 0
-8226 33 0
8226 -8225 -33 0
-8227 13 0
-8227 24 0
8227 -13 -24 0
-8228 8227 0
-8228 33 0
8228 -8227 -33 0
-8229 6 0
-8229 26 0
8229 -6 -26 0
-8230 8229 0
-8230 33 0
8230 -8229 -33 0
-8231 15 0
-8231 24 0
8231 -15 -24 0
-8232 8231 0
-8232 33 0
8232 -8231 -33 0
-8233 10 0
-8233 19 0
8233 -10 -19 0
-8234 8233 0
-8234 33 0
8234 -8233 -33 0
-8235 11 0
-8235 19 0
8235 -11 -19 0
-8236 8235 0
-8236 33 0
8236 -8235 -33 0
-8237 18 0
-8237 7 0
8237 -18 -7 0
-8238 8237 0
-8238 33 0
8238 -8237 -33 0
-8239 20 0
-8239 14 0
8239 -20 -14 0
-8240 8239 0
-8240 33 0
8240 -8239 -33 0
-8241 22 0
-8241 7 0
8241 -22 -7 0
-8242 8241 0
-8242 33 0
8242 -8241 -33 0
-8243 28 0
-8243 14 0
8243 -28 -14 0
-8244 8243 0
-8244 33 0
8244 -8243 -33 0
-8245 23 0
-8245 9 0
8245 -23 -9 0
-8246 8245 0
-8246 33 0
8246 -8245 -33 0
-8247 27 0
-8247 9 0
8247 -27 -9 0
-8248 8247 0
-8248 33 0
8248 -8247 -33 0
-8249 53 0
-8249 74 0
8249 -53 -74 0
-8250 8249 0
-8250 81 0
8250 -8249 -81 0
-8251 54 0
-8251 74 0
8251 -54 -74 0
-8252 8251 0
-8252 81 0
8252 -8251 -81 0
-8253 58 0
-8253 67 0
8253 -58 -67 0
-8254 8253 0
-8254 81 0
8254 -8253 -81 0
-8255 101 0
-8255 122 0
8255 -101 -122 0
-8256 8255 0
-8256 129 0
8256 -8255 -129 0
-8257 149 0
-8257 170 0
8257 -149 -170 0
-8258 8257 0
-8258 177 0
8258 -8257 -177 0
-8259 8226 8228 0
-8259 -8226 -8228 0
8259 -8226 8228 0
8259 8226 -8228 0
-8260 8259 8230 0
-8260 -8259 -8230 0
8260 -8259 8230 0
8260 8259 -8230 0
-8261 8260 8232 0
-8261 -8260 -8232 0
8261 -8260 8232 0
8261 8260 -8232 0
-8262 8261 8234 0
-8262 -8261 -8234 0
8262 -8261 8234 0
8262 8261 -8234 0
-8263 8262 8236 0
-8263 -8262 -8236 0
8263 -8262 8236 0
8263 8262 -8236 0
-8264 8263 8238 0
-8264 -8263 -8238 0
8264 -8263 8238 0
8264 8263 -8238 0
-8265 8264 8240 0
-8265 -8264 -8240 0
8265 -8264 8240 0
8265 8264 -8240 0
-8266 8265 8242 0
-8266 -8265 -8242 0
8266 -8265 8242 0
8266 8265 -8242 0
-8267 8266 8244 0
-8267 -8266 -8244 0
8267 -8266 8244 0
8267 8266 -8244 0
-8268 8267 8246 0
-8268 -8267 -8246 0
8268 -8267 8246 0
8268 8267 -8246 0
-8269 8268 8248 0
-8269 -8268 -8248 0
8269 -8268 8248 0
8269 8268 -8248 0
-8270 8269 8250 0
-8270 -8269 -8250 0
8270 -8269 8250 0
8270 8269 -8250 0
-8271 8270 8252 0
-8271 -8270 -8252 0
8271 -8270 8252 0
8271 8270 -8252 0
-8272 8271 8254 0
-8272 -8271 -8254 0
8272 -8271 8254 0
8272 8271 -8254 0
-8273 8272 8256 0
-8273 -8272 -8256 0
8273 -8272 8256 0
8273 8272 -8256 0
-8274 8273 8258 0
-8274 -8273 -8258 0
8274 -8273 8258 0
8274 8273 -8258 0
-8274 0
-8275 8225 0
-8275 34 0
8275 -8225 -34 0
-8276 8227 0
-8276 36 0
8276 -8227 -36 0
-8277 8229 0
-8277 34 0
8277 -8229 -34 0
-8278 8231 0
-8278 36 0
8278 -8231 -36 0
-8279 8233 0
-8279 35 0
8279 -8233 -35 0
-8280 8235 0
-8280 35 0
8280 -8235 -35 0
-8281 8237 0
-8281 37 0
8281 -8237 -37 0
-8282 8239 0
-8282 45 0
8282 -8239 -45 0
-8283 8241 0
-8283 37 0
8283 -8241 -37 0
-8284 8243 0
-8284 45 0
8284 -8243 -45 0
-8285 8245 0
-8285 41 0
8285 -8245 -41 0
-8286 8247 0
-8286 41 0
8286 -8247 -41 0
-8287 8249 0
-8287 82 0
8287 -8249 -82 0
-8288 8251 0
-8288 82 0
8288 -8251 -82 0
-8289 8253 0
-8289 83 0
8289 -8253 -83 0
-8290 8255 0
-8290 130 0
8290 -8255 -130 0
-8291 8257 0
-8291 178 0
8291 -8257 -178 0
-8292 8275 8276 0
-8292 -8275 -8276 0
8292 -8275 8276 0
8292 8275 -8276 0
-8293 8292 8277 0
-8293 -8292 -8277 0
8293 -8292 8277 0
8293 8292 -8277 0
-8294 8293 8278 0
-8294 -8293 -8278 0
8294 -8293 8278 0
8294 8293 -8278 0
-8295 8294 8279 0
-8295 -8294 -8279 0
8295 -8294 8279 0
8295 8294 -8279 0
-8296 8295 8280 0
-8296 -8295 -8280 0
8296 -8295 8280 0
8296 8295 -8280 0
-8297 8296 8281 0
-8297 -8296 -8281 0
8297 -8296 8281 0
8297 8296 -8281 0
-8298 8297 8282 0
-8298 -8297 -8282 0
8298 -8297 8282 0
8298 8297 -8282 0
-8299 8298 8283 0
-8299 -8298 -8283 0
8299 -8298 8283 0
8299 8298 -8283 0
-8300 8299 8284 0
-8300 -8299 -8284 0
8300 -8299 8284 0
8300 8299 -8284 0
-8301 8300 8285 0
-8301 -8300 -8285 0
8301 -8300 8285 0
8301 8300 -8285 0
-8302 8301 8286 0
-8302 -8301 -8286 0
8302 -8301 8286 0
8302 8301 -8286 0
-8303 8302 8287 0
-8303 -8302 -8287 0
8303 -8302 8287 0
8303 8302 -8287 0
-8304 8303 8288 0
-8304 -8303 -8288 0
8304 -8303 8288 0
8304 8303 -8288 0
-8305 8304 8289 0
-8305 -8304 -8289 0
8305 -8304 8289 0
8305 8304 -8289 0
-8306 8305 8290 0
-8306 -8305 -8290 0
8306 -8305 8290 0
8306 8305 -8290 0
-8307 8306 8291 0
-8307 -8306 -8291 0
8307 -8306 8291 0
8307 8306 -8291 0
-8307 0
-8308 8225 0
-8308 35 0
8308 -8225 -35 0
-8309 8227 0
-8309 35 0
8309 -8227 -35 0
-8310 8229 0
-8310 36 0
8310 -8229 -36 0
-8311 8231 0
-8311 34 0
8311 -8231 -34 0
-8312 8233 0
-8312 36 0
8312 -8233 -36 0
-8313 8235 0
-8313 34 0
8313 -8235 -34 0
-8314 8237 0
-8314 41 0
8314 -8237 -41 0
-8315 8239 0
-8315 41 0
8315 -8239 -41 0
-8316 8241 0
-8316 45 0
8316 -8241 -45 0
-8317 8243 0
-8317 37 0
8317 -8243 -37 0
-8318 8245 0
-8318 45 0
8318 -8245 -45 0
-8319 8247 0
-8319 37 0
8319 -8247 -37 0
-8320 8249 0
-8320 83 0
8320 -8249 -83 0
-8321 8251 0
-8321 84 0
8321 -8251 -84 0
-8322 8253 0
-8322 84 0
8322 -8253 -84 0
-8323 8255 0
-8323 131 0
8323 -8255 -131 0
-8324 8257 0
-8324 179 0
8324 -8257 -179 0
-8325 8308 8309 0
-8325 -8308 -8309 0
8325 -8308 8309 0
8325 8308 -8309 0
-8326 8325 8310 0
-8326 -8325 -8310 0
8326 -8325 8310 0
8326 8325 -8310 0
-8327 8326 8311 0
-8327 -8326 -8311 0
8327 -8326 8311 0
8327 8326 -8311 0
-8328 8327 8312 0
-8328 -8327 -8312 0
8328 -8327 8312 0
8328 8327 -8312 0
-8329 8328 8313 0
-8329 -8328 -8313 0
8329 -8328 8313 0
8329 8328 -8313 0
-8330 8329 8314 0
-8330 -8329 -8314 0
8330 -8329 8314 0
8330 8329 -8314 0
-8331 8330 8315 0
-8331 -8330 -8315 0
8331 -8330 8315 0
8331 8330 -8315 0
-8332 8331 8316 0
-8332 -8331 -8316 0
8332 -8331 8316 0
8332 8331 -8316 0
-8333 8332 8317 0
-8333 -8332 -8317 0
8333 -8332 8317 0
8333 8332 -8317 0
-8334 8333 8318 0
-8334 -8333 -8318 0
8334 -8333 8318 0
8334 8333 -8318 0
-8335 8334 8319 0
-8335 -8334 -8319 0
8335 -8334 8319 0
8335 8334 -8319 0
-8336 8335 8320 0
-8336 -8335 -8320 0
8336 -8335 8320 0
8336 8335 -8320 0
-8337 8336 8321 0
-8337 -8336 -8321 0
8337 -8336 8321 0
8337 8336 -8321 0
-8338 8337 8322 0
-8338 -8337 -8322 0
8338 -8337 8322 0
8338 8337 -8322 0
-8339 8338 8323 0
-8339 -8338 -8323 0
8339 -8338 8323 0
8339 8338 -8323 0
-8340 8339 8324 0
-8340 -8339 -8324 0
8340 -8339 8324 0
8340 8339 -8324 0
-8340 0
-8341 8225 0
-8341 36 0
8341 -8225 -36 0
-8342 8227 0
-8342 34 0
8342 -8227 -34 0
-8343 8229 0
-8343 35 0
8343 -8229 -35 0
-8344 8231 0
-8344 35 0
8344 -8231 -35 0
-8345 8233 0
-8345 34 0
8345 -8233 -34 0
-8346 8235 0
-8346 36 0
8346 -8235 -36 0
-8347 8237 0
-8347 45 0
8347 -8237 -45 0
-8348 8239 0
-8348 37 0
8348 -8239 -37 0
-8349 8241 0
-8349 41 0
8349 -8241 -41 0
-8350 8243 0
-8350 41 0
8350 -8243 -41 0
-8351 8245 0
-8351 37 0
8351 -8245 -37 0
-8352 8247 0
-8352 45 0
8352 -8247 -45 0
-8353 8249 0
-8353 84 0
8353 -8249 -84 0
-8354 8251 0
-8354 83 0
8354 -8251 -83 0
-8355 8253 0
-8355 82 0
8355 -8253 -82 0
-8356 8255 0
-8356 132 0
8356 -8255 -132 0
-8357 8257 0
-8357 180 0
8357 -8257 -180 0
-8358 8341 8342 0
-8358 -8341 -8342 0
8358 -8341 8342 0
8358 8341 -8342 0
-8359 8358 8343 0
-8359 -8358 -8343 0
8359 -8358 8343 0
8359 8358 -8343 0
-8360 8359 8344 0
-8360 -8359 -8344 0
8360 -8359 8344 0
8360 8359 -8344 0
-8361 8360 8345 0
-8361 -8360 -8345 0
8361 -8360 8345 0
8361 8360 -8345 0
-8362 8361 8346 0
-8362 -8361 -8346 0
8362 -8361 8346 0
8362 8361 -8346 0
-8363 8362 8347 0
-8363 -8362 -8347 0
8363 -8362 8347 0
8363 8362 -8347 0
-8364 8363 8348 0
-8364 -8363 -8348 0
8364 -8363 8348 0
8364 8363 -8348 0
-8365 8364 8349 0
-8365 -8364 -8349 0
8365 -8364 8349 0
8365 8364 -8349 0
-8366 8365 8350 0
-8366 -8365 -8350 0
8366 -8365 8350 0
8366 8365 -8350 0
-8367 8366 8351 0
-8367 -8366 -8351 0
8367 -8366 8351 0
8367 8366 -8351 0
-8368 8367 8352 0
-8368 -8367 -8352 0
8368 -8367 8352 0
8368 8367 -8352 0
-8369 8368 8353 0
-8369 -8368 -8353 0
8369 -8368 8353 0
8369 8368 -8353 0
-8370 8369 8354 0
-8370 -8369 -8354 0
8370 -8369 8354 0
8370 8369 -8354 0
-8371 8370 8355 0
-8371 -8370 -8355 0
8371 -8370 8355 0
8371 8370 -8355 0
-8372 8371 8356 0
-8372 -8371 -8356 0
8372 -8371 8356 0
8372 8371 -8356 0
-8373 8372 8357 0
-8373 -8372 -8357 0
8373 -8372 8357 0
8373 8372 -8357 0
-8373 0
-8374 8225 0
-8374 37 0
8374 -8225 -37 0
-8375 8227 0
-8375 45 0
8375 -8227 -45 0
-8376 8229 0
-8376 37 0
8376 -8229 -37 0
-8377 8231 0
-8377 45 0
8377 -8231 -45 0
-8378 8233 0
-8378 41 0
8378 -8233 -41 0
-8379 8235 0
-8379 41 0
8379 -8235 -41 0
-8380 8237 0
-8380 34 0
8380 -8237 -34 0
-8381 8239 0
-8381 36 0
8381 -8239 -36 0
-8382 8241 0
-8382 34 0
8382 -8241 -34 0
-8383 8243 0
-8383 36 0
8383 -8243 -36 0
-8384 8245 0
-8384 35 0
8384 -8245 -35 0
-8385 8247 0
-8385 35 0
8385 -8247 -35 0
-8386 8249 0
-8386 85 0
8386 -8249 -85 0
-8387 8251 0
-8387 85 0
8387 -8251 -85 0
-8388 8253 0
-8388 89 0
8388 -8253 -89 0
-8389 8255 0
-8389 133 0
8389 -8255 -133 0
-8390 8257 0
-8390 181 0
8390 -8257 -181 0
-8391 8374 8375 0
-8391 -8374 -8375 0
8391 -8374 8375 0
8391 8374 -8375 0
-8392 8391 8376 0
-8392 -8391 -8376 0
8392 -8391 8376 0
8392 8391 -8376 0
-8393 8392 8377 0
-8393 -8392 -8377 0
8393 -8392 8377 0
8393 8392 -8377 0
-8394 8393 8378 0
-8394 -8393 -8378 0
8394 -8393 8378 0
8394 8393 -8378 0
-8395 8394 8379 0
-8395 -8394 -8379 0
8395 -8394 8379 0
8395 8394 -8379 0
-8396 8395 8380 0
-8396 -8395 -8380 0
8396 -8395 8380 0
8396 8395 -8380 0
-8397 8396 8381 0
-8397 -8396 -8381 0
8397 -8396 8381 0
8397 8396 -8381 0
-8398 8397 8382 0
-8398 -8397 -8382 0
8398 -8397 8382 0
8398 8397 -8382 0
-8399 8398 8383 0
-8399 -8398 -8383 0
8399 -8398 8383 0
8399 8398 -8383 0
-8400 8399 8384 0
-8400 -8399 -8384 0
8400 -8399 8384 0
8400 8399 -8384 0
-8401 8400 8385 0
-8401 -8400 -8385 0
8401 -8400 8385 0
8401 8400 -8385 0
-8402 8401 8386 0
-8402 -8401 -8386 0
8402 -8401 8386 0
8402 8401 -8386 0
-8403 8402 8387 0
-8403 -8402 -8387 0
8403 -8402 8387 0
8403 8402 -8387 0
-8404 8403 8388 0
-8404 -8403 -8388 0
8404 -8403 8388 0
8404 8403 -8388 0
-8405 8404 8389 0
-8405 -8404 -8389 0
8405 -8404 8389 0
8405 8404 -8389 0
-8406 8405 8390 0
-8406 -8405 -8390 0
8406 -8405 8390 0
8406 8405 -8390 0
-8406 0
-8407 8225 0
-8407 38 0
8407 -8225 -38 0
-8408 8227 0
-8408 48 0
8408 -8227 -48 0
-8409 8229 0
-8409 38 0
8409 -8229 -38 0
-8410 8231 0
-8410 48 0
8410 -8231 -48 0
-8411 8233 0
-8411 43 0
8411 -8233 -43 0
-8412 8235 0
-8412 43 0
8412 -8235 -43 0
-8413 8237 0
-8413 38 0
8413 -8237 -38 0
-8414 8239 0
-8414 48 0
8414 -8239 -48 0
-8415 8241 0
-8415 38 0
8415 -8241 -38 0
-8416 8243 0
-8416 48 0
8416 -8243 -48 0
-8417 8245 0
-8417 43 0
8417 -8245 -43 0
-8418 8247 0
-8418 43 0
8418 -8247 -43 0
-8419 8249 0
-8419 86 0
8419 -8249 -86 0
-8420 8251 0
-8420 86 0
8420 -8251 -86 0
-8421 8253 0
-8421 91 0
8421 -8253 -91 0
-8422 8255 0
-8422 134 0
8422 -8255 -134 0
-8423 8257 0
-8423 182 0
8423 -8257 -182 0
-8424 8407 8408 0
-8424 -8407 -8408 0
8424 -8407 8408 0
8424 8407 -8408 0
-8425 8424 8409 0
-8425 -8424 -8409 0
8425 -8424 8409 0
8425 8424 -8409 0
-8426 8425 8410 0
-8426 -8425 -8410 0
8426 -8425 8410 0
8426 8425 -8410 0
-8427 8426 8411 0
-8427 -8426 -8411 0
8427 -8426 8411 0
8427 8426 -8411 0
-8428 8427 8412 0
-8428 -8427 -8412 0
8428 -8427 8412 0
8428 8427 -8412 0
-8429 8428 8413 0
-8429 -8428 -8413 0
8429 -8428 8413 0
8429 8428 -8413 0
-8430 8429 8414 0
-8430 -8429 -8414 0
8430 -8429 8414 0
8430 8429 -8414 0
-8431 8430 8415 0
-8431 -8430 -8415 0
8431 -8430 8415 0
8431 8430 -8415 0
-8432 8431 8416 0
-8432 -8431 -8416 0
8432 -8431 8416 0
8432 8431 -8416 0
-8433 8432 8417 0
-8433 -8432 -8417 0
8433 -8432 8417 0
8433 8432 -8417 0
-8434 8433 8418 0
-8434 -8433 -8418 0
8434 -8433 8418 0
8434 8433 -8418 0
-8435 8434 8419 0
-8435 -8434 -8419 0
8435 -8434 8419 0
8435 8434 -8419 0
-8436 8435 8420 0
-8436 -8435 -8420 0
8436 -8435 8420 0
8436 8435 -8420 0
-8437 8436 8421 0
-8437 -8436 -8421 0
8437 -8436 8421 0
8437 8436 -8421 0
-8438 8437 8422 0
-8438 -8437 -8422 0
8438 -8437 8422 0
8438 8437 -8422 0
-8439 8438 8423 0
-8439 -8438 -8423 0
8439 -8438 8423 0
8439 8438 -8423 0
-8439 0
-8440 8225 0
-8440 39 0
8440 -8225 -39 0
-8441 8227 0
-8441 47 0
8441 -8227 -47 0
-8442 8229 0
-8442 40 0
8442 -8229 -40 0
-8443 8231 0
-8443 46 0
8443 -8231 -46 0
-8444 8233 0
-8444 44 0
8444 -8233 -44 0
-8445 8235 0
-8445 42 0
8445 -8235 -42 0
-8446 8237 0
-8446 42 0
8446 -8237 -42 0
-8447 8239 0
-8447 44 0
8447 -8239 -44 0
-8448 8241 0
-8448 46 0
8448 -8241 -46 0
-8449 8243 0
-8449 40 0
8449 -8243 -40 0
-8450 8245 0
-8450 47 0
8450 -8245 -47 0
-8451 8247 0
-8451 39 0
8451 -8247 -39 0
-8452 8249 0
-8452 87 0
8452 -8249 -87 0
-8453 8251 0
-8453 88 0
8453 -8251 -88 0
-8454 8253 0
-8454 92 0
8454 -8253 -92 0
-8455 8255 0
-8455 135 0
8455 -8255 -135 0
-8456 8257 0
-8456 183 0
8456 -8257 -183 0
-8457 8440 8441 0
-8457 -8440 -8441 0
8457 -8440 8441 0
8457 8440 -8441 0
-8458 8457 8442 0
-8458 -8457 -8442 0
8458 -8457 8442 0
8458 8457 -8442 0
-8459 8458 8443 0
-8459 -8458 -8443 0
8459 -8458 8443 0
8459 8458 -8443 0
-8460 8459 8444 0
-8460 -8459 -8444 0
8460 -8459 8444 0
8460 8459 -8444 0
-8461 8460 8445 0
-8461 -8460 -8445 0
8461 -8460 8445 0
8461 8460 -8445 0
-8462 8461 8446 0
-8462 -8461 -8446 0
8462 -8461 8446 0
8462 8461 -8446 0
-8463 8462 8447 0
-8463 -8462 -8447 0
8463 -8462 8447 0
8463 8462 -8447 0
-8464 8463 8448 0
-8464 -8463 -8448 0
8464 -8463 8448 0
8464 8463 -8448 0
-8465 8464 8449 0
-8465 -8464 -8449 0
8465 -8464 8449 0
8465 8464 -8449 0
-8466 8465 8450 0
-8466 -8465 -8450 0
8466 -8465 8450 0
8466 8465 -8450 0
-8467 8466 8451 0
-8467 -8466 -8451 0
8467 -8466 8451 0
8467 8466 -8451 0
-8468 8467 8452 0
-8468 -8467 -8452 0
8468 -8467 8452 0
8468 8467 -8452 0
-8469 8468 8453 0
-8469 -8468 -8453 0
8469 -8468 8453 0
8469 8468 -8453 0
-8470 8469 8454 0
-8470 -8469 -8454 0
8470 -8469 8454 0
8470 8469 -8454 0
-8471 8470 8455 0
-8471 -8470 -8455 0
8471 -8470 8455 0
8471 8470 -8455 0
-8472 8471 8456 0
-8472 -8471 -8456 0
8472 -8471 8456 0
8472 8471 -8456 0
-8472 0
-8473 8225 0
-8473 40 0
8473 -8225 -40 0
-8474 8227 0
-8474 46 0
8474 -8227 -46 0
-8475 8229 0
-8475 39 0
8475 -8229 -39 0
-8476 8231 0
-8476 47 0
8476 -8231 -47 0
-8477 8233 0
-8477 42 0
8477 -8233 -42 0
-8478 8235 0
-8478 44 0
8478 -8235 -44 0
-8479 8237 0
-8479 46 0
8479 -8237 -46 0
-8480 8239 0
-8480 40 0
8480 -8239 -40 0
-8481 8241 0
-8481 42 0
8481 -8241 -42 0
-8482 8243 0
-8482 44 0
8482 -8243 -44 0
-8483 8245 0
-8483 39 0
8483 -8245 -39 0
-8484 8247 0
-8484 47 0
8484 -8247 -47 0
-8485 8249 0
-8485 88 0
8485 -8249 -88 0
-8486 8251 0
-8486 87 0
8486 -8251 -87 0
-8487 8253 0
-8487 90 0
8487 -8253 -90 0
-8488 8255 0
-8488 136 0
8488 -8255 -136 0
-8489 8257 0
-8489 184 0
8489 -8257 -184 0
-8490 8473 8474 0
-8490 -8473 -8474 0
8490 -8473 8474 0
8490 8473 -8474 0
-8491 8490 8475 0
-8491 -8490 -8475 0
8491 -8490 8475 0
8491 8490 -8475 0
-8492 8491 8476 0
-8492 -8491 -8476 0
8492 -8491 8476 0
8492 8491 -8476 0
-8493 8492 8477 0
-8493 -8492 -8477 0
8493 -8492 8477 0
8493 8492 -8477 0
-8494 8493 8478 0
-8494 -8493 -8478 0
8494 -8493 8478 0
8494 8493 -8478 0
-8495 8494 8479 0
-8495 -8494 -8479 0
8495 -8494 8479 0
8495 8494 -8479 0
-8496 8495 8480 0
-8496 -8495 -8480 0
8496 -8495 8480 0
8496 8495 -8480 0
-8497 8496 8481 0
-8497 -8496 -8481 0
8497 -8496 8481 0
8497 8496 -8481 0
-8498 8497 8482 0
-8498 -8497 -8482 0
8498 -8497 8482 0
8498 8497 -8482 0
-8499 8498 8483 0
-8499 -8498 -8483 0
8499 -8498 8483 0
8499 8498 -8483 0
-8500 8499 8484 0
-8500 -8499 -8484 0
8500 -8499 8484 0
8500 8499 -8484 0
-8501 8500 8485 0
-8501 -8500 -8485 0
8501 -8500 8485 0
8501 8500 -8485 0
-8502 8501 8486 0
-8502 -8501 -8486 0
8502 -8501 8486 0
8502 8501 -8486 0
-8503 8502 8487 0
-8503 -8502 -8487 0
8503 -8502 8487 0
8503 8502 -8487 0
-8504 8503 8488 0
-8504 -8503 -8488 0
8504 -8503 8488 0
8504 8503 -8488 0
-8505 8504 8489 0
-8505 -8504 -8489 0
8505 -8504 8489 0
8505 8504 -8489 0
-8505 0
-8506 8225 0
-8506 41 0
8506 -8225 -41 0
-8507 8227 0
-8507 41 0
8507 -8227 -41 0
-8508 8229 0
-8508 45 0
8508 -8229 -45 0
-8509 8231 0
-8509 37 0
8509 -8231 -37 0
-8510 8233 0
-8510 45 0
8510 -8233 -45 0
-8511 8235 0
-8511 37 0
8511 -8235 -37 0
-8512 8237 0
-8512 35 0
8512 -8237 -35 0
-8513 8239 0
-8513 35 0
8513 -8239 -35 0
-8514 8241 0
-8514 36 0
8514 -8241 -36 0
-8515 8243 0
-8515 34 0
8515 -8243 -34 0
-8516 8245 0
-8516 36 0
8516 -8245 -36 0
-8517 8247 0
-8517 34 0
8517 -8247 -34 0
-8518 8249 0
-8518 89 0
8518 -8249 -89 0
-8519 8251 0
-8519 93 0
8519 -8251 -93 0
-8520 8253 0
-8520 93 0
8520 -8253 -93 0
-8521 8255 0
-8521 137 0
8521 -8255 -137 0
-8522 8257 0
-8522 185 0
8522 -8257 -185 0
-8523 8506 8507 0
-8523 -8506 -8507 0
8523 -8506 8507 0
8523 8506 -8507 0
-8524 8523 8508 0
-8524 -8523 -8508 0
8524 -8523 8508 0
8524 8523 -8508 0
-8525 8524 8509 0
-8525 -8524 -8509 0
8525 -8524 8509 0
8525 8524 -8509 0
-8526 8525 8510 0
-8526 -8525 -8510 0
8526 -8525 8510 0
8526 8525 -8510 0
-8527 8526 8511 0
-8527 -8526 -8511 0
8527 -8526 8511 0
8527 8526 -8511 0
-8528 8527 8512 0
-8528 -8527 -8512 0
8528 -8527 8512 0
8528 8527 -8512 0
-8529 8528 8513 0
-8529 -8528 -8513 0
8529 -8528 8513 0
8529 8528 -8513 0
-8530 8529 8514 0
-8530 -8529 -8514 0
8530 -8529 8514 0
8530 8529 -8514 0
-8531 8530 8515 0
-8531 -8530 -8515 0
8531 -8530 8515 0
8531 8530 -8515 0
-8532 8531 8516 0
-8532 -8531 -8516 0
8532 -8531 8516 0
8532 8531 -8516 0
-8533 8532 8517 0
-8533 -8532 -8517 0
8533 -8532 8517 0
8533 8532 -8517 0
-8534 8533 8518 0
-8534 -8533 -8518 0
8534 -8533 8518 0
8534 8533 -8518 0
-8535 8534 8519 0
-8535 -8534 -8519 0
8535 -8534 8519 0
8535 8534 -8519 0
-8536 8535 8520 0
-8536 -8535 -8520 0
8536 -8535 8520 0
8536 8535 -8520 0
-8537 8536 8521 0
-8537 -8536 -8521 0
8537 -8536 8521 0
8537 8536 -8521 0
-8538 8537 8522 0
-8538 -8537 -8522 0
8538 -8537 8522 0
8538 8537 -8522 0
-8538 0
-8539 8225 0
-8539 42 0
8539 -8225 -42 0
-8540 8227 0
-8540 44 0
8540 -8227 -44 0
-8541 8229 0
-8541 46 0
8541 -8229 -46 0
-8542 8231 0
-8542 40 0
8542 -8231 -40 0
-8543 8233 0
-8543 47 0
8543 -8233 -47 0
-8544 8235 0
-8544 39 0
8544 -8235 -39 0
-8545 8237 0
-8545 39 0
8545 -8237 -39 0
-8546 8239 0
-8546 47 0
8546 -8239 -47 0
-8547 8241 0
-8547 40 0
8547 -8241 -40 0
-8548 8243 0
-8548 46 0
8548 -8243 -46 0
-8549 8245 0
-8549 44 0
8549 -8245 -44 0
-8550 8247 0
-8550 42 0
8550 -8247 -42 0
-8551 8249 0
-8551 90 0
8551 -8249 -90 0
-8552 8251 0
-8552 94 0
8552 -8251 -94 0
-8553 8253 0
-8553 95 0
8553 -8253 -95 0
-8554 8255 0
-8554 138 0
8554 -8255 -138 0
-8555 8257 0
-8555 186 0
8555 -8257 -186 0
-8556 8539 8540 0
-8556 -8539 -8540 0
8556 -8539 8540 0
8556 8539 -8540 0
-8557 8556 8541 0
-8557 -8556 -8541 0
8557 -8556 8541 0
8557 8556 -8541 0
-8558 8557 8542 0
-8558 -8557 -8542 0
8558 -8557 8542 0
8558 8557 -8542 0
-8559 8558 8543 0
-8559 -8558 -8543 0
8559 -8558 8543 0
8559 8558 -8543 0
-8560 8559 8544 0
-8560 -8559 -8544 0
8560 -8559 8544 0
8560 8559 -8544 0
-8561 8560 8545 0
-8561 -8560 -8545 0
8561 -8560 8545 0
8561 8560 -8545 0
-8562 8561 8546 0
-8562 -8561 -8546 0
8562 -8561 8546 0
8562 8561 -8546 0
-8563 8562 8547 0
-8563 -8562 -8547 0
8563 -8562 8547 0
8563 8562 -8547 0
-8564 8563 8548 0
-8564 -8563 -8548 0
8564 -8563 8548 0
8564 8563 -8548 0
-8565 8564 8549 0
-8565 -8564 -8549 0
8565 -8564 8549 0
8565 8564 -8549 0
-8566 8565 8550 0
-8566 -8565 -8550 0
8566 -8565 8550 0
8566 8565 -8550 0
-8567 8566 8551 0
-8567 -8566 -8551 0
8567 -8566 8551 0
8567 8566 -8551 0
-8568 8567 8552 0
-8568 -8567 -8552 0
8568 -8567 8552 0
8568 8567 -8552 0
-8569 8568 8553 0
-8569 -8568 -8553 0
8569 -8568 8553 0
8569 8568 -8553 0
-8570 8569 8554 0
-8570 -8569 -8554 0
8570 -8569 8554 0
8570 8569 -8554 0
-8571 8570 8555 0
-8571 -8570 -8555 0
8571 -8570 8555 0
8571 8570 -8555 0
-8571 0
-8572 8225 0
-8572 43 0
8572 -8225 -43 0
-8573 8227 0
-8573 43 0
8573 -8227 -43 0
-8574 8229 0
-8574 48 0
8574 -8229 -48 0
-8575 8231 0
-8575 38 0
8575 -8231 -38 0
-8576 8233 0
-8576 48 0
8576 -8233 -48 0
-8577 8235 0
-8577 38 0
8577 -8235 -38 0
-8578 8237 0
-8578 43 0
8578 -8237 -43 0
-8579 8239 0
-8579 43 0
8579 -8239 -43 0
-8580 8241 0
-8580 48 0
8580 -8241 -48 0
-8581 8243 0
-8581 38 0
8581 -8243 -38 0
-8582 8245 0
-8582 48 0
8582 -8245 -48 0
-8583 8247 0
-8583 38 0
8583 -8247 -38 0
-8584 8249 0
-8584 91 0
8584 -8249 -91 0
-8585 8251 0
-8585 96 0
8585 -8251 -96 0
-8586 8253 0
-8586 96 0
8586 -8253 -96 0
-8587 8255 0
-8587 139 0
8587 -8255 -139 0
-8588 8257 0
-8588 187 0
8588 -8257 -187 0
-8589 8572 8573 0
-8589 -8572 -8573 0
8589 -8572 8573 0
8589 8572 -8573 0
-8590 8589 8574 0
-8590 -8589 -8574 0
8590 -8589 8574 0
8590 8589 -8574 0
-8591 8590 8575 0
-8591 -8590 -8575 0
8591 -8590 8575 0
8591 8590 -8575 0
-8592 8591 8576 0
-8592 -8591 -8576 0
8592 -8591 8576 0
8592 8591 -8576 0
-8593 8592 8577 0
-8593 -8592 -8577 0
8593 -8592 8577 0
8593 8592 -8577 0
-8594 8593 8578 0
-8594 -8593 -8578 0
8594 -8593 8578 0
8594 8593 -8578 0
-8595 8594 8579 0
-8595 -8594 -8579 0
8595 -8594 8579 0
8595 8594 -8579 0
-8596 8595 8580 0
-8596 -8595 -8580 0
8596 -8595 8580 0
8596 8595 -8580 0
-8597 8596 8581 0
-8597 -8596 -8581 0
8597 -8596 8581 0
8597 8596 -8581 0
-8598 8597 8582 0
-8598 -8597 -8582 0
8598 -8597 8582 0
8598 8597 -8582 0
-8599 8598 8583 0
-8599 -8598 -8583 0
8599 -8598 8583 0
8599 8598 -8583 0
-8600 8599 8584 0
-8600 -8599 -8584 0
8600 -8599 8584 0
8600 8599 -8584 0
-8601 8600 8585 0
-8601 -8600 -8585 0
8601 -8600 8585 0
8601 8600 -8585 0
-8602 8601 8586 0
-8602 -8601 -8586 0
8602 -8601 8586 0
8602 8601 -8586 0
-8603 8602 8587 0
-8603 -8602 -8587 0
8603 -8602 8587 0
8603 8602 -8587 0
-8604 8603 8588 0
-8604 -8603 -8588 0
8604 -8603 8588 0
8604 8603 -8588 0
-8604 0
-8605 8225 0
-8605 44 0
8605 -8225 -44 0
-8606 8227 0
-8606 42 0
8606 -8227 -42 0
-8607 8229 0
-8607 47 0
8607 -8229 -47 0
-8608 8231 0
-8608 39 0
8608 -8231 -39 0
-8609 8233 0
-8609 46 0
8609 -8233 -46 0
-8610 8235 0
-8610 40 0
8610 -8235 -40 0
-8611 8237 0
-8611 47 0
8611 -8237 -47 0
-8612 8239 0
-8612 39 0
8612 -8239 -39 0
-8613 8241 0
-8613 44 0
8613 -8241 -44 0
-8614 8243 0
-8614 42 0
8614 -8243 -42 0
-8615 8245 0
-8615 40 0
8615 -8245 -40 0
-8616 8247 0
-8616 46 0
8616 -8247 -46 0
-8617 8249 0
-8617 92 0
8617 -8249 -92 0
-8618 8251 0
-8618 95 0
8618 -8251 -95 0
-8619 8253 0
-8619 94 0
8619 -8253 -94 0
-8620 8255 0
-8620 140 0
8620 -8255 -140 0
-8621 8257 0
-8621 188 0
8621 -8257 -188 0
-8622 8605 8606 0
-8622 -8605 -8606 0
8622 -8605 8606 0
8622 8605 -8606 0
-8623 8622 8607 0
-8623 -8622 -8607 0
8623 -8622 8607 0
8623 8622 -8607 0
-8624 8623 8608 0
-8624 -8623 -8608 0
8624 -8623 8608 0
8624 8623 -8608 0
-8625 8624 8609 0
-8625 -8624 -8609 0
8625 -8624 8609 0
8625 8624 -8609 0
-8626 8625 8610 0
-8626 -8625 -8610 0
8626 -8625 8610 0
8626 8625 -8610 0
-8627 8626 8611 0
-8627 -8626 -8611 0
8627 -8626 8611 0
8627 8626 -8611 0
-8628 8627 8612 0
-8628 -8627 -8612 0
8628 -8627 8612 0
8628 8627 -8612 0
-8629 8628 8613 0
-8629 -8628 -8613 0
8629 -8628 8613 0
8629 8628 -8613 0
-8630 8629 8614 0
-8630 -8629 -8614 0
8630 -8629 8614 0
8630 8629 -8614 0
-8631 8630 8615 0
-8631 -8630 -8615 0
8631 -8630 8615 0
8631 8630 -8615 0
-8632 8631 8616 0
-8632 -8631 -8616 0
8632 -8631 8616 0
8632 8631 -8616 0
-8633 8632 8617 0
-8633 -8632 -8617 0
8633 -8632 8617 0
8633 8632 -8617 0
-8634 8633 8618 0
-8634 -8633 -8618 0
8634 -8633 8618 0
8634 8633 -8618 0
-8635 8634 8619 0
-8635 -8634 -8619 0
8635 -8634 8619 0
8635 8634 -8619 0
-8636 8635 8620 0
-8636 -8635 -8620 0
8636 -8635 8620 0
8636 8635 -8620 0
-8637 8636 8621 0
-8637 -8636 -8621 0
8637 -8636 8621 0
8637 8636 -8621 0
-8637 0
-8638 8225 0
-8638 45 0
8638 -8225 -45 0
-8639 8227 0
-8639 37 0
8639 -8227 -37 0
-8640 8229 0
-8640 41 0
8640 -8229 -41 0
-8641 8231 0
-8641 41 0
8641 -8231 -41 0
-8642 8233 0
-8642 37 0
8642 -8233 -37 0
-8643 8235 0
-8643 45 0
8643 -8235 -45 0
-8644 8237 0
-8644 36 0
8644 -8237 -36 0
-8645 8239 0
-8645 34 0
8645 -8239 -34 0
-8646 8241 0
-8646 35 0
8646 -8241 -35 0
-8647 8243 0
-8647 35 0
8647 -8243 -35 0
-8648 8245 0
-8648 34 0
8648 -8245 -34 0
-8649 8247 0
-8649 36 0
8649 -8247 -36 0
-8650 8249 0
-8650 93 0
8650 -8249 -93 0
-8651 8251 0
-8651 89 0
8651 -8251 -89 0
-8652 8253 0
-8652 85 0
8652 -8253 -85 0
-8653 8255 0
-8653 141 0
8653 -8255 -141 0
-8654 8257 0
-8654 189 0
8654 -8257 -189 0
-8655 8638 8639 0
-8655 -8638 -8639 0
8655 -8638 8639 0
8655 8638 -8639 0
-8656 8655 8640 0
-8656 -8655 -8640 0
8656 -8655 8640 0
8656 8655 -8640 0
-8657 8656 8641 0
-8657 -8656 -8641 0
8657 -8656 8641 0
8657 8656 -8641 0
-8658 8657 8642 0
-8658 -8657 -8642 0
8658 -8657 8642 0
8658 8657 -8642 0
-8659 8658 8643 0
-8659 -8658 -8643 0
8659 -8658 8643 0
8659 8658 -8643 0
-8660 8659 8644 0
-8660 -8659 -8644 0
8660 -8659 8644 0
8660 8659 -8644 0
-8661 8660 8645 0
-8661 -8660 -8645 0
8661 -8660 8645 0
8661 8660 -8645 0
-8662 8661 8646 0
-8662 -8661 -8646 0
8662 -8661 8646 0
8662 8661 -8646 0
-8663 8662 8647 0
-8663 -8662 -8647 0
8663 -8662 8647 0
8663 8662 -8647 0
-8664 8663 8648 0
-8664 -8663 -8648 0
8664 -8663 8648 0
8664 8663 -8648 0
-8665 8664 8649 0
-8665 -8664 -8649 0
8665 -8664 8649 0
8665 8664 -8649 0
-8666 8665 8650 0
-8666 -8665 -8650 0
8666 -8665 8650 0
8666 8665 -8650 0
-8667 8666 8651 0
-8667 -8666 -8651 0
8667 -8666 8651 0
8667 8666 -8651 0
-8668 8667 8652 0
-8668 -8667 -8652 0
8668 -8667 8652 0
8668 8667 -8652 0
-8669 8668 8653 0
-8669 -8668 -8653 0
8669 -8668 8653 0
8669 8668 -8653 0
-8670 8669 8654 0
-8670 -8669 -8654 0
8670 -8669 8654 0
8670 8669 -8654 0
-8670 0
-8671 8225 0
-8671 46 0
8671 -8225 -46 0
-8672 8227 0
-8672 40 0
8672 -8227 -40 0
-8673 8229 0
-8673 42 0
8673 -8229 -42 0
-8674 8231 0
-8674 44 0
8674 -8231 -44 0
-8675 8233 0
-8675 39 0
8675 -8233 -39 0
-8676 8235 0
-8676 47 0
8676 -8235 -47 0
-8677 8237 0
-8677 40 0
8677 -8237 -40 0
-8678 8239 0
-8678 46 0
8678 -8239 -46 0
-8679 8241 0
-8679 39 0
8679 -8241 -39 0
-8680 8243 0
-8680 47 0
8680 -8243 -47 0
-8681 8245 0
-8681 42 0
8681 -8245 -42 0
-8682 8247 0
-8682 44 0
8682 -8247 -44 0
-8683 8249 0
-8683 94 0
8683 -8249 -94 0
-8684 8251 0
-8684 90 0
8684 -8251 -90 0
-8685 8253 0
-8685 87 0
8685 -8253 -87 0
-8686 8255 0
-8686 142 0
8686 -8255 -142 0
-8687 8257 0
-8687 190 0
8687 -8257 -190 0
-8688 8671 8672 0
-8688 -8671 -8672 0
8688 -8671 8672 0
8688 8671 -8672 0
-8689 8688 8673 0
-8689 -8688 -8673 0
8689 -8688 8673 0
8689 8688 -8673 0
-8690 8689 8674 0
-8690 -8689 -8674 0
8690 -8689 8674 0
8690 8689 -8674 0
-8691 8690 8675 0
-8691 -8690 -8675 0
8691 -8690 8675 0
8691 8690 -8675 0
-8692 8691 8676 0
-8692 -8691 -8676 0
8692 -8691 8676 0
8692 8691 -8676 0
-8693 8692 8677 0
-8693 -8692 -8677 0
8693 -8692 8677 0
8693 8692 -8677 0
-8694 8693 8678 0
-8694 -8693 -8678 0
8694 -8693 8678 0
8694 8693 -8678 0
-8695 8694 8679 0
-8695 -8694 -8679 0
8695 -8694 8679 0
8695 8694 -8679 0
-8696 8695 8680 0
-8696 -8695 -8680 0
8696 -8695 8680 0
8696 8695 -8680 0
-8697 8696 8681 0
-8697 -8696 -8681 0
8697 -8696 8681 0
8697 8696 -8681 0
-8698 8697 8682 0
-8698 -8697 -8682 0
8698 -8697 8682 0
8698 8697 -8682 0
-8699 8698 8683 0
-8699 -8698 -8683 0
8699 -8698 8683 0
8699 8698 -8683 0
-8700 8699 8684 0
-8700 -8699 -8684 0
8700 -8699 8684 0
8700 8699 -8684 0
-8701 8700 8685 0
-8701 -8700 -8685 0
8701 -8700 8685 0
8701 8700 -8685 0
-8702 8701 8686 0
-8702 -8701 -8686 0
8702 -8701 8686 0
8702 8701 -8686 0
-8703 8702 8687 0
-8703 -8702 -8687 0
8703 -8702 8687 0
8703 8702 -8687 0
-8703 0
-8704 8225 0
-8704 47 0
8704 -8225 -47 0
-8705 8227 0
-8705 39 0
8705 -8227 -39 0
-8706 8229 0
-8706 44 0
8706 -8229 -44 0
-8707 8231 0
-8707 42 0
8707 -8231 -42 0
-8708 8233 0
-8708 40 0
8708 -8233 -40 0
-8709 8235 0
-8709 46 0
8709 -8235 -46 0
-8710 8237 0
-8710 44 0
8710 -8237 -44 0
-8711 8239 0
-8711 42 0
8711 -8239 -42 0
-8712 8241 0
-8712 47 0
8712 -8241 -47 0
-8713 8243 0
-8713 39 0
8713 -8243 -39 0
-8714 8245 0
-8714 46 0
8714 -8245 -46 0
-8715 8247 0
-8715 40 0
8715 -8247 -40 0
-8716 8249 0
-8716 95 0
8716 -8249 -95 0
-8717 8251 0
-8717 92 0
8717 -8251 -92 0
-8718 8253 0
-8718 88 0
8718 -8253 -88 0
-8719 8255 0
-8719 143 0
8719 -8255 -143 0
-8720 8257 0
-8720 191 0
8720 -8257 -191 0
-8721 8704 8705 0
-8721 -8704 -8705 0
8721 -8704 8705 0
8721 8704 -8705 0
-8722 8721 8706 0
-8722 -8721 -8706 0
8722 -8721 8706 0
8722 8721 -8706 0
-8723 8722 8707 0
-8723 -8722 -8707 0
8723 -8722 8707 0
8723 8722 -8707 0
-8724 8723 8708 0
-8724 -8723 -8708 0
8724 -8723 8708 0
8724 8723 -8708 0
-8725 8724 8709 0
-8725 -8724 -8709 0
8725 -8724 8709 0
8725 8724 -8709 0
-8726 8725 8710 0
-8726 -8725 -8710 0
8726 -8725 8710 0
8726 8725 -8710 0
-8727 8726 8711 0
-8727 -8726 -8711 0
8727 -8726 8711 0
8727 8726 -8711 0
-8728 8727 8712 0
-8728 -8727 -8712 0
8728 -8727 8712 0
8728 8727 -8712 0
-8729 8728 8713 0
-8729 -8728 -8713 0
8729 -8728 8713 0
8729 8728 -8713 0
-8730 8729 8714 0
-8730 -8729 -8714 0
8730 -8729 8714 0
8730 8729 -8714 0
-8731 8730 8715 0
-8731 -8730 -8715 0
8731 -8730 8715 0
8731 8730 -8715 0
-8732 8731 8716 0
-8732 -8731 -8716 0
8732 -8731 8716 0
8732 8731 -8716 0
-8733 8732 8717 0
-8733 -8732 -8717 0
8733 -8732 8717 0
8733 8732 -8717 0
-8734 8733 8718 0
-8734 -8733 -8718 0
8734 -8733 8718 0
8734 8733 -8718 0
-8735 8734 8719 0
-8735 -8734 -8719 0
8735 -8734 8719 0
8735 8734 -8719 0
-8736 8735 8720 0
-8736 -8735 -8720 0
8736 -8735 8720 0
8736 8735 -8720 0
-8736 0
-8737 8225 0
-8737 48 0
8737 -8225 -48 0
-8738 8227 0
-8738 38 0
8738 -8227 -38 0
-8739 8229 0
-8739 43 0
8739 -8229 -43 0
-8740 8231 0
-8740 43 0
8740 -8231 -43 0
-8741 8233 0
-8741 38 0
8741 -8233 -38 0
-8742 8235 0
-8742 48 0
8742 -8235 -48 0
-8743 8237 0
-8743 48 0
8743 -8237 -48 0
-8744 8239 0
-8744 38 0
8744 -8239 -38 0
-8745 8241 0
-8745 43 0
8745 -8241 -43 0
-8746 8243 0
-8746 43 0
8746 -8243 -43 0
-8747 8245 0
-8747 38 0
8747 -8245 -38 0
-8748 8247 0
-8748 48 0
8748 -8247 -48 0
-8749 8249 0
-8749 96 0
8749 -8249 -96 0
-8750 8251 0
-8750 91 0
8750 -8251 -91 0
-8751 8253 0
-8751 86 0
8751 -8253 -86 0
-8752 8255 0
-8752 144 0
8752 -8255 -144 0
-8753 8257 0
-8753 192 0
8753 -8257 -192 0
-8754 8737 8738 0
-8754 -8737 -8738 0
8754 -8737 8738 0
8754 8737 -8738 0
-8755 8754 8739 0
-8755 -8754 -8739 0
8755 -8754 8739 0
8755 8754 -8739 0
-8756 8755 8740 0
-8756 -8755 -8740 0
8756 -8755 8740 0
8756 8755 -8740 0
-8757 8756 8741 0
-8757 -8756 -8741 0
8757 -8756 8741 0
8757 8756 -8741 0
-8758 8757 8742 0
-8758 -8757 -8742 0
8758 -8757 8742 0
8758 8757 -8742 0
-8759 8758 8743 0
-8759 -8758 -8743 0
8759 -8758 8743 0
8759 8758 -8743 0
-8760 8759 8744 0
-8760 -8759 -8744 0
8760 -8759 8744 0
8760 8759 -8744 0
-8761 8760 8745 0
-8761 -8760 -8745 0
8761 -8760 8745 0
8761 8760 -8745 0
-8762 8761 8746 0
-8762 -8761 -8746 0
8762 -8761 8746 0
8762 8761 -8746 0
-8763 8762 8747 0
-8763 -8762 -8747 0
8763 -8762 8747 0
8763 8762 -8747 0
-8764 8763 8748 0
-8764 -8763 -8748 0
8764 -8763 8748 0
8764 8763 -8748 0
-8765 8764 8749 0
-8765 -8764 -8749 0
8765 -8764 8749 0
8765 8764 -8749 0
-8766 8765 8750 0
-8766 -8765 -8750 0
8766 -8765 8750 0
8766 8765 -8750 0
-8767 8766 8751 0
-8767 -8766 -8751 0
8767 -8766 8751 0
8767 8766 -8751 0
-8768 8767 8752 0
-8768 -8767 -8752 0
8768 -8767 8752 0
8768 8767 -8752 0
-8769 8768 8753 0
-8769 -8768 -8753 0
8769 -8768 8753 0
8769 8768 -8753 0
-8769 0
-8770 5 0
-8770 27 0
8770 -5 -27 0
-8771 8770 0
-8771 33 0
8771 -8770 -33 0
-8772 13 0
-8772 23 0
8772 -13 -23 0
-8773 8772 0
-8773 33 0
8773 -8772 -33 0
-8774 6 0
-8774 28 0
8774 -6 -28 0
-8775 8774 0
-8775 33 0
8775 -8774 -33 0
-8776 15 0
-8776 22 0
8776 -15 -22 0
-8777 8776 0
-8777 33 0
8777 -8776 -33 0
-8778 10 0
-8778 20 0
8778 -10 -20 0
-8779 8778 0
-8779 33 0
8779 -8778 -33 0
-8780 11 0
-8780 18 0
8780 -11 -18 0
-8781 8780 0
-8781 33 0
8781 -8780 -33 0
-8782 53 0
-8782 75 0
8782 -53 -75 0
-8783 8782 0
-8783 81 0
8783 -8782 -81 0
-8784 54 0
-8784 76 0
8784 -54 -76 0
-8785 8784 0
-8785 81 0
8785 -8784 -81 0
-8786 58 0
-8786 68 0
8786 -58 -68 0
-8787 8786 0
-8787 81 0
8787 -8786 -81 0
-8788 101 0
-8788 123 0
8788 -101 -123 0
-8789 8788 0
-8789 129 0
8789 -8788 -129 0
-8790 149 0
-8790 171 0
8790 -149 -171 0
-8791 8790 0
-8791 177 0
8791 -8790 -177 0
-8792 8771 8773 0
-8792 -8771 -8773 0
8792 -8771 8773 0
8792 8771 -8773 0
-8793 8792 8775 0
-8793 -8792 -8775 0
8793 -8792 8775 0
8793 8792 -8775 0
-8794 8793 8777 0
-8794 -8793 -8777 0
8794 -8793 8777 0
8794 8793 -8777 0
-8795 8794 8779 0
-8795 -8794 -8779 0
8795 -8794 8779 0
8795 8794 -8779 0
-8796 8795 8781 0
-8796 -8795 -8781 0
8796 -8795 8781 0
8796 8795 -8781 0
-8797 8796 8781 0
-8797 -8796 -8781 0
8797 -8796 8781 0
8797 8796 -8781 0
-8798 8797 8779 0
-8798 -8797 -8779 0
8798 -8797 8779 0
8798 8797 -8779 0
-8799 8798 8777 0
-8799 -8798 -8777 0
8799 -8798 8777 0
8799 8798 -8777 0
-8800 8799 8775 0
-8800 -8799 -8775 0
8800 -8799 8775 0
8800 8799 -8775 0
-8801 8800 8773 0
-8801 -8800 -8773 0
8801 -8800 8773 0
8801 8800 -8773 0
-8802 8801 8771 0
-8802 -8801 -8771 0
8802 -8801 8771 0
8802 8801 -8771 0
-8803 8802 8783 0
-8803 -8802 -8783 0
8803 -8802 8783 0
8803 8802 -8783 0
-8804 8803 8785 0
-8804 -8803 -8785 0
8804 -8803 8785 0
8804 8803 -8785 0
-8805 8804 8787 0
-8805 -8804 -8787 0
8805 -8804 8787 0
8805 8804 -8787 0
-8806 8805 8789 0
-8806 -8805 -8789 0
8806 -8805 8789 0
8806 8805 -8789 0
-8807 8806 8791 0
-8807 -8806 -8791 0
8807 -8806 8791 0
8807 8806 -8791 0
-8807 0
-8808 8770 0
-8808 34 0
8808 -8770 -34 0
-8809 8772 0
-8809 36 0
8809 -8772 -36 0
-8810 8774 0
-8810 34 0
8810 -8774 -34 0
-8811 8776 0
-8811 36 0
8811 -8776 -36 0
-8812 8778 0
-8812 35 0
8812 -8778 -35 0
-8813 8780 0
-8813 35 0
8813 -8780 -35 0
-8814 8780 0
-8814 37 0
8814 -8780 -37 0
-8815 8778 0
-8815 45 0
8815 -8778 -45 0
-8816 8776 0
-8816 37 0
8816 -8776 -37 0
-8817 8774 0
-8817 45 0
8817 -8774 -45 0
-8818 8772 0
-8818 41 0
8818 -8772 -41 0
-8819 8770 0
-8819 41 0
8819 -8770 -41 0
-8820 8782 0
-8820 82 0
8820 -8782 -82 0
-8821 8784 0
-8821 82 0
8821 -8784 -82 0
-8822 8786 0
-8822 83 0
8822 -8786 -83 0
-8823 8788 0
-8823 130 0
8823 -8788 -130 0
-8824 8790 0
-8824 178 0
8824 -8790 -178 0
-8825 8808 8809 0
-8825 -8808 -8809 0
8825 -8808 8809 0
8825 8808 -8809 0
-8826 8825 8810 0
-8826 -8825 -8810 0
8826 -8825 8810 0
8826 8825 -8810 0
-8827 8826 8811 0
-8827 -8826 -8811 0
8827 -8826 8811 0
8827 8826 -8811 0
-8828 8827 8812 0
-8828 -8827 -8812 0
8828 -8827 8812 0
8828 8827 -8812 0
-8829 8828 8813 0
-8829 -8828 -8813 0
8829 -8828 8813 0
8829 8828 -8813 0
-8830 8829 8814 0
-8830 -8829 -8814 0
8830 -8829 8814 0
8830 8829 -8814 0
-8831 8830 8815 0
-8831 -8830 -8815 0
8831 -8830 8815 0
8831 8830 -8815 0
-8832 8831 8816 0
-8832 -8831 -8816 0
8832 -8831 8816 0
8832 8831 -8816 0
-8833 8832 8817 0
-8833 -8832 -8817 0
8833 -8832 8817 0
8833 8832 -8817 0
-8834 8833 8818 0
-8834 -8833 -8818 0
8834 -8833 8818 0
8834 8833 -8818 0
-8835 8834 8819 0
-8835 -8834 -8819 0
8835 -8834 8819 0
8835 8834 -8819 0
-8836 8835 8820 0
-8836 -8835 -8820 0
8836 -8835 8820 0
8836 8835 -8820 0
-8837 8836 8821 0
-8837 -8836 -8821 0
8837 -8836 8821 0
8837 8836 -8821 0
-8838 8837 8822 0
-8838 -8837 -8822 0
8838 -8837 8822 0
8838 8837 -8822 0
-8839 8838 8823 0
-8839 -8838 -8823 0
8839 -8838 8823 0
8839 8838 -8823 0
-8840 8839 8824 0
-8840 -8839 -8824 0
8840 -8839 8824 0
8840 8839 -8824 0
-8840 0
-8841 8770 0
-8841 35 0
8841 -8770 -35 0
-8842 8772 0
-8842 35 0
8842 -8772 -35 0
-8843 8774 0
-8843 36 0
8843 -8774 -36 0
-8844 8776 0
-8844 34 0
8844 -8776 -34 0
-8845 8778 0
-8845 36 0
8845 -8778 -36 0
-8846 8780 0
-8846 34 0
8846 -8780 -34 0
-8847 8780 0
-8847 41 0
8847 -8780 -41 0
-8848 8778 0
-8848 41 0
8848 -8778 -41 0
-8849 8776 0
-8849 45 0
8849 -8776 -45 0
-8850 8774 0
-8850 37 0
8850 -8774 -37 0
-8851 8772 0
-8851 45 0
8851 -8772 -45 0
-8852 8770 0
-8852 37 0
8852 -8770 -37 0
-8853 8782 0
-8853 83 0
8853 -8782 -83 0
-8854 8784 0
-8854 84 0
8854 -8784 -84 0
-8855 8786 0
-8855 84 0
8855 -8786 -84 0
-8856 8788 0
-8856 131 0
8856 -8788 -131 0
-8857 8790 0
-8857 179 0
8857 -8790 -179 0
-8858 8841 8842 0
-8858 -8841 -8842 0
8858 -8841 8842 0
8858 8841 -8842 0
-8859 8858 8843 0
-8859 -8858 -8843 0
8859 -8858 8843 0
8859 8858 -8843 0
-8860 8859 8844 0
-8860 -8859 -8844 0
8860 -8859 8844 0
8860 8859 -8844 0
-8861 8860 8845 0
-8861 -8860 -8845 0
8861 -8860 8845 0
8861 8860 -8845 0
-8862 8861 8846 0
-8862 -8861 -8846 0
8862 -8861 8846 0
8862 8861 -8846 0
-8863 8862 8847 0
-8863 -8862 -8847 0
8863 -8862 8847 0
8863 8862 -8847 0
-8864 8863 8848 0
-8864 -8863 -8848 0
8864 -8863 8848 0
8864 8863 -8848 0
-8865 8864 8849 0
-8865 -8864 -8849 0
8865 -8864 8849 0
8865 8864 -8849 0
-8866 8865 8850 0
-8866 -8865 -8850 0
8866 -8865 8850 0
8866 8865 -8850 0
-8867 8866 8851 0
-8867 -8866 -8851 0
8867 -8866 8851 0
8867 8866 -8851 0
-8868 8867 8852 0
-8868 -8867 -8852 0
8868 -8867 8852 0
8868 8867 -8852 0
-8869 8868 8853 0
-8869 -8868 -8853 0
8869 -8868 8853 0
8869 8868 -8853 0
-8870 8869 8854 0
-8870 -8869 -8854 0
8870 -8869 8854 0
8870 8869 -8854 0
-8871 8870 8855 0
-8871 -8870 -8855 0
8871 -8870 8855 0
8871 8870 -8855 0
-8872 8871 8856 0
-8872 -8871 -8856 0
8872 -8871 8856 0
8872 8871 -8856 0
-8873 8872 8857 0
-8873 -8872 -8857 0
8873 -8872 8857 0
8873 8872 -8857 0
-8873 0
-8874 8770 0
-8874 36 0
8874 -8770 -36 0
-8875 8772 0
-8875 34 0
8875 -8772 -34 0
-8876 8774 0
-8876 35 0
8876 -8774 -35 0
-8877 8776 0
-8877 35 0
8877 -8776 -35 0
-8878 8778 0
-8878 34 0
8878 -8778 -34 0
-8879 8780 0
-8879 36 0
8879 -8780 -36 0
-8880 8780 0
-8880 45 0
8880 -8780 -45 0
-8881 8778 0
-8881 37 0
8881 -8778 -37 0
-8882 8776 0
-8882 41 0
8882 -8776 -41 0
-8883 8774 0
-8883 41 0
8883 -8774 -41 0
-8884 8772 0
-8884 37 0
8884 -8772 -37 0
-8885 8770 0
-8885 45 0
8885 -8770 -45 0
-8886 8782 0
-8886 84 0
8886 -8782 -84 0
-8887 8784 0
-8887 83 0
8887 -8784 -83 0
-8888 8786 0
-8888 82 0
8888 -8786 -82 0
-8889 8788 0
-8889 132 0
8889 -8788 -132 0
-8890 8790 0
-8890 180 0
8890 -8790 -180 0
-8891 8874 8875 0
-8891 -8874 -8875 0
8891 -8874 8875 0
8891 8874 -8875 0
-8892 8891 8876 0
-8892 -8891 -8876 0
8892 -8891 8876 0
8892 8891 -8876 0
-8893 8892 8877 0
-8893 -8892 -8877 0
8893 -8892 8877 0
8893 8892 -8877 0
-8894 8893 8878 0
-8894 -8893 -8878 0
8894 -8893 8878 0
8894 8893 -8878 0
-8895 8894 8879 0
-8895 -8894 -8879 0
8895 -8894 8879 0
8895 8894 -8879 0
-8896 8895 8880 0
-8896 -8895 -8880 0
8896 -8895 8880 0
8896 8895 -8880 0
-8897 8896 8881 0
-8897 -8896 -8881 0
8897 -8896 8881 0
8897 8896 -8881 0
-8898 8897 8882 0
-8898 -8897 -8882 0
8898 -8897 8882 0
8898 8897 -8882 0
-8899 8898 8883 0
-8899 -8898 -8883 0
8899 -8898 8883 0
8899 8898 -8883 0
-8900 8899 8884 0
-8900 -8899 -8884 0
8900 -8899 8884 0
8900 8899 -8884 0
-8901 8900 8885 0
-8901 -8900 -8885 0
8901 -8900 8885 0
8901 8900 -8885 0
-8902 8901 8886 0
-8902 -8901 -8886 0
8902 -8901 8886 0
8902 8901 -8886 0
-8903 8902 8887 0
-8903 -8902 -8887 0
8903 -8902 8887 0
8903 8902 -8887 0
-8904 8903 8888 0
-8904 -8903 -8888 0
8904 -8903 8888 0
8904 8903 -8888 0
-8905 8904 8889 0
-8905 -8904 -8889 0
8905 -8904 8889 0
8905 8904 -8889 0
-8906 8905 8890 0
-8906 -8905 -8890 0
8906 -8905 8890 0
8906 8905 -8890 0
-8906 0
-8907 8770 0
-8907 38 0
8907 -8770 -38 0
-8908 8772 0
-8908 48 0
8908 -8772 -48 0
-8909 8774 0
-8909 38 0
8909 -8774 -38 0
-8910 8776 0
-8910 48 0
8910 -8776 -48 0
-8911 8778 0
-8911 43 0
8911 -8778 -43 0
-8912 8780 0
-8912 43 0
8912 -8780 -43 0
-8913 8780 0
-8913 38 0
8913 -8780 -38 0
-8914 8778 0
-8914 48 0
8914 -8778 -48 0
-8915 8776 0
-8915 38 0
8915 -8776 -38 0
-8916 8774 0
-8916 48 0
8916 -8774 -48 0
-8917 8772 0
-8917 43 0
8917 -8772 -43 0
-8918 8770 0
-8918 43 0
8918 -8770 -43 0
-8919 8782 0
-8919 86 0
8919 -8782 -86 0
-8920 8784 0
-8920 86 0
8920 -8784 -86 0
-8921 8786 0
-8921 91 0
8921 -8786 -91 0
-8922 8788 0
-8922 134 0
8922 -8788 -134 0
-8923 8790 0
-8923 182 0
8923 -8790 -182 0
-8924 8907 8908 0
-8924 -8907 -8908 0
8924 -8907 8908 0
8924 8907 -8908 0
-8925 8924 8909 0
-8925 -8924 -8909 0
8925 -8924 8909 0
8925 8924 -8909 0
-8926 8925 8910 0
-8926 -8925 -8910 0
8926 -8925 8910 0
8926 8925 -8910 0
-8927 8926 8911 0
-8927 -8926 -8911 0
8927 -8926 8911 0
8927 8926 -8911 0
-8928 8927 8912 0
-8928 -8927 -8912 0
8928 -8927 8912 0
8928 8927 -8912 0
-8929 8928 8913 0
-8929 -8928 -8913 0
8929 -8928 8913 0
8929 8928 -8913 0
-8930 8929 8914 0
-8930 -8929 -8914 0
8930 -8929 8914 0
8930 8929 -8914 0
-8931 8930 8915 0
-8931 -8930 -8915 0
8931 -8930 8915 0
8931 8930 -8915 0
-8932 8931 8916 0
-8932 -8931 -8916 0
8932 -8931 8916 0
8932 8931 -8916 0
-8933 8932 8917 0
-8933 -8932 -8917 0
8933 -8932 8917 0
8933 8932 -8917 0
-8934 8933 8918 0
-8934 -8933 -8918 0
8934 -8933 8918 0
8934 8933 -8918 0
-8935 8934 8919 0
-8935 -8934 -8919 0
8935 -8934 8919 0
8935 8934 -8919 0
-8936 8935 8920 0
-8936 -8935 -8920 0
8936 -8935 8920 0
8936 8935 -8920 0
-8937 8936 8921 0
-8937 -8936 -8921 0
8937 -8936 8921 0
8937 8936 -8921 0
-8938 8937 8922 0
-8938 -8937 -8922 0
8938 -8937 8922 0
8938 8937 -8922 0
-8939 8938 8923 0
-8939 -8938 -8923 0
8939 -8938 8923 0
8939 8938 -8923 0
8939 0
-8940 8770 0
-8940 39 0
8940 -8770 -39 0
-8941 8772 0
-8941 47 0
8941 -8772 -47 0
-8942 8774 0
-8942 40 0
8942 -8774 -40 0
-8943 8776 0
-8943 46 0
8943 -8776 -46 0
-8944 8778 0
-8944 44 0
8944 -8778 -44 0
-8945 8780 0
-8945 42 0
8945 -8780 -42 0
-8946 8782 0
-8946 87 0
8946 -8782 -87 0
-8947 8784 0
-8947 88 0
8947 -8784 -88 0
-8948 8786 0
-8948 92 0
8948 -8786 -92 0
-8949 8788 0
-8949 135 0
8949 -8788 -135 0
-8950 8790 0
-8950 183 0
8950 -8790 -183 0
-8951 8940 8941 0
-8951 -8940 -8941 0
8951 -8940 8941 0
8951 8940 -8941 0
-8952 8951 8942 0
-8952 -8951 -8942 0
8952 -8951 8942 0
8952 8951 -8942 0
-8953 8952 8943 0
-8953 -8952 -8943 0
8953 -8952 8943 0
8953 8952 -8943 0
-8954 8953 8944 0
-8954 -8953 -8944 0
8954 -8953 8944 0
8954 8953 -8944 0
-8955 8954 8945 0
-8955 -8954 -8945 0
8955 -8954 8945 0
8955 8954 -8945 0
-8956 8955 8945 0
-8956 -8955 -8945 0
8956 -8955 8945 0
8956 8955 -8945 0
-8957 8956 8944 0
-8957 -8956 -8944 0
8957 -8956 8944 0
8957 8956 -8944 0
-8958 8957 8943 0
-8958 -8957 -8943 0
8958 -8957 8943 0
8958 8957 -8943 0
-8959 8958 8942 0
-8959 -8958 -8942 0
8959 -8958 8942 0
8959 8958 -8942 0
-8960 8959 8941 0
-8960 -8959 -8941 0
8960 -8959 8941 0
8960 8959 -8941 0
-8961 8960 8940 0
-8961 -8960 -8940 0
8961 -8960 8940 0
8961 8960 -8940 0
-8962 8961 8946 0
-8962 -8961 -8946 0
8962 -8961 8946 0
8962 8961 -8946 0
-8963 8962 8947 0
-8963 -8962 -8947 0
8963 -8962 8947 0
8963 8962 -8947 0
-8964 8963 8948 0
-8964 -8963 -8948 0
8964 -8963 8948 0
8964 8963 -8948 0
-8965 8964 8949 0
-8965 -8964 -8949 0
8965 -8964 8949 0
8965 8964 -8949 0
-8966 8965 8950 0
-8966 -8965 -8950 0
8966 -8965 8950 0
8966 8965 -8950 0
-8966 0
-8967 8770 0
-8967 40 0
8967 -8770 -40 0
-8968 8772 0
-8968 46 0
8968 -8772 -46 0
-8969 8774 0
-8969 39 0
8969 -8774 -39 0
-8970 8776 0
-8970 47 0
8970 -8776 -47 0
-8971 8778 0
-8971 42 0
8971 -8778 -42 0
-8972 8780 0
-8972 44 0
8972 -8780 -44 0
-8973 8780 0
-8973 46 0
8973 -8780 -46 0
-8974 8778 0
-8974 40 0
8974 -8778 -40 0
-8975 8776 0
-8975 42 0
8975 -8776 -42 0
-8976 8774 0
-8976 44 0
8976 -8774 -44 0
-8977 8772 0
-8977 39 0
8977 -8772 -39 0
-8978 8770 0
-8978 47 0
8978 -8770 -47 0
-8979 8782 0
-8979 88 0
8979 -8782 -88 0
-8980 8784 0
-8980 87 0
8980 -8784 -87 0
-8981 8786 0
-8981 90 0
8981 -8786 -90 0
-8982 8788 0
-8982 136 0
8982 -8788 -136 0
-8983 8790 0
-8983 184 0
8983 -8790 -184 0
-8984 8967 8968 0
-8984 -8967 -8968 0
8984 -8967 8968 0
8984 8967 -8968 0
-8985 8984 8969 0
-8985 -8984 -8969 0
8985 -8984 8969 0
8985 8984 -8969 0
-8986 8985 8970 0
-8986 -8985 -8970 0
8986 -8985 8970 0
8986 8985 -8970 0
-8987 8986 8971 0
-8987 -8986 -8971 0
8987 -8986 8971 0
8987 8986 -8971 0
-8988 8987 8972 0
-8988 -8987 -8972 0
8988 -8987 8972 0
8988 8987 -8972 0
-8989 8988 8973 0
-8989 -8988 -8973 0
8989 -8988 8973 0
8989 8988 -8973 0
-8990 8989 8974 0
-8990 -8989 -8974 0
8990 -8989 8974 0
8990 8989 -8974 0
-8991 8990 8975 0
-8991 -8990 -8975 0
8991 -8990 8975 0
8991 8990 -8975 0
-8992 8991 8976 0
-8992 -8991 -8976 0
8992 -8991 8976 0
8992 8991 -8976 0
-8993 8992 8977 0
-8993 -8992 -8977 0
8993 -8992 8977 0
8993 8992 -8977 0
-8994 8993 8978 0
-8994 -8993 -8978 0
8994 -8993 8978 0
8994 8993 -8978 0
-8995 8994 8979 0
-8995 -8994 -8979 0
8995 -8994 8979 0
8995 8994 -8979 0
-8996 8995 8980 0
-8996 -8995 -8980 0
8996 -8995 8980 0
8996 8995 -8980 0
-8997 8996 8981 0
-8997 -8996 -8981 0
8997 -8996 8981 0
8997 8996 -8981 0
-8998 8997 8982 0
-8998 -8997 -8982 0
8998 -8997 8982 0
8998 8997 -8982 0
-8999 8998 8983 0
-8999 -8998 -8983 0
8999 -8998 8983 0
8999 8998 -8983 0
-8999 0
-9000 8770 0
-9000 42 0
9000 -8770 -42 0
-9001 8772 0
-9001 44 0
9001 -8772 -44 0
-9002 8774 0
-9002 46 0
9002 -8774 -46 0
-9003 8776 0
-9003 40 0
9003 -8776 -40 0
-9004 8778 0
-9004 47 0
9004 -8778 -47 0
-9005 8780 0
-9005 39 0
9005 -8780 -39 0
-9006 8782 0
-9006 90 0
9006 -8782 -90 0
-9007 8784 0
-9007 94 0
9007 -8784 -94 0
-9008 8786 0
-9008 95 0
9008 -8786 -95 0
-9009 8788 0
-9009 138 0
9009 -8788 -138 0
-9010 8790 0
-9010 186 0
9010 -8790 -186 0
-9011 9000 9001 0
-9011 -9000 -9001 0
9011 -9000 9001 0
9011 9000 -9001 0
-9012 9011 9002 0
-9012 -9011 -9002 0
9012 -9011 9002 0
9012 9011 -9002 0
-9013 9012 9003 0
-9013 -9012 -9003 0
9013 -9012 9003 0
9013 9012 -9003 0
-9014 9013 9004 0
-9014 -9013 -9004 0
9014 -9013 9004 0
9014 9013 -9004 0
-9015 9014 9005 0
-9015 -9014 -9005 0
9015 -9014 9005 0
9015 9014 -9005 0
-9016 9015 9005 0
-9016 -9015 -9005 0
9016 -9015 9005 0
9016 9015 -9005 0
-9017 9016 9004 0
-9017 -9016 -9004 0
9017 -9016 9004 0
9017 9016 -9004 0
-9018 9017 9003 0
-9018 -9017 -9003 0
9018 -9017 9003 0
9018 9017 -9003 0
-9019 9018 9002 0
-9019 -9018 -9002 0
9019 -9018 9002 0
9019 9018 -9002 0
-9020 9019 9001 0
-9020 -9019 -9001 0
9020 -9019 9001 0
9020 9019 -9001 0
-9021 9020 9000 0
-9021 -9020 -9000 0
9021 -9020 9000 0
9021 9020 -9000 0
-9022 9021 9006 0
-9022 -9021 -9006 0
9022 -9021 9006 0
9022 9021 -9006 0
-9023 9022 9007 0
-9023 -9022 -9007 0
9023 -9022 9007 0
9023 9022 -9007 0
-9024 9023 9008 0
-9024 -9023 -9008 0
9024 -9023 9008 0
9024 9023 -9008 0
-9025 9024 9009 0
-9025 -9024 -9009 0
9025 -9024 9009 0
9025 9024 -9009 0
-9026 9025 9010 0
-9026 -9025 -9010 0
9026 -9025 9010 0
9026 9025 -9010 0
-9026 0
-9027 8770 0
-9027 44 0
9027 -8770 -44 0
-9028 8772 0
-9028 42 0
9028 -8772 -42 0
-9029 8774 0
-9029 47 0
9029 -8774 -47 0
-9030 8776 0
-9030 39 0
9030 -8776 -39 0
-9031 8778 0
-9031 46 0
9031 -8778 -46 0
-9032 8780 0
-9032 40 0
9032 -8780 -40 0
-9033 8780 0
-9033 47 0
9033 -8780 -47 0
-9034 8778 0
-9034 39 0
9034 -8778 -39 0
-9035 8776 0
-9035 44 0
9035 -8776 -44 0
-9036 8774 0
-9036 42 0
9036 -8774 -42 0
-9037 8772 0
-9037 40 0
9037 -8772 -40 0
-9038 8770 0
-9038 46 0
9038 -8770 -46 0
-9039 8782 0
-9039 92 0
9039 -8782 -92 0
-9040 8784 0
-9040 95 0
9040 -8784 -95 0
-9041 8786 0
-9041 94 0
9041 -8786 -94 0
-9042 8788 0
-9042 140 0
9042 -8788 -140 0
-9043 8790 0
-9043 188 0
9043 -8790 -188 0
-9044 9027 9028 0
-9044 -9027 -9028 0
9044 -9027 9028 0
9044 9027 -9028 0
-9045 9044 9029 0
-9045 -9044 -9029 0
9045 -9044 9029 0
9045 9044 -9029 0
-9046 9045 9030 0
-9046 -9045 -9030 0
9046 -9045 9030 0
9046 9045 -9030 0
-9047 9046 9031 0
-9047 -9046 -9031 0
9047 -9046 9031 0
9047 9046 -9031 0
-9048 9047 9032 0
-9048 -9047 -9032 0
9048 -9047 9032 0
9048 9047 -9032 0
-9049 9048 9033 0
-9049 -9048 -9033 0
9049 -9048 9033 0
9049 9048 -9033 0
-9050 9049 9034 0
-9050 -9049 -9034 0
9050 -9049 9034 0
9050 9049 -9034 0
-9051 9050 9035 0
-9051 -9050 -9035 0
9051 -9050 9035 0
9051 9050 -9035 0
-9052 9051 9036 0
-9052 -9051 -9036 0
9052 -9051 9036 0
9052 9051 -9036 0
-9053 9052 9037 0
-9053 -9052 -9037 0
9053 -9052 9037 0
9053 9052 -9037 0
-9054 9053 9038 0
-9054 -9053 -9038 0
9054 -9053 9038 0
9054 9053 -9038 0
-9055 9054 9039 0
-9055 -9054 -9039 0
9055 -9054 9039 0
9055 9054 -9039 0
-9056 9055 9040 0
-9056 -9055 -9040 0
9056 -9055 9040 0
9056 9055 -9040 0
-9057 9056 9041 0
-9057 -9056 -9041 0
9057 -9056 9041 0
9057 9056 -9041 0
-9058 9057 9042 0
-9058 -9057 -9042 0
9058 -9057 9042 0
9058 9057 -9042 0
-9059 9058 9043 0
-9059 -9058 -9043 0
9059 -9058 9043 0
9059 9058 -9043 0
-9059 0
-9060 8770 0
-9060 48 0
9060 -8770 -48 0
-9061 8772 0
-9061 38 0
9061 -8772 -38 0
-9062 8774 0
-9062 43 0
9062 -8774 -43 0
-9063 8776 0
-9063 43 0
9063 -8776 -43 0
-9064 8778 0
-9064 38 0
9064 -8778 -38 0
-9065 8780 0
-9065 48 0
9065 -8780 -48 0
-9066 8782 0
-9066 96 0
9066 -8782 -96 0
-9067 8784 0
-9067 91 0
9067 -8784 -91 0
-9068 8786 0
-9068 86 0
9068 -8786 -86 0
-9069 8788 0
-9069 144 0
9069 -8788 -144 0
-9070 8790 0
-9070 192 0
9070 -8790 -192 0
-9071 9060 9061 0
-9071 -9060 -9061 0
9071 -9060 9061 0
9071 9060 -9061 0
-9072 9071 9062 0
-9072 -9071 -9062 0
9072 -9071 9062 0
9072 9071 -9062 0
-9073 9072 9063 0
-9073 -9072 -9063 0
9073 -9072 9063 0
9073 9072 -9063 0
-9074 9073 9064 0
-9074 -9073 -9064 0
9074 -9073 9064 0
9074 9073 -9064 0
-9075 9074 9065 0
-9075 -9074 -9065 0
9075 -9074 9065 0
9075 9074 -9065 0
-9076 9075 9065 0
-9076 -9075 -9065 0
9076 -9075 9065 0
9076 9075 -9065 0
-9077 9076 9064 0
-9077 -9076 -9064 0
9077 -9076 9064 0
9077 9076 -9064 0
-9078 9077 9063 0
-9078 -9077 -9063 0
9078 -9077 9063 0
9078 9077 -9063 0
-9079 9078 9062 0
-9079 -9078 -9062 0
9079 -9078 9062 0
9079 9078 -9062 0
-9080 9079 9061 0
-9080 -9079 -9061 0
9080 -9079 9061 0
9080 9079 -9061 0
-9081 9080 9060 0
-9081 -9080 -9060 0
9081 -9080 9060 0
9081 9080 -9060 0
-9082 9081 9066 0
-9082 -9081 -9066 0
9082 -9081 9066 0
9082 9081 -9066 0
-9083 9082 9067 0
-9083 -9082 -9067 0
9083 -9082 9067 0
9083 9082 -9067 0
-9084 9083 9068 0
-9084 -9083 -9068 0
9084 -9083 9068 0
9084 9083 -9068 0
-9085 9084 9069 0
-9085 -9084 -9069 0
9085 -9084 9069 0
9085 9084 -9069 0
-9086 9085 9070 0
-9086 -9085 -9070 0
9086 -9085 9070 0
9086 9085 -9070 0
-9086 0
-9087 5 0
-9087 30 0
9087 -5 -30 0
-9088 9087 0
-9088 33 0
9088 -9087 -33 0
-9089 13 0
-9089 32 0
9089 -13 -32 0
-9090 9089 0
-9090 33 0
9090 -9089 -33 0
-9091 6 0
-9091 30 0
9091 -6 -30 0
-9092 9091 0
-9092 33 0
9092 -9091 -33 0
-9093 15 0
-9093 32 0
9093 -15 -32 0
-9094 9093 0
-9094 33 0
9094 -9093 -33 0
-9095 10 0
-9095 31 0
9095 -10 -31 0
-9096 9095 0
-9096 33 0
9096 -9095 -33 0
-9097 11 0
-9097 31 0
9097 -11 -31 0
-9098 9097 0
-9098 33 0
9098 -9097 -33 0
-9099 18 0
-9099 8 0
9099 -18 -8 0
-9100 9099 0
-9100 33 0
9100 -9099 -33 0
-9101 20 0
-9101 16 0
9101 -20 -16 0
-9102 9101 0
-9102 33 0
9102 -9101 -33 0
-9103 22 0
-9103 8 0
9103 -22 -8 0
-9104 9103 0
-9104 33 0
9104 -9103 -33 0
-9105 28 0
-9105 16 0
9105 -28 -16 0
-9106 9105 0
-9106 33 0
9106 -9105 -33 0
-9107 23 0
-9107 12 0
9107 -23 -12 0
-9108 9107 0
-9108 33 0
9108 -9107 -33 0
-9109 27 0
-9109 12 0
9109 -27 -12 0
-9110 9109 0
-9110 33 0
9110 -9109 -33 0
-9111 53 0
-9111 78 0
9111 -53 -78 0
-9112 9111 0
-9112 81 0
9112 -9111 -81 0
-9113 54 0
-9113 78 0
9113 -54 -78 0
-9114 9113 0
-9114 81 0
9114 -9113 -81 0
-9115 58 0
-9115 79 0
9115 -58 -79 0
-9116 9115 0
-9116 81 0
9116 -9115 -81 0
-9117 101 0
-9117 126 0
9117 -101 -126 0
-9118 9117 0
-9118 129 0
9118 -9117 -129 0
-9119 149 0
-9119 174 0
9119 -149 -174 0
-9120 9119 0
-9120 177 0
9120 -9119 -177 0
-9121 9088 9090 0
-9121 -9088 -9090 0
9121 -9088 9090 0
9121 9088 -9090 0
-9122 9121 9092 0
-9122 -9121 -9092 0
9122 -9121 9092 0
9122 9121 -9092 0
-9123 9122 9094 0
-9123 -9122 -9094 0
9123 -9122 9094 0
9123 9122 -9094 0
-9124 9123 9096 0
-9124 -9123 -9096 0
9124 -9123 9096 0
9124 9123 -9096 0
-9125 9124 9098 0
-9125 -9124 -9098 0
9125 -9124 9098 0
9125 9124 -9098 0
-9126 9125 9100 0
-9126 -9125 -9100 0
9126 -9125 9100 0
9126 9125 -9100 0
-9127 9126 9102 0
-9127 -9126 -9102 0
9127 -9126 9102 0
9127 9126 -9102 0
-9128 9127 9104 0
-9128 -9127 -9104 0
9128 -9127 9104 0
9128 9127 -9104 0
-9129 9128 9106 0
-9129 -9128 -9106 0
9129 -9128 9106 0
9129 9128 -9106 0
-9130 9129 9108 0
-9130 -9129 -9108 0
9130 -9129 9108 0
9130 9129 -9108 0
-9131 9130 9110 0
-9131 -9130 -9110 0
9131 -9130 9110 0
9131 9130 -9110 0
-9132 9131 9112 0
-9132 -9131 -9112 0
9132 -9131 9112 0
9132 9131 -9112 0
-9133 9132 9114 0
-9133 -9132 -9114 0
9133 -9132 9114 0
9133 9132 -9114 0
-9134 9133 9116 0
-9134 -9133 -9116 0
9134 -9133 9116 0
9134 9133 -9116 0
-9135 9134 9118 0
-9135 -9134 -9118 0
9135 -9134 9118 0
9135 9134 -9118 0
-9136 9135 9120 0
-9136 -9135 -9120 0
9136 -9135 9120 0
9136 9135 -9120 0
-9136 0
-9137 9087 0
-9137 34 0
9137 -9087 -34 0
-9138 9089 0
-9138 36 0
9138 -9089 -36 0
-9139 9091 0
-9139 34 0
9139 -9091 -34 0
-9140 9093 0
-9140 36 0
9140 -9093 -36 0
-9141 9095 0
-9141 35 0
9141 -9095 -35 0
-9142 9097 0
-9142 35 0
9142 -9097 -35 0
-9143 9099 0
-9143 37 0
9143 -9099 -37 0
-9144 9101 0
-9144 45 0
9144 -9101 -45 0
-9145 9103 0
-9145 37 0
9145 -9103 -37 0
-9146 9105 0
-9146 45 0
9146 -9105 -45 0
-9147 9107 0
-9147 41 0
9147 -9107 -41 0
-9148 9109 0
-9148 41 0
9148 -9109 -41 0
-9149 9111 0
-9149 82 0
9149 -9111 -82 0
-9150 9113 0
-9150 82 0
9150 -9113 -82 0
-9151 9115 0
-9151 83 0
9151 -9115 -83 0
-9152 9117 0
-9152 130 0
9152 -9117 -130 0
-9153 9119 0
-9153 178 0
9153 -9119 -178 0
-9154 9137 9138 0
-9154 -9137 -9138 0
9154 -9137 9138 0
9154 9137 -9138 0
-9155 9154 9139 0
-9155 -9154 -9139 0
9155 -9154 9139 0
9155 9154 -9139 0
-9156 9155 9140 0
-9156 -9155 -9140 0
9156 -9155 9140 0
9156 9155 -9140 0
-9157 9156 9141 0
-9157 -9156 -9141 0
9157 -9156 9141 0
9157 9156 -9141 0
-9158 9157 9142 0
-9158 -9157 -9142 0
9158 -9157 9142 0
9158 9157 -9142 0
-9159 9158 9143 0
-9159 -9158 -9143 0
9159 -9158 9143 0
9159 9158 -9143 0
-9160 9159 9144 0
-9160 -9159 -9144 0
9160 -9159 9144 0
9160 9159 -9144 0
-9161 9160 9145 0
-9161 -9160 -9145 0
9161 -9160 9145 0
9161 9160 -9145 0
-9162 9161 9146 0
-9162 -9161 -9146 0
9162 -9161 9146 0
9162 9161 -9146 0
-9163 9162 9147 0
-9163 -9162 -9147 0
9163 -9162 9147 0
9163 9162 -9147 0
-9164 9163 9148 0
-9164 -9163 -9148 0
9164 -9163 9148 0
9164 9163 -9148 0
-9165 9164 9149 0
-9165 -9164 -9149 0
9165 -9164 9149 0
9165 9164 -9149 0
-9166 9165 9150 0
-9166 -9165 -9150 0
9166 -9165 9150 0
9166 9165 -9150 0
-9167 9166 9151 0
-9167 -9166 -9151 0
9167 -9166 9151 0
9167 9166 -9151 0
-9168 9167 9152 0
-9168 -9167 -9152 0
9168 -9167 9152 0
9168 9167 -9152 0
-9169 9168 9153 0
-9169 -9168 -9153 0
9169 -9168 9153 0
9169 9168 -9153 0
-9169 0
-9170 9087 0
-9170 35 0
9170 -9087 -35 0
-9171 9089 0
-9171 35 0
9171 -9089 -35 0
-9172 9091 0
-9172 36 0
9172 -9091 -36 0
-9173 9093 0
-9173 34 0
9173 -9093 -34 0
-9174 9095 0
-9174 36 0
9174 -9095 -36 0
-9175 9097 0
-9175 34 0
9175 -9097 -34 0
-9176 9099 0
-9176 41 0
9176 -9099 -41 0
-9177 9101 0
-9177 41 0
9177 -9101 -41 0
-9178 9103 0
-9178 45 0
9178 -9103 -45 0
-9179 9105 0
-9179 37 0
9179 -9105 -37 0
-9180 9107 0
-9180 45 0
9180 -9107 -45 0
-9181 9109 0
-9181 37 0
9181 -9109 -37 0
-9182 9111 0
-9182 83 0
9182 -9111 -83 0
-9183 9113 0
-9183 84 0
9183 -9113 -84 0
-9184 9115 0
-9184 84 0
9184 -9115 -84 0
-9185 9117 0
-9185 131 0
9185 -9117 -131 0
-9186 9119 0
-9186 179 0
9186 -9119 -179 0
-9187 9170 9171 0
-9187 -9170 -9171 0
9187 -9170 9171 0
9187 9170 -9171 0
-9188 9187 9172 0
-9188 -9187 -9172 0
9188 -9187 9172 0
9188 9187 -9172 0
-9189 9188 9173 0
-9189 -9188 -9173 0
9189 -9188 9173 0
9189 9188 -9173 0
-9190 9189 9174 0
-9190 -9189 -9174 0
9190 -9189 9174 0
9190 9189 -9174 0
-9191 9190 9175 0
-9191 -9190 -9175 0
9191 -9190 9175 0
9191 9190 -9175 0
-9192 9191 9176 0
-9192 -9191 -9176 0
9192 -9191 9176 0
9192 9191 -9176 0
-9193 9192 9177 0
-9193 -9192 -9177 0
9193 -9192 9177 0
9193 9192 -9177 0
-9194 9193 9178 0
-9194 -9193 -9178 0
9194 -9193 9178 0
9194 9193 -9178 0
-9195 9194 9179 0
-9195 -9194 -9179 0
9195 -9194 9179 0
9195 9194 -9179 0
-9196 9195 9180 0
-9196 -9195 -9180 0
9196 -9195 9180 0
9196 9195 -9180 0
-9197 9196 9181 0
-9197 -9196 -9181 0
9197 -9196 9181 0
9197 9196 -9181 0
-9198 9197 9182 0
-9198 -9197 -9182 0
9198 -9197 9182 0
9198 9197 -9182 0
-9199 9198 9183 0
-9199 -9198 -9183 0
9199 -9198 9183 0
9199 9198 -9183 0
-9200 9199 9184 0
-9200 -9199 -9184 0
9200 -9199 9184 0
9200 9199 -9184 0
-9201 9200 9185 0
-9201 -9200 -9185 0
9201 -9200 9185 0
9201 9200 -9185 0
-9202 9201 9186 0
-9202 -9201 -9186 0
9202 -9201 9186 0
9202 9201 -9186 0
-9202 0
-9203 9087 0
-9203 36 0
9203 -9087 -36 0
-9204 9089 0
-9204 34 0
9204 -9089 -34 0
-9205 9091 0
-9205 35 0
9205 -9091 -35 0
-9206 9093 0
-9206 35 0
9206 -9093 -35 0
-9207 9095 0
-9207 34 0
9207 -9095 -34 0
-9208 9097 0
-9208 36 0
9208 -9097 -36 0
-9209 9099 0
-9209 45 0
9209 -9099 -45 0
-9210 9101 0
-9210 37 0
9210 -9101 -37 0
-9211 9103 0
-9211 41 0
9211 -9103 -41 0
-9212 9105 0
-9212 41 0
9212 -9105 -41 0
-9213 9107 0
-9213 37 0
9213 -9107 -37 0
-9214 9109 0
-9214 45 0
9214 -9109 -45 0
-9215 9111 0
-9215 84 0
9215 -9111 -84 0
-9216 9113 0
-9216 83 0
9216 -9113 -83 0
-9217 9115 0
-9217 82 0
9217 -9115 -82 0
-9218 9117 0
-9218 132 0
9218 -9117 -132 0
-9219 9119 0
-9219 180 0
9219 -9119 -180 0
-9220 9203 9204 0
-9220 -9203 -9204 0
9220 -9203 9204 0
9220 9203 -9204 0
-9221 9220 9205 0
-9221 -9220 -9205 0
9221 -9220 9205 0
9221 9220 -9205 0
-9222 9221 9206 0
-9222 -9221 -9206 0
9222 -9221 9206 0
9222 9221 -9206 0
-9223 9222 9207 0
-9223 -9222 -9207 0
9223 -9222 9207 0
9223 9222 -9207 0
-9224 9223 9208 0
-9224 -9223 -9208 0
9224 -9223 9208 0
9224 9223 -9208 0
-9225 9224 9209 0
-9225 -9224 -9209 0
9225 -9224 9209 0
9225 9224 -9209 0
-9226 9225 9210 0
-9226 -9225 -9210 0
9226 -9225 9210 0
9226 9225 -9210 0
-9227 9226 9211 0
-9227 -9226 -9211 0
9227 -9226 9211 0
9227 9226 -9211 0
-9228 9227 9212 0
-9228 -9227 -9212 0
9228 -9227 9212 0
9228 9227 -9212 0
-9229 9228 9213 0
-9229 -9228 -9213 0
9229 -9228 9213 0
9229 9228 -9213 0
-9230 9229 9214 0
-9230 -9229 -9214 0
9230 -9229 9214 0
9230 9229 -9214 0
-9231 9230 9215 0
-9231 -9230 -9215 0
9231 -9230 9215 0
9231 9230 -9215 0
-9232 9231 9216 0
-9232 -9231 -9216 0
9232 -9231 9216 0
9232 9231 -9216 0
-9233 9232 9217 0
-9233 -9232 -9217 0
9233 -9232 9217 0
9233 9232 -9217 0
-9234 9233 9218 0
-9234 -9233 -9218 0
9234 -9233 9218 0
9234 9233 -9218 0
-9235 9234 9219 0
-9235 -9234 -9219 0
9235 -9234 9219 0
9235 9234 -9219 0
-9235 0
-9236 9087 0
-9236 37 0
9236 -9087 -37 0
-9237 9089 0
-9237 45 0
9237 -9089 -45 0
-9238 9091 0
-9238 37 0
9238 -9091 -37 0
-9239 9093 0
-9239 45 0
9239 -9093 -45 0
-9240 9095 0
-9240 41 0
9240 -9095 -41 0
-9241 9097 0
-9241 41 0
9241 -9097 -41 0
-9242 9099 0
-9242 34 0
9242 -9099 -34 0
-9243 9101 0
-9243 36 0
9243 -9101 -36 0
-9244 9103 0
-9244 34 0
9244 -9103 -34 0
-9245 9105 0
-9245 36 0
9245 -9105 -36 0
-9246 9107 0
-9246 35 0
9246 -9107 -35 0
-9247 9109 0
-9247 35 0
9247 -9109 -35 0
-9248 9111 0
-9248 85 0
9248 -9111 -85 0
-9249 9113 0
-9249 85 0
9249 -9113 -85 0
-9250 9115 0
-9250 89 0
9250 -9115 -89 0
-9251 9117 0
-9251 133 0
9251 -9117 -133 0
-9252 9119 0
-9252 181 0
9252 -9119 -181 0
-9253 9236 9237 0
-9253 -9236 -9237 0
9253 -9236 9237 0
9253 9236 -9237 0
-9254 9253 9238 0
-9254 -9253 -9238 0
9254 -9253 9238 0
9254 9253 -9238 0
-9255 9254 9239 0
-9255 -9254 -9239 0
9255 -9254 9239 0
9255 9254 -9239 0
-9256 9255 9240 0
-9256 -9255 -9240 0
9256 -9255 9240 0
9256 9255 -9240 0
-9257 9256 9241 0
-9257 -9256 -9241 0
9257 -9256 9241 0
9257 9256 -9241 0
-9258 9257 9242 0
-9258 -9257 -9242 0
9258 -9257 9242 0
9258 9257 -9242 0
-9259 9258 9243 0
-9259 -9258 -9243 0
9259 -9258 9243 0
9259 9258 -9243 0
-9260 9259 9244 0
-9260 -9259 -9244 0
9260 -9259 9244 0
9260 9259 -9244 0
-9261 9260 9245 0
-9261 -9260 -9245 0
9261 -9260 9245 0
9261 9260 -9245 0
-9262 9261 9246 0
-9262 -9261 -9246 0
9262 -9261 9246 0
9262 9261 -9246 0
-9263 9262 9247 0
-9263 -9262 -9247 0
9263 -9262 9247 0
9263 9262 -9247 0
-9264 9263 9248 0
-9264 -9263 -9248 0
9264 -9263 9248 0
9264 9263 -9248 0
-9265 9264 9249 0
-9265 -9264 -9249 0
9265 -9264 9249 0
9265 9264 -9249 0
-9266 9265 9250 0
-9266 -9265 -9250 0
9266 -9265 9250 0
9266 9265 -9250 0
-9267 9266 9251 0
-9267 -9266 -9251 0
9267 -9266 9251 0
9267 9266 -9251 0
-9268 9267 9252 0
-9268 -9267 -9252 0
9268 -9267 9252 0
9268 9267 -9252 0
-9268 0
-9269 9087 0
-9269 38 0
9269 -9087 -38 0
-9270 9089 0
-9270 48 0
9270 -9089 -48 0
-9271 9091 0
-9271 38 0
9271 -9091 -38 0
-9272 9093 0
-9272 48 0
9272 -9093 -48 0
-9273 9095 0
-9273 43 0
9273 -9095 -43 0
-9274 9097 0
-9274 43 0
9274 -9097 -43 0
-9275 9099 0
-9275 38 0
9275 -9099 -38 0
-9276 9101 0
-9276 48 0
9276 -9101 -48 0
-9277 9103 0
-9277 38 0
9277 -9103 -38 0
-9278 9105 0
-9278 48 0
9278 -9105 -48 0
-9279 9107 0
-9279 43 0
9279 -9107 -43 0
-9280 9109 0
-9280 43 0
9280 -9109 -43 0
-9281 9111 0
-9281 86 0
9281 -9111 -86 0
-9282 9113 0
-9282 86 0
9282 -9113 -86 0
-9283 9115 0
-9283 91 0
9283 -9115 -91 0
-9284 9117 0
-9284 134 0
9284 -9117 -134 0
-9285 9119 0
-9285 182 0
9285 -9119 -182 0
-9286 9269 9270 0
-9286 -9269 -9270 0
9286 -9269 9270 0
9286 9269 -9270 0
-9287 9286 9271 0
-9287 -9286 -9271 0
9287 -9286 9271 0
9287 9286 -9271 0
-9288 9287 9272 0
-9288 -9287 -9272 0
9288 -9287 9272 0
9288 9287 -9272 0
-9289 9288 9273 0
-9289 -9288 -9273 0
9289 -9288 9273 0
9289 9288 -9273 0
-9290 9289 9274 0
-9290 -9289 -9274 0
9290 -9289 9274 0
9290 9289 -9274 0
-9291 9290 9275 0
-9291 -9290 -9275 0
9291 -9290 9275 0
9291 9290 -9275 0
-9292 9291 9276 0
-9292 -9291 -9276 0
9292 -9291 9276 0
9292 9291 -9276 0
-9293 9292 9277 0
-9293 -9292 -9277 0
9293 -9292 9277 0
9293 9292 -9277 0
-9294 9293 9278 0
-9294 -9293 -9278 0
9294 -9293 9278 0
9294 9293 -9278 0
-9295 9294 9279 0
-9295 -9294 -9279 0
9295 -9294 9279 0
9295 9294 -9279 0
-9296 9295 9280 0
-9296 -9295 -9280 0
9296 -9295 9280 0
9296 9295 -9280 0
-9297 9296 9281 0
-9297 -9296 -9281 0
9297 -9296 9281 0
9297 9296 -9281 0
-9298 9297 9282 0
-9298 -9297 -9282 0
9298 -9297 9282 0
9298 9297 -9282 0
-9299 9298 9283 0
-9299 -9298 -9283 0
9299 -9298 9283 0
9299 9298 -9283 0
-9300 9299 9284 0
-9300 -9299 -9284 0
9300 -9299 9284 0
9300 9299 -9284 0
-9301 9300 9285 0
-9301 -9300 -9285 0
9301 -9300 9285 0
9301 9300 -9285 0
-9301 0
-9302 9087 0
-9302 39 0
9302 -9087 -39 0
-9303 9089 0
-9303 47 0
9303 -9089 -47 0
-9304 9091 0
-9304 40 0
9304 -9091 -40 0
-9305 9093 0
-9305 46 0
9305 -9093 -46 0
-9306 9095 0
-9306 44 0
9306 -9095 -44 0
-9307 9097 0
-9307 42 0
9307 -9097 -42 0
-9308 9099 0
-9308 42 0
9308 -9099 -42 0
-9309 9101 0
-9309 44 0
9309 -9101 -44 0
-9310 9103 0
-9310 46 0
9310 -9103 -46 0
-9311 9105 0
-9311 40 0
9311 -9105 -40 0
-9312 9107 0
-9312 47 0
9312 -9107 -47 0
-9313 9109 0
-9313 39 0
9313 -9109 -39 0
-9314 9111 0
-9314 87 0
9314 -9111 -87 0
-9315 9113 0
-9315 88 0
9315 -9113 -88 0
-9316 9115 0
-9316 92 0
9316 -9115 -92 0
-9317 9117 0
-9317 135 0
9317 -9117 -135 0
-9318 9119 0
-9318 183 0
9318 -9119 -183 0
-9319 9302 9303 0
-9319 -9302 -9303 0
9319 -9302 9303 0
9319 9302 -9303 0
-9320 9319 9304 0
-9320 -9319 -9304 0
9320 -9319 9304 0
9320 9319 -9304 0
-9321 9320 9305 0
-9321 -9320 -9305 0
9321 -9320 9305 0
9321 9320 -9305 0
-9322 9321 9306 0
-9322 -9321 -9306 0
9322 -9321 9306 0
9322 9321 -9306 0
-9323 9322 9307 0
-9323 -9322 -9307 0
9323 -9322 9307 0
9323 9322 -9307 0
-9324 9323 9308 0
-9324 -9323 -9308 0
9324 -9323 9308 0
9324 9323 -9308 0
-9325 9324 9309 0
-9325 -9324 -9309 0
9325 -9324 9309 0
9325 9324 -9309 0
-9326 9325 9310 0
-9326 -9325 -9310 0
9326 -9325 9310 0
9326 9325 -9310 0
-9327 9326 9311 0
-9327 -9326 -9311 0
9327 -9326 9311 0
9327 9326 -9311 0
-9328 9327 9312 0
-9328 -9327 -9312 0
9328 -9327 9312 0
9328 9327 -9312 0
-9329 9328 9313 0
-9329 -9328 -9313 0
9329 -9328 9313 0
9329 9328 -9313 0
-9330 9329 9314 0
-9330 -9329 -9314 0
9330 -9329 9314 0
9330 9329 -9314 0
-9331 9330 9315 0
-9331 -9330 -9315 0
9331 -9330 9315 0
9331 9330 -9315 0
-9332 9331 9316 0
-9332 -9331 -9316 0
9332 -9331 9316 0
9332 9331 -9316 0
-9333 9332 9317 0
-9333 -9332 -9317 0
9333 -9332 9317 0
9333 9332 -9317 0
-9334 9333 9318 0
-9334 -9333 -9318 0
9334 -9333 9318 0
9334 9333 -9318 0
-9334 0
-9335 9087 0
-9335 40 0
9335 -9087 -40 0
-9336 9089 0
-9336 46 0
9336 -9089 -46 0
-9337 9091 0
-9337 39 0
9337 -9091 -39 0
-9338 9093 0
-9338 47 0
9338 -9093 -47 0
-9339 9095 0
-9339 42 0
9339 -9095 -42 0
-9340 9097 0
-9340 44 0
9340 -9097 -44 0
-9341 9099 0
-9341 46 0
9341 -9099 -46 0
-9342 9101 0
-9342 40 0
9342 -9101 -40 0
-9343 9103 0
-9343 42 0
9343 -9103 -42 0
-9344 9105 0
-9344 44 0
9344 -9105 -44 0
-9345 9107 0
-9345 39 0
9345 -9107 -39 0
-9346 9109 0
-9346 47 0
9346 -9109 -47 0
-9347 9111 0
-9347 88 0
9347 -9111 -88 0
-9348 9113 0
-9348 87 0
9348 -9113 -87 0
-9349 9115 0
-9349 90 0
9349 -9115 -90 0
-9350 9117 0
-9350 136 0
9350 -9117 -136 0
-9351 9119 0
-9351 184 0
9351 -9119 -184 0
-9352 9335 9336 0
-9352 -9335 -9336 0
9352 -9335 9336 0
9352 9335 -9336 0
-9353 9352 9337 0
-9353 -9352 -9337 0
9353 -9352 9337 0
9353 9352 -9337 0
-9354 9353 9338 0
-9354 -9353 -9338 0
9354 -9353 9338 0
9354 9353 -9338 0
-9355 9354 9339 0
-9355 -9354 -9339 0
9355 -9354 9339 0
9355 9354 -9339 0
-9356 9355 9340 0
-9356 -9355 -9340 0
9356 -9355 9340 0
9356 9355 -9340 0
-9357 9356 9341 0
-9357 -9356 -9341 0
9357 -9356 9341 0
9357 9356 -9341 0
-9358 9357 9342 0
-9358 -9357 -9342 0
9358 -9357 9342 0
9358 9357 -9342 0
-9359 9358 9343 0
-9359 -9358 -9343 0
9359 -9358 9343 0
9359 9358 -9343 0
-9360 9359 9344 0
-9360 -9359 -9344 0
9360 -9359 9344 0
9360 9359 -9344 0
-9361 9360 9345 0
-9361 -9360 -9345 0
9361 -9360 9345 0
9361 9360 -9345 0
-9362 9361 9346 0
-9362 -9361 -9346 0
9362 -9361 9346 0
9362 9361 -9346 0
-9363 9362 9347 0
-9363 -9362 -9347 0
9363 -9362 9347 0
9363 9362 -9347 0
-9364 9363 9348 0
-9364 -9363 -9348 0
9364 -9363 9348 0
9364 9363 -9348 0
-9365 9364 9349 0
-9365 -9364 -9349 0
9365 -9364 9349 0
9365 9364 -9349 0
-9366 9365 9350 0
-9366 -9365 -9350 0
9366 -9365 9350 0
9366 9365 -9350 0
-9367 9366 9351 0
-9367 -9366 -9351 0
9367 -9366 9351 0
9367 9366 -9351 0
-9367 0
-9368 9087 0
-9368 41 0
9368 -9087 -41 0
-9369 9089 0
-9369 41 0
9369 -9089 -41 0
-9370 9091 0
-9370 45 0
9370 -9091 -45 0
-9371 9093 0
-9371 37 0
9371 -9093 -37 0
-9372 9095 0
-9372 45 0
9372 -9095 -45 0
-9373 9097 0
-9373 37 0
9373 -9097 -37 0
-9374 9099 0
-9374 35 0
9374 -9099 -35 0
-9375 9101 0
-9375 35 0
9375 -9101 -35 0
-9376 9103 0
-9376 36 0
9376 -9103 -36 0
-9377 9105 0
-9377 34 0
9377 -9105 -34 0
-9378 9107 0
-9378 36 0
9378 -9107 -36 0
-9379 9109 0
-9379 34 0
9379 -9109 -34 0
-9380 9111 0
-9380 89 0
9380 -9111 -89 0
-9381 9113 0
-9381 93 0
9381 -9113 -93 0
-9382 9115 0
-9382 93 0
9382 -9115 -93 0
-9383 9117 0
-9383 137 0
9383 -9117 -137 0
-9384 9119 0
-9384 185 0
9384 -9119 -185 0
-9385 9368 9369 0
-9385 -9368 -9369 0
9385 -9368 9369 0
9385 9368 -9369 0
-9386 9385 9370 0
-9386 -9385 -9370 0
9386 -9385 9370 0
9386 9385 -9370 0
-9387 9386 9371 0
-9387 -9386 -9371 0
9387 -9386 9371 0
9387 9386 -9371 0
-9388 9387 9372 0
-9388 -9387 -9372 0
9388 -9387 9372 0
9388 9387 -9372 0
-9389 9388 9373 0
-9389 -9388 -9373 0
9389 -9388 9373 0
9389 9388 -9373 0
-9390 9389 9374 0
-9390 -9389 -9374 0
9390 -9389 9374 0
9390 9389 -9374 0
-9391 9390 9375 0
-9391 -9390 -9375 0
9391 -9390 9375 0
9391 9390 -9375 0
-9392 9391 9376 0
-9392 -9391 -9376 0
9392 -9391 9376 0
9392 9391 -9376 0
-9393 9392 9377 0
-9393 -9392 -9377 0
9393 -9392 9377 0
9393 9392 -9377 0
-9394 9393 9378 0
-9394 -9393 -9378 0
9394 -9393 9378 0
9394 9393 -9378 0
-9395 9394 9379 0
-9395 -9394 -9379 0
9395 -9394 9379 0
9395 9394 -9379 0
-9396 9395 9380 0
-9396 -9395 -9380 0
9396 -9395 9380 0
9396 9395 -9380 0
-9397 9396 9381 0
-9397 -9396 -9381 0
9397 -9396 9381 0
9397 9396 -9381 0
-9398 9397 9382 0
-9398 -9397 -9382 0
9398 -9397 9382 0
9398 9397 -9382 0
-9399 9398 9383 0
-9399 -9398 -9383 0
9399 -9398 9383 0
9399 9398 -9383 0
-9400 9399 9384 0
-9400 -9399 -9384 0
9400 -9399 9384 0
9400 9399 -9384 0
-9400 0
-9401 9087 0
-9401 42 0
9401 -9087 -42 0
-9402 9089 0
-9402 44 0
9402 -9089 -44 0
-9403 9091 0
-9403 46 0
9403 -9091 -46 0
-9404 9093 0
-9404 40 0
9404 -9093 -40 0
-9405 9095 0
-9405 47 0
9405 -9095 -47 0
-9406 9097 0
-9406 39 0
9406 -9097 -39 0
-9407 9099 0
-9407 39 0
9407 -9099 -39 0
-9408 9101 0
-9408 47 0
9408 -9101 -47 0
-9409 9103 0
-9409 40 0
9409 -9103 -40 0
-9410 9105 0
-9410 46 0
9410 -9105 -46 0
-9411 9107 0
-9411 44 0
9411 -9107 -44 0
-9412 9109 0
-9412 42 0
9412 -9109 -42 0
-9413 9111 0
-9413 90 0
9413 -9111 -90 0
-9414 9113 0
-9414 94 0
9414 -9113 -94 0
-9415 9115 0
-9415 95 0
9415 -9115 -95 0
-9416 9117 0
-9416 138 0
9416 -9117 -138 0
-9417 9119 0
-9417 186 0
9417 -9119 -186 0
-9418 9401 9402 0
-9418 -9401 -9402 0
9418 -9401 9402 0
9418 9401 -9402 0
-9419 9418 9403 0
-9419 -9418 -9403 0
9419 -9418 9403 0
9419 9418 -9403 0
-9420 9419 9404 0
-9420 -9419 -9404 0
9420 -9419 9404 0
9420 9419 -9404 0
-9421 9420 9405 0
-9421 -9420 -9405 0
9421 -9420 9405 0
9421 9420 -9405 0
-9422 9421 9406 0
-9422 -9421 -9406 0
9422 -9421 9406 0
9422 9421 -9406 0
-9423 9422 9407 0
-9423 -9422 -9407 0
9423 -9422 9407 0
9423 9422 -9407 0
-9424 9423 9408 0
-9424 -9423 -9408 0
9424 -9423 9408 0
9424 9423 -9408 0
-9425 9424 9409 0
-9425 -9424 -9409 0
9425 -9424 9409 0
9425 9424 -9409 0
-9426 9425 9410 0
-9426 -9425 -9410 0
9426 -9425 9410 0
9426 9425 -9410 0
-9427 9426 9411 0
-9427 -9426 -9411 0
9427 -9426 9411 0
9427 9426 -9411 0
-9428 9427 9412 0
-9428 -9427 -9412 0
9428 -9427 9412 0
9428 9427 -9412 0
-9429 9428 9413 0
-9429 -9428 -9413 0
9429 -9428 9413 0
9429 9428 -9413 0
-9430 9429 9414 0
-9430 -9429 -9414 0
9430 -9429 9414 0
9430 9429 -9414 0
-9431 9430 9415 0
-9431 -9430 -9415 0
9431 -9430 9415 0
9431 9430 -9415 0
-9432 9431 9416 0
-9432 -9431 -9416 0
9432 -9431 9416 0
9432 9431 -9416 0
-9433 9432 9417 0
-9433 -9432 -9417 0
9433 -9432 9417 0
9433 9432 -9417 0
-9433 0
-9434 9087 0
-9434 43 0
9434 -9087 -43 0
-9435 9089 0
-9435 43 0
9435 -9089 -43 0
-9436 9091 0
-9436 48 0
9436 -9091 -48 0
-9437 9093 0
-9437 38 0
9437 -9093 -38 0
-9438 9095 0
-9438 48 0
9438 -9095 -48 0
-9439 9097 0
-9439 38 0
9439 -9097 -38 0
-9440 9099 0
-9440 43 0
9440 -9099 -43 0
-9441 9101 0
-9441 43 0
9441 -9101 -43 0
-9442 9103 0
-9442 48 0
9442 -9103 -48 0
-9443 9105 0
-9443 38 0
9443 -9105 -38 0
-9444 9107 0
-9444 48 0
9444 -9107 -48 0
-9445 9109 0
-9445 38 0
9445 -9109 -38 0
-9446 9111 0
-9446 91 0
9446 -9111 -91 0
-9447 9113 0
-9447 96 0
9447 -9113 -96 0
-9448 9115 0
-9448 96 0
9448 -9115 -96 0
-9449 9117 0
-9449 139 0
9449 -9117 -139 0
-9450 9119 0
-9450 187 0
9450 -9119 -187 0
-9451 9434 9435 0
-9451 -9434 -9435 0
9451 -9434 9435 0
9451 9434 -9435 0
-9452 9451 9436 0
-9452 -9451 -9436 0
9452 -9451 9436 0
9452 9451 -9436 0
-9453 9452 9437 0
-9453 -9452 -9437 0
9453 -9452 9437 0
9453 9452 -9437 0
-9454 9453 9438 0
-9454 -9453 -9438 0
9454 -9453 9438 0
9454 9453 -9438 0
-9455 9454 9439 0
-9455 -9454 -9439 0
9455 -9454 9439 0
9455 9454 -9439 0
-9456 9455 9440 0
-9456 -9455 -9440 0
9456 -9455 9440 0
9456 9455 -9440 0
-9457 9456 9441 0
-9457 -9456 -9441 0
9457 -9456 9441 0
9457 9456 -9441 0
-9458 9457 9442 0
-9458 -9457 -9442 0
9458 -9457 9442 0
9458 9457 -9442 0
-9459 9458 9443 0
-9459 -9458 -9443 0
9459 -9458 9443 0
9459 9458 -9443 0
-9460 9459 9444 0
-9460 -9459 -9444 0
9460 -9459 9444 0
9460 9459 -9444 0
-9461 9460 9445 0
-9461 -9460 -9445 0
9461 -9460 9445 0
9461 9460 -9445 0
-9462 9461 9446 0
-9462 -9461 -9446 0
9462 -9461 9446 0
9462 9461 -9446 0
-9463 9462 9447 0
-9463 -9462 -9447 0
9463 -9462 9447 0
9463 9462 -9447 0
-9464 9463 9448 0
-9464 -9463 -9448 0
9464 -9463 9448 0
9464 9463 -9448 0
-9465 9464 9449 0
-9465 -9464 -9449 0
9465 -9464 9449 0
9465 9464 -9449 0
-9466 9465 9450 0
-9466 -9465 -9450 0
9466 -9465 9450 0
9466 9465 -9450 0
-9466 0
-9467 9087 0
-9467 44 0
9467 -9087 -44 0
-9468 9089 0
-9468 42 0
9468 -9089 -42 0
-9469 9091 0
-9469 47 0
9469 -9091 -47 0
-9470 9093 0
-9470 39 0
9470 -9093 -39 0
-9471 9095 0
-9471 46 0
9471 -9095 -46 0
-9472 9097 0
-9472 40 0
9472 -9097 -40 0
-9473 9099 0
-9473 47 0
9473 -9099 -47 0
-9474 9101 0
-9474 39 0
9474 -9101 -39 0
-9475 9103 0
-9475 44 0
9475 -9103 -44 0
-9476 9105 0
-9476 42 0
9476 -9105 -42 0
-9477 9107 0
-9477 40 0
9477 -9107 -40 0
-9478 9109 0
-9478 46 0
9478 -9109 -46 0
-9479 9111 0
-9479 92 0
9479 -9111 -92 0
-9480 9113 0
-9480 95 0
9480 -9113 -95 0
-9481 9115 0
-9481 94 0
9481 -9115 -94 0
-9482 9117 0
-9482 140 0
9482 -9117 -140 0
-9483 9119 0
-9483 188 0
9483 -9119 -188 0
-9484 9467 9468 0
-9484 -9467 -9468 0
9484 -9467 9468 0
9484 9467 -9468 0
-9485 9484 9469 0
-9485 -9484 -9469 0
9485 -9484 9469 0
9485 9484 -9469 0
-9486 9485 9470 0
-9486 -9485 -9470 0
9486 -9485 9470 0
9486 9485 -9470 0
-9487 9486 9471 0
-9487 -9486 -9471 0
9487 -9486 9471 0
9487 9486 -9471 0
-9488 9487 9472 0
-9488 -9487 -9472 0
9488 -9487 9472 0
9488 9487 -9472 0
-9489 9488 9473 0
-9489 -9488 -9473 0
9489 -9488 9473 0
9489 9488 -9473 0
-9490 9489 9474 0
-9490 -9489 -9474 0
9490 -9489 9474 0
9490 9489 -9474 0
-9491 9490 9475 0
-9491 -9490 -9475 0
9491 -9490 9475 0
9491 9490 -9475 0
-9492 9491 9476 0
-9492 -9491 -9476 0
9492 -9491 9476 0
9492 9491 -9476 0
-9493 9492 9477 0
-9493 -9492 -9477 0
9493 -9492 9477 0
9493 9492 -9477 0
-9494 9493 9478 0
-9494 -9493 -9478 0
9494 -9493 9478 0
9494 9493 -9478 0
-9495 9494 9479 0
-9495 -9494 -9479 0
9495 -9494 9479 0
9495 9494 -9479 0
-9496 9495 9480 0
-9496 -9495 -9480 0
9496 -9495 9480 0
9496 9495 -9480 0
-9497 9496 9481 0
-9497 -9496 -9481 0
9497 -9496 9481 0
9497 9496 -9481 0
-9498 9497 9482 0
-9498 -9497 -9482 0
9498 -9497 9482 0
9498 9497 -9482 0
-9499 9498 9483 0
-9499 -9498 -9483 0
9499 -9498 9483 0
9499 9498 -9483 0
-9499 0
-9500 9087 0
-9500 45 0
9500 -9087 -45 0
-9501 9089 0
-9501 37 0
9501 -9089 -37 0
-9502 9091 0
-9502 41 0
9502 -9091 -41 0
-9503 9093 0
-9503 41 0
9503 -9093 -41 0
-9504 9095 0
-9504 37 0
9504 -9095 -37 0
-9505 9097 0
-9505 45 0
9505 -9097 -45 0
-9506 9099 0
-9506 36 0
9506 -9099 -36 0
-9507 9101 0
-9507 34 0
9507 -9101 -34 0
-9508 9103 0
-9508 35 0
9508 -9103 -35 0
-9509 9105 0
-9509 35 0
9509 -9105 -35 0
-9510 9107 0
-9510 34 0
9510 -9107 -34 0
-9511 9109 0
-9511 36 0
9511 -9109 -36 0
-9512 9111 0
-9512 93 0
9512 -9111 -93 0
-9513 9113 0
-9513 89 0
9513 -9113 -89 0
-9514 9115 0
-9514 85 0
9514 -9115 -85 0
-9515 9117 0
-9515 141 0
9515 -9117 -141 0
-9516 9119 0
-9516 189 0
9516 -9119 -189 0
-9517 9500 9501 0
-9517 -9500 -9501 0
9517 -9500 9501 0
9517 9500 -9501 0
-9518 9517 9502 0
-9518 -9517 -9502 0
9518 -9517 9502 0
9518 9517 -9502 0
-9519 9518 9503 0
-9519 -9518 -9503 0
9519 -9518 9503 0
9519 9518 -9503 0
-9520 9519 9504 0
-9520 -9519 -9504 0
9520 -9519 9504 0
9520 9519 -9504 0
-9521 9520 9505 0
-9521 -9520 -9505 0
9521 -9520 9505 0
9521 9520 -9505 0
-9522 9521 9506 0
-9522 -9521 -9506 0
9522 -9521 9506 0
9522 9521 -9506 0
-9523 9522 9507 0
-9523 -9522 -9507 0
9523 -9522 9507 0
9523 9522 -9507 0
-9524 9523 9508 0
-9524 -9523 -9508 0
9524 -9523 9508 0
9524 9523 -9508 0
-9525 9524 9509 0
-9525 -9524 -9509 0
9525 -9524 9509 0
9525 9524 -9509 0
-9526 9525 9510 0
-9526 -9525 -9510 0
9526 -9525 9510 0
9526 9525 -9510 0
-9527 9526 9511 0
-9527 -9526 -9511 0
9527 -9526 9511 0
9527 9526 -9511 0
-9528 9527 9512 0
-9528 -9527 -9512 0
9528 -9527 9512 0
9528 9527 -9512 0
-9529 9528 9513 0
-9529 -9528 -9513 0
9529 -9528 9513 0
9529 9528 -9513 0
-9530 9529 9514 0
-9530 -9529 -9514 0
9530 -9529 9514 0
9530 9529 -9514 0
-9531 9530 9515 0
-9531 -9530 -9515 0
9531 -9530 9515 0
9531 9530 -9515 0
-9532 9531 9516 0
-9532 -9531 -9516 0
9532 -9531 9516 0
9532 9531 -9516 0
-9532 0
-9533 9087 0
-9533 46 0
9533 -9087 -46 0
-9534 9089 0
-9534 40 0
9534 -9089 -40 0
-9535 9091 0
-9535 42 0
9535 -9091 -42 0
-9536 9093 0
-9536 44 0
9536 -9093 -44 0
-9537 9095 0
-9537 39 0
9537 -9095 -39 0
-9538 9097 0
-9538 47 0
9538 -9097 -47 0
-9539 9099 0
-9539 40 0
9539 -9099 -40 0
-9540 9101 0
-9540 46 0
9540 -9101 -46 0
-9541 9103 0
-9541 39 0
9541 -9103 -39 0
-9542 9105 0
-9542 47 0
9542 -9105 -47 0
-9543 9107 0
-9543 42 0
9543 -9107 -42 0
-9544 9109 0
-9544 44 0
9544 -9109 -44 0
-9545 9111 0
-9545 94 0
9545 -9111 -94 0
-9546 9113 0
-9546 90 0
9546 -9113 -90 0
-9547 9115 0
-9547 87 0
9547 -9115 -87 0
-9548 9117 0
-9548 142 0
9548 -9117 -142 0
-9549 9119 0
-9549 190 0
9549 -9119 -190 0
-9550 9533 9534 0
-9550 -9533 -9534 0
9550 -9533 9534 0
9550 9533 -9534 0
-9551 9550 9535 0
-9551 -9550 -9535 0
9551 -9550 9535 0
9551 9550 -9535 0
-9552 9551 9536 0
-9552 -9551 -9536 0
9552 -9551 9536 0
9552 9551 -9536 0
-9553 9552 9537 0
-9553 -9552 -9537 0
9553 -9552 9537 0
9553 9552 -9537 0
-9554 9553 9538 0
-9554 -9553 -9538 0
9554 -9553 9538 0
9554 9553 -9538 0
-9555 9554 9539 0
-9555 -9554 -9539 0
9555 -9554 9539 0
9555 9554 -9539 0
-9556 9555 9540 0
-9556 -9555 -9540 0
9556 -9555 9540 0
9556 9555 -9540 0
-9557 9556 9541 0
-9557 -9556 -9541 0
9557 -9556 9541 0
9557 9556 -9541 0
-9558 9557 9542 0
-9558 -9557 -9542 0
9558 -9557 9542 0
9558 9557 -9542 0
-9559 9558 9543 0
-9559 -9558 -9543 0
9559 -9558 9543 0
9559 9558 -9543 0
-9560 9559 9544 0
-9560 -9559 -9544 0
9560 -9559 9544 0
9560 9559 -9544 0
-9561 9560 9545 0
-9561 -9560 -9545 0
9561 -9560 9545 0
9561 9560 -9545 0
-9562 9561 9546 0
-9562 -9561 -9546 0
9562 -9561 9546 0
9562 9561 -9546 0
-9563 9562 9547 0
-9563 -9562 -9547 0
9563 -9562 9547 0
9563 9562 -9547 0
-9564 9563 9548 0
-9564 -9563 -9548 0
9564 -9563 9548 0
9564 9563 -9548 0
-9565 9564 9549 0
-9565 -9564 -9549 0
9565 -9564 9549 0
9565 9564 -9549 0
-9565 0
-9566 9087 0
-9566 47 0
9566 -9087 -47 0
-9567 9089 0
-9567 39 0
9567 -9089 -39 0
-9568 9091 0
-9568 44 0
9568 -9091 -44 0
-9569 9093 0
-9569 42 0
9569 -9093 -42 0
-9570 9095 0
-9570 40 0
9570 -9095 -40 0
-9571 9097 0
-9571 46 0
9571 -9097 -46 0
-9572 9099 0
-9572 44 0
9572 -9099 -44 0
-9573 9101 0
-9573 42 0
9573 -9101 -42 0
-9574 9103 0
-9574 47 0
9574 -9103 -47 0
-9575 9105 0
-9575 39 0
9575 -9105 -39 0
-9576 9107 0
-9576 46 0
9576 -9107 -46 0
-9577 9109 0
-9577 40 0
9577 -9109 -40 0
-9578 9111 0
-9578 95 0
9578 -9111 -95 0
-9579 9113 0
-9579 92 0
9579 -9113 -92 0
-9580 9115 0
-9580 88 0
9580 -9115 -88 0
-9581 9117 0
-9581 143 0
9581 -9117 -143 0
-9582 9119 0
-9582 191 0
9582 -9119 -191 0
-9583 9566 9567 0
-9583 -9566 -9567 0
9583 -9566 9567 0
9583 9566 -9567 0
-9584 9583 9568 0
-9584 -9583 -9568 0
9584 -9583 9568 0
9584 9583 -9568 0
-9585 9584 9569 0
-9585 -9584 -9569 0
9585 -9584 9569 0
9585 9584 -9569 0
-9586 9585 9570 0
-9586 -9585 -9570 0
9586 -9585 9570 0
9586 9585 -9570 0
-9587 9586 9571 0
-9587 -9586 -9571 0
9587 -9586 9571 0
9587 9586 -9571 0
-9588 9587 9572 0
-9588 -9587 -9572 0
9588 -9587 9572 0
9588 9587 -9572 0
-9589 9588 9573 0
-9589 -9588 -9573 0
9589 -9588 9573 0
9589 9588 -9573 0
-9590 9589 9574 0
-9590 -9589 -9574 0
9590 -9589 9574 0
9590 9589 -9574 0
-9591 9590 9575 0
-9591 -9590 -9575 0
9591 -9590 9575 0
9591 9590 -9575 0
-9592 9591 9576 0
-9592 -9591 -9576 0
9592 -9591 9576 0
9592 9591 -9576 0
-9593 9592 9577 0
-9593 -9592 -9577 0
9593 -9592 9577 0
9593 9592 -9577 0
-9594 9593 9578 0
-9594 -9593 -9578 0
9594 -9593 9578 0
9594 9593 -9578 0
-9595 9594 9579 0
-9595 -9594 -9579 0
9595 -9594 9579 0
9595 9594 -9579 0
-9596 9595 9580 0
-9596 -9595 -9580 0
9596 -9595 9580 0
9596 9595 -9580 0
-9597 9596 9581 0
-9597 -9596 -9581 0
9597 -9596 9581 0
9597 9596 -9581 0
-9598 9597 9582 0
-9598 -9597 -9582 0
9598 -9597 9582 0
9598 9597 -9582 0
-9598 0
-9599 9087 0
-9599 48 0
9599 -9087 -48 0
-9600 9089 0
-9600 38 0
9600 -9089 -38 0
-9601 9091 0
-9601 43 0
9601 -9091 -43 0
-9602 9093 0
-9602 43 0
9602 -9093 -43 0
-9603 9095 0
-9603 38 0
9603 -9095 -38 0
-9604 9097 0
-9604 48 0
9604 -9097 -48 0
-9605 9099 0
-9605 48 0
9605 -9099 -48 0
-9606 9101 0
-9606 38 0
9606 -9101 -38 0
-9607 9103 0
-9607 43 0
9607 -9103 -43 0
-9608 9105 0
-9608 43 0
9608 -9105 -43 0
-9609 9107 0
-9609 38 0
9609 -9107 -38 0
-9610 9109 0
-9610 48 0
9610 -9109 -48 0
-9611 9111 0
-9611 96 0
9611 -9111 -96 0
-9612 9113 0
-9612 91 0
9612 -9113 -91 0
-9613 9115 0
-9613 86 0
9613 -9115 -86 0
-9614 9117 0
-9614 144 0
9614 -9117 -144 0
-9615 9119 0
-9615 192 0
9615 -9119 -192 0
-9616 9599 9600 0
-9616 -9599 -9600 0
9616 -9599 9600 0
9616 9599 -9600 0
-9617 9616 9601 0
-9617 -9616 -9601 0
9617 -9616 9601 0
9617 9616 -9601 0
-9618 9617 9602 0
-9618 -9617 -9602 0
9618 -9617 9602 0
9618 9617 -9602 0
-9619 9618 9603 0
-9619 -9618 -9603 0
9619 -9618 9603 0
9619 9618 -9603 0
-9620 9619 9604 0
-9620 -9619 -9604 0
9620 -9619 9604 0
9620 9619 -9604 0
-9621 9620 9605 0
-9621 -9620 -9605 0
9621 -9620 9605 0
9621 9620 -9605 0
-9622 9621 9606 0
-9622 -9621 -9606 0
9622 -9621 9606 0
9622 9621 -9606 0
-9623 9622 9607 0
-9623 -9622 -9607 0
9623 -9622 9607 0
9623 9622 -9607 0
-9624 9623 9608 0
-9624 -9623 -9608 0
9624 -9623 9608 0
9624 9623 -9608 0
-9625 9624 9609 0
-9625 -9624 -9609 0
9625 -9624 9609 0
9625 9624 -9609 0
-9626 9625 9610 0
-9626 -9625 -9610 0
9626 -9625 9610 0
9626 9625 -9610 0
-9627 9626 9611 0
-9627 -9626 -9611 0
9627 -9626 9611 0
9627 9626 -9611 0
-9628 9627 9612 0
-9628 -9627 -9612 0
9628 -9627 9612 0
9628 9627 -9612 0
-9629 9628 9613 0
-9629 -9628 -9613 0
9629 -9628 9613 0
9629 9628 -9613 0
-9630 9629 9614 0
-9630 -9629 -9614 0
9630 -9629 9614 0
9630 9629 -9614 0
-9631 9630 9615 0
-9631 -9630 -9615 0
9631 -9630 9615 0
9631 9630 -9615 0
-9631 0
-9632 5 0
-9632 31 0
9632 -5 -31 0
-9633 9632 0
-9633 33 0
9633 -9632 -33 0
-9634 13 0
-9634 31 0
9634 -13 -31 0
-9635 9634 0
-9635 33 0
9635 -9634 -33 0
-9636 6 0
-9636 32 0
9636 -6 -32 0
-9637 9636 0
-9637 33 0
9637 -9636 -33 0
-9638 15 0
-9638 30 0
9638 -15 -30 0
-9639 9638 0
-9639 33 0
9639 -9638 -33 0
-9640 10 0
-9640 32 0
9640 -10 -32 0
-9641 9640 0
-9641 33 0
9641 -9640 -33 0
-9642 11 0
-9642 30 0
9642 -11 -30 0
-9643 9642 0
-9643 33 0
9643 -9642 -33 0
-9644 18 0
-9644 12 0
9644 -18 -12 0
-9645 9644 0
-9645 33 0
9645 -9644 -33 0
-9646 20 0
-9646 12 0
9646 -20 -12 0
-9647 9646 0
-9647 33 0
9647 -9646 -33 0
-9648 22 0
-9648 16 0
9648 -22 -16 0
-9649 9648 0
-9649 33 0
9649 -9648 -33 0
-9650 28 0
-9650 8 0
9650 -28 -8 0
-9651 9650 0
-9651 33 0
9651 -9650 -33 0
-9652 23 0
-9652 16 0
9652 -23 -16 0
-9653 9652 0
-9653 33 0
9653 -9652 -33 0
-9654 27 0
-9654 8 0
9654 -27 -8 0
-9655 9654 0
-9655 33 0
9655 -9654 -33 0
-9656 53 0
-9656 79 0
9656 -53 -79 0
-9657 9656 0
-9657 81 0
9657 -9656 -81 0
-9658 54 0
-9658 80 0
9658 -54 -80 0
-9659 9658 0
-9659 81 0
9659 -9658 -81 0
-9660 58 0
-9660 80 0
9660 -58 -80 0
-9661 9660 0
-9661 81 0
9661 -9660 -81 0
-9662 101 0
-9662 127 0
9662 -101 -127 0
-9663 9662 0
-9663 129 0
9663 -9662 -129 0
-9664 149 0
-9664 175 0
9664 -149 -175 0
-9665 9664 0
-9665 177 0
9665 -9664 -177 0
-9666 9633 9635 0
-9666 -9633 -9635 0
9666 -9633 9635 0
9666 9633 -9635 0
-9667 9666 9637 0
-9667 -9666 -9637 0
9667 -9666 9637 0
9667 9666 -9637 0
-9668 9667 9639 0
-9668 -9667 -9639 0
9668 -9667 9639 0
9668 9667 -9639 0
-9669 9668 9641 0
-9669 -9668 -9641 0
9669 -9668 9641 0
9669 9668 -9641 0
-9670 9669 9643 0
-9670 -9669 -9643 0
9670 -9669 9643 0
9670 9669 -9643 0
-9671 9670 9645 0
-9671 -9670 -9645 0
9671 -9670 9645 0
9671 9670 -9645 0
-9672 9671 9647 0
-9672 -9671 -9647 0
9672 -9671 9647 0
9672 9671 -9647 0
-9673 9672 9649 0
-9673 -9672 -9649 0
9673 -9672 9649 0
9673 9672 -9649 0
-9674 9673 9651 0
-9674 -9673 -9651 0
9674 -9673 9651 0
9674 9673 -9651 0
-9675 9674 9653 0
-9675 -9674 -9653 0
9675 -9674 9653 0
9675 9674 -9653 0
-9676 9675 9655 0
-9676 -9675 -9655 0
9676 -9675 9655 0
9676 9675 -9655 0
-9677 9676 9657 0
-9677 -9676 -9657 0
9677 -9676 9657 0
9677 9676 -9657 0
-9678 9677 9659 0
-9678 -9677 -9659 0
9678 -9677 9659 0
9678 9677 -9659 0
-9679 9678 9661 0
-9679 -9678 -9661 0
9679 -9678 9661 0
9679 9678 -9661 0
-9680 9679 9663 0
-9680 -9679 -9663 0
9680 -9679 9663 0
9680 9679 -9663 0
-9681 9680 9665 0
-9681 -9680 -9665 0
9681 -9680 9665 0
9681 9680 -9665 0
-9681 0
-9682 9632 0
-9682 34 0
9682 -9632 -34 0
-9683 9634 0
-9683 36 0
9683 -9634 -36 0
-9684 9636 0
-9684 34 0
9684 -9636 -34 0
-9685 9638 0
-9685 36 0
9685 -9638 -36 0
-9686 9640 0
-9686 35 0
9686 -9640 -35 0
-9687 9642 0
-9687 35 0
9687 -9642 -35 0
-9688 9644 0
-9688 37 0
9688 -9644 -37 0
-9689 9646 0
-9689 45 0
9689 -9646 -45 0
-9690 9648 0
-9690 37 0
9690 -9648 -37 0
-9691 9650 0
-9691 45 0
9691 -9650 -45 0
-9692 9652 0
-9692 41 0
9692 -9652 -41 0
-9693 9654 0
-9693 41 0
9693 -9654 -41 0
-9694 9656 0
-9694 82 0
9694 -9656 -82 0
-9695 9658 0
-9695 82 0
9695 -9658 -82 0
-9696 9660 0
-9696 83 0
9696 -9660 -83 0
-9697 9662 0
-9697 130 0
9697 -9662 -130 0
-9698 9664 0
-9698 178 0
9698 -9664 -178 0
-9699 9682 9683 0
-9699 -9682 -9683 0
9699 -9682 9683 0
9699 9682 -9683 0
-9700 9699 9684 0
-9700 -9699 -9684 0
9700 -9699 9684 0
9700 9699 -9684 0
-9701 9700 9685 0
-9701 -9700 -9685 0
9701 -9700 9685 0
9701 9700 -9685 0
-9702 9701 9686 0
-9702 -9701 -9686 0
9702 -9701 9686 0
9702 9701 -9686 0
-9703 9702 9687 0
-9703 -9702 -9687 0
9703 -9702 9687 0
9703 9702 -9687 0
-9704 9703 9688 0
-9704 -9703 -9688 0
9704 -9703 9688 0
9704 9703 -9688 0
-9705 9704 9689 0
-9705 -9704 -9689 0
9705 -9704 9689 0
9705 9704 -9689 0
-9706 9705 9690 0
-9706 -9705 -9690 0
9706 -9705 9690 0
9706 9705 -9690 0
-9707 9706 9691 0
-9707 -9706 -9691 0
9707 -9706 9691 0
9707 9706 -9691 0
-9708 9707 9692 0
-9708 -9707 -9692 0
9708 -9707 9692 0
9708 9707 -9692 0
-9709 9708 9693 0
-9709 -9708 -9693 0
9709 -9708 9693 0
9709 9708 -9693 0
-9710 9709 9694 0
-9710 -9709 -9694 0
9710 -9709 9694 0
9710 9709 -9694 0
-9711 9710 9695 0
-9711 -9710 -9695 0
9711 -9710 9695 0
9711 9710 -9695 0
-9712 9711 9696 0
-9712 -9711 -9696 0
9712 -9711 9696 0
9712 9711 -9696 0
-9713 9712 9697 0
-9713 -9712 -9697 0
9713 -9712 9697 0
9713 9712 -9697 0
-9714 9713 9698 0
-9714 -9713 -9698 0
9714 -9713 9698 0
9714 9713 -9698 0
-9714 0
-9715 9632 0
-9715 35 0
9715 -9632 -35 0
-9716 9634 0
-9716 35 0
9716 -9634 -35 0
-9717 9636 0
-9717 36 0
9717 -9636 -36 0
-9718 9638 0
-9718 34 0
9718 -9638 -34 0
-9719 9640 0
-9719 36 0
9719 -9640 -36 0
-9720 9642 0
-9720 34 0
9720 -9642 -34 0
-9721 9644 0
-9721 41 0
9721 -9644 -41 0
-9722 9646 0
-9722 41 0
9722 -9646 -41 0
-9723 9648 0
-9723 45 0
9723 -9648 -45 0
-9724 9650 0
-9724 37 0
9724 -9650 -37 0
-9725 9652 0
-9725 45 0
9725 -9652 -45 0
-9726 9654 0
-9726 37 0
9726 -9654 -37 0
-9727 9656 0
-9727 83 0
9727 -9656 -83 0
-9728 9658 0
-9728 84 0
9728 -9658 -84 0
-9729 9660 0
-9729 84 0
9729 -9660 -84 0
-9730 9662 0
-9730 131 0
9730 -9662 -131 0
-9731 9664 0
-9731 179 0
9731 -9664 -179 0
-9732 9715 9716 0
-9732 -9715 -9716 0
9732 -9715 9716 0
9732 9715 -9716 0
-9733 9732 9717 0
-9733 -9732 -9717 0
9733 -9732 9717 0
9733 9732 -9717 0
-9734 9733 9718 0
-9734 -9733 -9718 0
9734 -9733 9718 0
9734 9733 -9718 0
-9735 9734 9719 0
-9735 -9734 -9719 0
9735 -9734 9719 0
9735 9734 -9719 0
-9736 9735 9720 0
-9736 -9735 -9720 0
9736 -9735 9720 0
9736 9735 -9720 0
-9737 9736 9721 0
-9737 -9736 -9721 0
9737 -9736 9721 0
9737 9736 -9721 0
-9738 9737 9722 0
-9738 -9737 -9722 0
9738 -9737 9722 0
9738 9737 -9722 0
-9739 9738 9723 0
-9739 -9738 -9723 0
9739 -9738 9723 0
9739 9738 -9723 0
-9740 9739 9724 0
-9740 -9739 -9724 0
9740 -9739 9724 0
9740 9739 -9724 0
-9741 9740 9725 0
-9741 -9740 -9725 0
9741 -9740 9725 0
9741 9740 -9725 0
-9742 9741 9726 0
-9742 -9741 -9726 0
9742 -9741 9726 0
9742 9741 -9726 0
-9743 9742 9727 0
-9743 -9742 -9727 0
9743 -9742 9727 0
9743 9742 -9727 0
-9744 9743 9728 0
-9744 -9743 -9728 0
9744 -9743 9728 0
9744 9743 -9728 0
-9745 9744 9729 0
-9745 -9744 -9729 0
9745 -9744 9729 0
9745 9744 -9729 0
-9746 9745 9730 0
-9746 -9745 -9730 0
9746 -9745 9730 0
9746 9745 -9730 0
-9747 9746 9731 0
-9747 -9746 -9731 0
9747 -9746 9731 0
9747 9746 -9731 0
-9747 0
-9748 9632 0
-9748 36 0
9748 -9632 -36 0
-9749 9634 0
-9749 34 0
9749 -9634 -34 0
-9750 9636 0
-9750 35 0
9750 -9636 -35 0
-9751 9638 0
-9751 35 0
9751 -9638 -35 0
-9752 9640 0
-9752 34 0
9752 -9640 -34 0
-9753 9642 0
-9753 36 0
9753 -9642 -36 0
-9754 9644 0
-9754 45 0
9754 -9644 -45 0
-9755 9646 0
-9755 37 0
9755 -9646 -37 0
-9756 9648 0
-9756 41 0
9756 -9648 -41 0
-9757 9650 0
-9757 41 0
9757 -9650 -41 0
-9758 9652 0
-9758 37 0
9758 -9652 -37 0
-9759 9654 0
-9759 45 0
9759 -9654 -45 0
-9760 9656 0
-9760 84 0
9760 -9656 -84 0
-9761 9658 0
-9761 83 0
9761 -9658 -83 0
-9762 9660 0
-9762 82 0
9762 -9660 -82 0
-9763 9662 0
-9763 132 0
9763 -9662 -132 0
-9764 9664 0
-9764 180 0
9764 -9664 -180 0
-9765 9748 9749 0
-9765 -9748 -9749 0
9765 -9748 9749 0
9765 9748 -9749 0
-9766 9765 9750 0
-9766 -9765 -9750 0
9766 -9765 9750 0
9766 9765 -9750 0
-9767 9766 9751 0
-9767 -9766 -9751 0
9767 -9766 9751 0
9767 9766 -9751 0
-9768 9767 9752 0
-9768 -9767 -9752 0
9768 -9767 9752 0
9768 9767 -9752 0
-9769 9768 9753 0
-9769 -9768 -9753 0
9769 -9768 9753 0
9769 9768 -9753 0
-9770 9769 9754 0
-9770 -9769 -9754 0
9770 -9769 9754 0
9770 9769 -9754 0
-9771 9770 9755 0
-9771 -9770 -9755 0
9771 -9770 9755 0
9771 9770 -9755 0
-9772 9771 9756 0
-9772 -9771 -9756 0
9772 -9771 9756 0
9772 9771 -9756 0
-9773 9772 9757 0
-9773 -9772 -9757 0
9773 -9772 9757 0
9773 9772 -9757 0
-9774 9773 9758 0
-9774 -9773 -9758 0
9774 -9773 9758 0
9774 9773 -9758 0
-9775 9774 9759 0
-9775 -9774 -9759 0
9775 -9774 9759 0
9775 9774 -9759 0
-9776 9775 9760 0
-9776 -9775 -9760 0
9776 -9775 9760 0
9776 9775 -9760 0
-9777 9776 9761 0
-9777 -9776 -9761 0
9777 -9776 9761 0
9777 9776 -9761 0
-9778 9777 9762 0
-9778 -9777 -9762 0
9778 -9777 9762 0
9778 9777 -9762 0
-9779 9778 9763 0
-9779 -9778 -9763 0
9779 -9778 9763 0
9779 9778 -9763 0
-9780 9779 9764 0
-9780 -9779 -9764 0
9780 -9779 9764 0
9780 9779 -9764 0
-9780 0
-9781 9632 0
-9781 37 0
9781 -9632 -37 0
-9782 9634 0
-9782 45 0
9782 -9634 -45 0
-9783 9636 0
-9783 37 0
9783 -9636 -37 0
-9784 9638 0
-9784 45 0
9784 -9638 -45 0
-9785 9640 0
-9785 41 0
9785 -9640 -41 0
-9786 9642 0
-9786 41 0
9786 -9642 -41 0
-9787 9644 0
-9787 34 0
9787 -9644 -34 0
-9788 9646 0
-9788 36 0
9788 -9646 -36 0
-9789 9648 0
-9789 34 0
9789 -9648 -34 0
-9790 9650 0
-9790 36 0
9790 -9650 -36 0
-9791 9652 0
-9791 35 0
9791 -9652 -35 0
-9792 9654 0
-9792 35 0
9792 -9654 -35 0
-9793 9656 0
-9793 85 0
9793 -9656 -85 0
-9794 9658 0
-9794 85 0
9794 -9658 -85 0
-9795 9660 0
-9795 89 0
9795 -9660 -89 0
-9796 9662 0
-9796 133 0
9796 -9662 -133 0
-9797 9664 0
-9797 181 0
9797 -9664 -181 0
-9798 9781 9782 0
-9798 -9781 -9782 0
9798 -9781 9782 0
9798 9781 -9782 0
-9799 9798 9783 0
-9799 -9798 -9783 0
9799 -9798 9783 0
9799 9798 -9783 0
-9800 9799 9784 0
-9800 -9799 -9784 0
9800 -9799 9784 0
9800 9799 -9784 0
-9801 9800 9785 0
-9801 -9800 -9785 0
9801 -9800 9785 0
9801 9800 -9785 0
-9802 9801 9786 0
-9802 -9801 -9786 0
9802 -9801 9786 0
9802 9801 -9786 0
-9803 9802 9787 0
-9803 -9802 -9787 0
9803 -9802 9787 0
9803 9802 -9787 0
-9804 9803 9788 0
-9804 -9803 -9788 0
9804 -9803 9788 0
9804 9803 -9788 0
-9805 9804 9789 0
-9805 -9804 -9789 0
9805 -9804 9789 0
9805 9804 -9789 0
-9806 9805 9790 0
-9806 -9805 -9790 0
9806 -9805 9790 0
9806 9805 -9790 0
-9807 9806 9791 0
-9807 -9806 -9791 0
9807 -9806 9791 0
9807 9806 -9791 0
-9808 9807 9792 0
-9808 -9807 -9792 0
9808 -9807 9792 0
9808 9807 -9792 0
-9809 9808 9793 0
-9809 -9808 -9793 0
9809 -9808 9793 0
9809 9808 -9793 0
-9810 9809 9794 0
-9810 -9809 -9794 0
9810 -9809 9794 0
9810 9809 -9794 0
-9811 9810 9795 0
-9811 -9810 -9795 0
9811 -9810 9795 0
9811 9810 -9795 0
-9812 9811 9796 0
-9812 -9811 -9796 0
9812 -9811 9796 0
9812 9811 -9796 0
-9813 9812 9797 0
-9813 -9812 -9797 0
9813 -9812 9797 0
9813 9812 -9797 0
-9813 0
-9814 9632 0
-9814 38 0
9814 -9632 -38 0
-9815 9634 0
-9815 48 0
9815 -9634 -48 0
-9816 9636 0
-9816 38 0
9816 -9636 -38 0
-9817 9638 0
-9817 48 0
9817 -9638 -48 0
-9818 9640 0
-9818 43 0
9818 -9640 -43 0
-9819 9642 0
-9819 43 0
9819 -9642 -43 0
-9820 9644 0
-9820 38 0
9820 -9644 -38 0
-9821 9646 0
-9821 48 0
9821 -9646 -48 0
-9822 9648 0
-9822 38 0
9822 -9648 -38 0
-9823 9650 0
-9823 48 0
9823 -9650 -48 0
-9824 9652 0
-9824 43 0
9824 -9652 -43 0
-9825 9654 0
-9825 43 0
9825 -9654 -43 0
-9826 9656 0
-9826 86 0
9826 -9656 -86 0
-9827 9658 0
-9827 86 0
9827 -9658 -86 0
-9828 9660 0
-9828 91 0
9828 -9660 -91 0
-9829 9662 0
-9829 134 0
9829 -9662 -134 0
-9830 9664 0
-9830 182 0
9830 -9664 -182 0
-9831 9814 9815 0
-9831 -9814 -9815 0
9831 -9814 9815 0
9831 9814 -9815 0
-9832 9831 9816 0
-9832 -9831 -9816 0
9832 -9831 9816 0
9832 9831 -9816 0
-9833 9832 9817 0
-9833 -9832 -9817 0
9833 -9832 9817 0
9833 9832 -9817 0
-9834 9833 9818 0
-9834 -9833 -9818 0
9834 -9833 9818 0
9834 9833 -9818 0
-9835 9834 9819 0
-9835 -9834 -9819 0
9835 -9834 9819 0
9835 9834 -9819 0
-9836 9835 9820 0
-9836 -9835 -9820 0
9836 -9835 9820 0
9836 9835 -9820 0
-9837 9836 9821 0
-9837 -9836 -9821 0
9837 -9836 9821 0
9837 9836 -9821 0
-9838 9837 9822 0
-9838 -9837 -9822 0
9838 -9837 9822 0
9838 9837 -9822 0
-9839 9838 9823 0
-9839 -9838 -9823 0
9839 -9838 9823 0
9839 9838 -9823 0
-9840 9839 9824 0
-9840 -9839 -9824 0
9840 -9839 9824 0
9840 9839 -9824 0
-9841 9840 9825 0
-9841 -9840 -9825 0
9841 -9840 9825 0
9841 9840 -9825 0
-9842 9841 9826 0
-9842 -9841 -9826 0
9842 -9841 9826 0
9842 9841 -9826 0
-9843 9842 9827 0
-9843 -9842 -9827 0
9843 -9842 9827 0
9843 9842 -9827 0
-9844 9843 9828 0
-9844 -9843 -9828 0
9844 -9843 9828 0
9844 9843 -9828 0
-9845 9844 9829 0
-9845 -9844 -9829 0
9845 -9844 9829 0
9845 9844 -9829 0
-9846 9845 9830 0
-9846 -9845 -9830 0
9846 -9845 9830 0
9846 9845 -9830 0
-9846 0
-9847 9632 0
-9847 39 0
9847 -9632 -39 0
-9848 9634 0
-9848 47 0
9848 -9634 -47 0
-9849 9636 0
-9849 40 0
9849 -9636 -40 0
-9850 9638 0
-9850 46 0
9850 -9638 -46 0
-9851 9640 0
-9851 44 0
9851 -9640 -44 0
-9852 9642 0
-9852 42 0
9852 -9642 -42 0
-9853 9644 0
-9853 42 0
9853 -9644 -42 0
-9854 9646 0
-9854 44 0
9854 -9646 -44 0
-9855 9648 0
-9855 46 0
9855 -9648 -46 0
-9856 9650 0
-9856 40 0
9856 -9650 -40 0
-9857 9652 0
-9857 47 0
9857 -9652 -47 0
-9858 9654 0
-9858 39 0
9858 -9654 -39 0
-9859 9656 0
-9859 87 0
9859 -9656 -87 0
-9860 9658 0
-9860 88 0
9860 -9658 -88 0
-9861 9660 0
-9861 92 0
9861 -9660 -92 0
-9862 9662 0
-9862 135 0
9862 -9662 -135 0
-9863 9664 0
-9863 183 0
9863 -9664 -183 0
-9864 9847 9848 0
-9864 -9847 -9848 0
9864 -9847 9848 0
9864 9847 -9848 0
-9865 9864 9849 0
-9865 -9864 -9849 0
9865 -9864 9849 0
9865 9864 -9849 0
-9866 9865 9850 0
-9866 -9865 -9850 0
9866 -9865 9850 0
9866 9865 -9850 0
-9867 9866 9851 0
-9867 -9866 -9851 0
9867 -9866 9851 0
9867 9866 -9851 0
-9868 9867 9852 0
-9868 -9867 -9852 0
9868 -9867 9852 0
9868 9867 -9852 0
-9869 9868 9853 0
-9869 -9868 -9853 0
9869 -9868 9853 0
9869 9868 -9853 0
-9870 9869 9854 0
-9870 -9869 -9854 0
9870 -9869 9854 0
9870 9869 -9854 0
-9871 9870 9855 0
-9871 -9870 -9855 0
9871 -9870 9855 0
9871 9870 -9855 0
-9872 9871 9856 0
-9872 -9871 -9856 0
9872 -9871 9856 0
9872 9871 -9856 0
-9873 9872 9857 0
-9873 -9872 -9857 0
9873 -9872 9857 0
9873 9872 -9857 0
-9874 9873 9858 0
-9874 -9873 -9858 0
9874 -9873 9858 0
9874 9873 -9858 0
-9875 9874 9859 0
-9875 -9874 -9859 0
9875 -9874 9859 0
9875 9874 -9859 0
-9876 9875 9860 0
-9876 -9875 -9860 0
9876 -9875 9860 0
9876 9875 -9860 0
-9877 9876 9861 0
-9877 -9876 -9861 0
9877 -9876 9861 0
9877 9876 -9861 0
-9878 9877 9862 0
-9878 -9877 -9862 0
9878 -9877 9862 0
9878 9877 -9862 0
-9879 9878 9863 0
-9879 -9878 -9863 0
9879 -9878 9863 0
9879 9878 -9863 0
-9879 0
-9880 9632 0
-9880 40 0
9880 -9632 -40 0
-9881 9634 0
-9881 46 0
9881 -9634 -46 0
-9882 9636 0
-9882 39 0
9882 -9636 -39 0
-9883 9638 0
-9883 47 0
9883 -9638 -47 0
-9884 9640 0
-9884 42 0
9884 -9640 -42 0
-9885 9642 0
-9885 44 0
9885 -9642 -44 0
-9886 9644 0
-9886 46 0
9886 -9644 -46 0
-9887 9646 0
-9887 40 0
9887 -9646 -40 0
-9888 9648 0
-9888 42 0
9888 -9648 -42 0
-9889 9650 0
-9889 44 0
9889 -9650 -44 0
-9890 9652 0
-9890 39 0
9890 -9652 -39 0
-9891 9654 0
-9891 47 0
9891 -9654 -47 0
-9892 9656 0
-9892 88 0
9892 -9656 -88 0
-9893 9658 0
-9893 87 0
9893 -9658 -87 0
-9894 9660 0
-9894 90 0
9894 -9660 -90 0
-9895 9662 0
-9895 136 0
9895 -9662 -136 0
-9896 9664 0
-9896 184 0
9896 -9664 -184 0
-9897 9880 9881 0
-9897 -9880 -9881 0
9897 -9880 9881 0
9897 9880 -9881 0
-9898 9897 9882 0
-9898 -9897 -9882 0
9898 -9897 9882 0
9898 9897 -9882 0
-9899 9898 9883 0
-9899 -9898 -9883 0
9899 -9898 9883 0
9899 9898 -9883 0
-9900 9899 9884 0
-9900 -9899 -9884 0
9900 -9899 9884 0
9900 9899 -9884 0
-9901 9900 9885 0
-9901 -9900 -9885 0
9901 -9900 9885 0
9901 9900 -9885 0
-9902 9901 9886 0
-9902 -9901 -9886 0
9902 -9901 9886 0
9902 9901 -9886 0
-9903 9902 9887 0
-9903 -9902 -9887 0
9903 -9902 9887 0
9903 9902 -9887 0
-9904 9903 9888 0
-9904 -9903 -9888 0
9904 -9903 9888 0
9904 9903 -9888 0
-9905 9904 9889 0
-9905 -9904 -9889 0
9905 -9904 9889 0
9905 9904 -9889 0
-9906 9905 9890 0
-9906 -9905 -9890 0
9906 -9905 9890 0
9906 9905 -9890 0
-9907 9906 9891 0
-9907 -9906 -9891 0
9907 -9906 9891 0
9907 9906 -9891 0
-9908 9907 9892 0
-9908 -9907 -9892 0
9908 -9907 9892 0
9908 9907 -9892 0
-9909 9908 9893 0
-9909 -9908 -9893 0
9909 -9908 9893 0
9909 9908 -9893 0
-9910 9909 9894 0
-9910 -9909 -9894 0
9910 -9909 9894 0
9910 9909 -9894 0
-9911 9910 9895 0
-9911 -9910 -9895 0
9911 -9910 9895 0
9911 9910 -9895 0
-9912 9911 9896 0
-9912 -9911 -9896 0
9912 -9911 9896 0
9912 9911 -9896 0
-9912 0
-9913 9632 0
-9913 41 0
9913 -9632 -41 0
-9914 9634 0
-9914 41 0
9914 -9634 -41 0
-9915 9636 0
-9915 45 0
9915 -9636 -45 0
-9916 9638 0
-9916 37 0
9916 -9638 -37 0
-9917 9640 0
-9917 45 0
9917 -9640 -45 0
-9918 9642 0
-9918 37 0
9918 -9642 -37 0
-9919 9644 0
-9919 35 0
9919 -9644 -35 0
-9920 9646 0
-9920 35 0
9920 -9646 -35 0
-9921 9648 0
-9921 36 0
9921 -9648 -36 0
-9922 9650 0
-9922 34 0
9922 -9650 -34 0
-9923 9652 0
-9923 36 0
9923 -9652 -36 0
-9924 9654 0
-9924 34 0
9924 -9654 -34 0
-9925 9656 0
-9925 89 0
9925 -9656 -89 0
-9926 9658 0
-9926 93 0
9926 -9658 -93 0
-9927 9660 0
-9927 93 0
9927 -9660 -93 0
-9928 9662 0
-9928 137 0
9928 -9662 -137 0
-9929 9664 0
-9929 185 0
9929 -9664 -185 0
-9930 9913 9914 0
-9930 -9913 -9914 0
9930 -9913 9914 0
9930 9913 -9914 0
-9931 9930 9915 0
-9931 -9930 -9915 0
9931 -9930 9915 0
9931 9930 -9915 0
-9932 9931 9916 0
-9932 -9931 -9916 0
9932 -9931 9916 0
9932 9931 -9916 0
-9933 9932 9917 0
-9933 -9932 -9917 0
9933 -9932 9917 0
9933 9932 -9917 0
-9934 9933 9918 0
-9934 -9933 -9918 0
9934 -9933 9918 0
9934 9933 -9918 0
-9935 9934 9919 0
-9935 -9934 -9919 0
9935 -9934 9919 0
9935 9934 -9919 0
-9936 9935 9920 0
-9936 -9935 -9920 0
9936 -9935 9920 0
9936 9935 -9920 0
-9937 9936 9921 0
-9937 -9936 -9921 0
9937 -9936 9921 0
9937 9936 -9921 0
-9938 9937 9922 0
-9938 -9937 -9922 0
9938 -9937 9922 0
9938 9937 -9922 0
-9939 9938 9923 0
-9939 -9938 -9923 0
9939 -9938 9923 0
9939 9938 -9923 0
-9940 9939 9924 0
-9940 -9939 -9924 0
9940 -9939 9924 0
9940 9939 -9924 0
-9941 9940 9925 0
-9941 -9940 -9925 0
9941 -9940 9925 0
9941 9940 -9925 0
-9942 9941 9926 0
-9942 -9941 -9926 0
9942 -9941 9926 0
9942 9941 -9926 0
-9943 9942 9927 0
-9943 -9942 -9927 0
9943 -9942 9927 0
9943 9942 -9927 0
-9944 9943 9928 0
-9944 -9943 -9928 0
9944 -9943 9928 0
9944 9943 -9928 0
-9945 9944 9929 0
-9945 -9944 -9929 0
9945 -9944 9929 0
9945 9944 -9929 0
-9945 0
-9946 9632 0
-9946 42 0
9946 -9632 -42 0
-9947 9634 0
-9947 44 0
9947 -9634 -44 0
-9948 9636 0
-9948 46 0
9948 -9636 -46 0
-9949 9638 0
-9949 40 0
9949 -9638 -40 0
-9950 9640 0
-9950 47 0
9950 -9640 -47 0
-9951 9642 0
-9951 39 0
9951 -9642 -39 0
-9952 9644 0
-9952 39 0
9952 -9644 -39 0
-9953 9646 0
-9953 47 0
9953 -9646 -47 0
-9954 9648 0
-9954 40 0
9954 -9648 -40 0
-9955 9650 0
-9955 46 0
9955 -9650 -46 0
-9956 9652 0
-9956 44 0
9956 -9652 -44 0
-9957 9654 0
-9957 42 0
9957 -9654 -42 0
-9958 9656 0
-9958 90 0
9958 -9656 -90 0
-9959 9658 0
-9959 94 0
9959 -9658 -94 0
-9960 9660 0
-9960 95 0
9960 -9660 -95 0
-9961 9662 0
-9961 138 0
9961 -9662 -138 0
-9962 9664 0
-9962 186 0
9962 -9664 -186 0
-9963 9946 9947 0
-9963 -9946 -9947 0
9963 -9946 9947 0
9963 9946 -9947 0
-9964 9963 9948 0
-9964 -9963 -9948 0
9964 -9963 9948 0
9964 9963 -9948 0
-9965 9964 9949 0
-9965 -9964 -9949 0
9965 -9964 9949 0
9965 9964 -9949 0
-9966 9965 9950 0
-9966 -9965 -9950 0
9966 -9965 9950 0
9966 9965 -9950 0
-9967 9966 9951 0
-9967 -9966 -9951 0
9967 -9966 9951 0
9967 9966 -9951 0
-9968 9967 9952 0
-9968 -9967 -9952 0
9968 -9967 9952 0
9968 9967 -9952 0
-9969 9968 9953 0
-9969 -9968 -9953 0
9969 -9968 9953 0
9969 9968 -9953 0
-9970 9969 9954 0
-9970 -9969 -9954 0
9970 -9969 9954 0
9970 9969 -9954 0
-9971 9970 9955 0
-9971 -9970 -9955 0
9971 -9970 9955 0
9971 9970 -9955 0
-9972 9971 9956 0
-9972 -9971 -9956 0
9972 -9971 9956 0
9972 9971 -9956 0
-9973 9972 9957 0
-9973 -9972 -9957 0
9973 -9972 9957 0
9973 9972 -9957 0
-9974 9973 9958 0
-9974 -9973 -9958 0
9974 -9973 9958 0
9974 9973 -9958 0
-9975 9974 9959 0
-9975 -9974 -9959 0
9975 -9974 9959 0
9975 9974 -9959 0
-9976 9975 9960 0
-9976 -9975 -9960 0
9976 -9975 9960 0
9976 9975 -9960 0
-9977 9976 9961 0
-9977 -9976 -9961 0
9977 -9976 9961 0
9977 9976 -9961 0
-9978 9977 9962 0
-9978 -9977 -9962 0
9978 -9977 9962 0
9978 9977 -9962 0
-9978 0
-9979 9632 0
-9979 43 0
9979 -9632 -43 0
-9980 9634 0
-9980 43 0
9980 -9634 -43 0
-9981 9636 0
-9981 48 0
9981 -9636 -48 0
-9982 9638 0
-9982 38 0
9982 -9638 -38 0
-9983 9640 0
-9983 48 0
9983 -9640 -48 0
-9984 9642 0
-9984 38 0
9984 -9642 -38 0
-9985 9644 0
-9985 43 0
9985 -9644 -43 0
-9986 9646 0
-9986 43 0
9986 -9646 -43 0
-9987 9648 0
-9987 48 0
9987 -9648 -48 0
-9988 9650 0
-9988 38 0
9988 -9650 -38 0
-9989 9652 0
-9989 48 0
9989 -9652 -48 0
-9990 9654 0
-9990 38 0
9990 -9654 -38 0
-9991 9656 0
-9991 91 0
9991 -9656 -91 0
-9992 9658 0
-9992 96 0
9992 -9658 -96 0
-9993 9660 0
-9993 96 0
9993 -9660 -96 0
-9994 9662 0
-9994 139 0
9994 -9662 -139 0
-9995 9664 0
-9995 187 0
9995 -9664 -187 0
-9996 9979 9980 0
-9996 -9979 -9980 0
9996 -9979 9980 0
9996 9979 -9980 0
-9997 9996 9981 0
-9997 -9996 -9981 0
9997 -9996 9981 0
9997 9996 -9981 0
-9998 9997 9982 0
-9998 -9997 -9982 0
9998 -9997 9982 0
9998 9997 -9982 0
-9999 9998 9983 0
-9999 -9998 -9983 0
9999 -9998 9983 0
9999 9998 -9983 0
-10000 9999 9984 0
-10000 -9999 -9984 0
10000 -9999 9984 0
10000 9999 -9984 0
-10001 10000 9985 0
-10001 -10000 -9985 0
10001 -10000 9985 0
10001 10000 -9985 0
-10002 10001 9986 0
-10002 -10001 -9986 0
10002 -10001 9986 0
10002 10001 -9986 0
-10003 10002 9987 0
-10003 -10002 -9987 0
10003 -10002 9987 0
10003 10002 -9987 0
-10004 10003 9988 0
-10004 -10003 -9988 0
10004 -10003 9988 0
10004 10003 -9988 0
-10005 10004 9989 0
-10005 -10004 -9989 0
10005 -10004 9989 0
10005 10004 -9989 0
-10006 10005 9990 0
-10006 -10005 -9990 0
10006 -10005 9990 0
10006 10005 -9990 0
-10007 10006 9991 0
-10007 -10006 -9991 0
10007 -10006 9991 0
10007 10006 -9991 0
-10008 10007 9992 0
-10008 -10007 -9992 0
10008 -10007 9992 0
10008 10007 -9992 0
-10009 10008 9993 0
-10009 -10008 -9993 0
10009 -10008 9993 0
10009 10008 -9993 0
-10010 10009 9994 0
-10010 -10009 -9994 0
10010 -10009 9994 0
10010 10009 -9994 0
-10011 10010 9995 0
-10011 -10010 -9995 0
10011 -10010 9995 0
10011 10010 -9995 0
-10011 0
-10012 9632 0
-10012 44 0
10012 -9632 -44 0
-10013 9634 0
-10013 42 0
10013 -9634 -42 0
-10014 9636 0
-10014 47 0
10014 -9636 -47 0
-10015 9638 0
-10015 39 0
10015 -9638 -39 0
-10016 9640 0
-10016 46 0
10016 -9640 -46 0
-10017 9642 0
-10017 40 0
10017 -9642 -40 0
-10018 9644 0
-10018 47 0
10018 -9644 -47 0
-10019 9646 0
-10019 39 0
10019 -9646 -39 0
-10020 9648 0
-10020 44 0
10020 -9648 -44 0
-10021 9650 0
-10021 42 0
10021 -9650 -42 0
-10022 9652 0
-10022 40 0
10022 -9652 -40 0
-10023 9654 0
-10023 46 0
10023 -9654 -46 0
-10024 9656 0
-10024 92 0
10024 -9656 -92 0
-10025 9658 0
-10025 95 0
10025 -9658 -95 0
-10026 9660 0
-10026 94 0
10026 -9660 -94 0
-10027 9662 0
-10027 140 0
10027 -9662 -140 0
-10028 9664 0
-10028 188 0
10028 -9664 -188 0
-10029 10012 10013 0
-10029 -10012 -10013 0
10029 -10012 10013 0
10029 10012 -10013 0
-10030 10029 10014 0
-10030 -10029 -10014 0
10030 -10029 10014 0
10030 10029 -10014 0
-10031 10030 10015 0
-10031 -10030 -10015 0
10031 -10030 10015 0
10031 10030 -10015 0
-10032 10031 10016 0
-10032 -10031 -10016 0
10032 -10031 10016 0
10032 10031 -10016 0
-10033 10032 10017 0
-10033 -10032 -10017 0
10033 -10032 10017 0
10033 10032 -10017 0
-10034 10033 10018 0
-10034 -10033 -10018 0
10034 -10033 10018 0
10034 10033 -10018 0
-10035 10034 10019 0
-10035 -10034 -10019 0
10035 -10034 10019 0
10035 10034 -10019 0
-10036 10035 10020 0
-10036 -10035 -10020 0
10036 -10035 10020 0
10036 10035 -10020 0
-10037 10036 10021 0
-10037 -10036 -10021 0
10037 -10036 10021 0
10037 10036 -10021 0
-10038 10037 10022 0
-10038 -10037 -10022 0
10038 -10037 10022 0
10038 10037 -10022 0
-10039 10038 10023 0
-10039 -10038 -10023 0
10039 -10038 10023 0
10039 10038 -10023 0
-10040 10039 10024 0
-10040 -10039 -10024 0
10040 -10039 10024 0
10040 10039 -10024 0
-10041 10040 10025 0
-10041 -10040 -10025 0
10041 -10040 10025 0
10041 10040 -10025 0
-10042 10041 10026 0
-10042 -10041 -10026 0
10042 -10041 10026 0
10042 10041 -10026 0
-10043 10042 10027 0
-10043 -10042 -10027 0
10043 -10042 10027 0
10043 10042 -10027 0
-10044 10043 10028 0
-10044 -10043 -10028 0
10044 -10043 10028 0
10044 10043 -10028 0
-10044 0
-10045 9632 0
-10045 45 0
10045 -9632 -45 0
-10046 9634 0
-10046 37 0
10046 -9634 -37 0
-10047 9636 0
-10047 41 0
10047 -9636 -41 0
-10048 9638 0
-10048 41 0
10048 -9638 -41 0
-10049 9640 0
-10049 37 0
10049 -9640 -37 0
-10050 9642 0
-10050 45 0
10050 -9642 -45 0
-10051 9644 0
-10051 36 0
10051 -9644 -36 0
-10052 9646 0
-10052 34 0
10052 -9646 -34 0
-10053 9648 0
-10053 35 0
10053 -9648 -35 0
-10054 9650 0
-10054 35 0
10054 -9650 -35 0
-10055 9652 0
-10055 34 0
10055 -9652 -34 0
-10056 9654 0
-10056 36 0
10056 -9654 -36 0
-10057 9656 0
-10057 93 0
10057 -9656 -93 0
-10058 9658 0
-10058 89 0
10058 -9658 -89 0
-10059 9660 0
-10059 85 0
10059 -9660 -85 0
-10060 9662 0
-10060 141 0
10060 -9662 -141 0
-10061 9664 0
-10061 189 0
10061 -9664 -189 0
-10062 10045 10046 0
-10062 -10045 -10046 0
10062 -10045 10046 0
10062 10045 -10046 0
-10063 10062 10047 0
-10063 -10062 -10047 0
10063 -10062 10047 0
10063 10062 -10047 0
-10064 10063 10048 0
-10064 -10063 -10048 0
10064 -10063 10048 0
10064 10063 -10048 0
-10065 10064 10049 0
-10065 -10064 -10049 0
10065 -10064 10049 0
10065 10064 -10049 0
-10066 10065 10050 0
-10066 -10065 -10050 0
10066 -10065 10050 0
10066 10065 -10050 0
-10067 10066 10051 0
-10067 -10066 -10051 0
10067 -10066 10051 0
10067 10066 -10051 0
-10068 10067 10052 0
-10068 -10067 -10052 0
10068 -10067 10052 0
10068 10067 -10052 0
-10069 10068 10053 0
-10069 -10068 -10053 0
10069 -10068 10053 0
10069 10068 -10053 0
-10070 10069 10054 0
-10070 -10069 -10054 0
10070 -10069 10054 0
10070 10069 -10054 0
-10071 10070 10055 0
-10071 -10070 -10055 0
10071 -10070 10055 0
10071 10070 -10055 0
-10072 10071 10056 0
-10072 -10071 -10056 0
10072 -10071 10056 0
10072 10071 -10056 0
-10073 10072 10057 0
-10073 -10072 -10057 0
10073 -10072 10057 0
10073 10072 -10057 0
-10074 10073 10058 0
-10074 -10073 -10058 0
10074 -10073 10058 0
10074 10073 -10058 0
-10075 10074 10059 0
-10075 -10074 -10059 0
10075 -10074 10059 0
10075 10074 -10059 0
-10076 10075 10060 0
-10076 -10075 -10060 0
10076 -10075 10060 0
10076 10075 -10060 0
-10077 10076 10061 0
-10077 -10076 -10061 0
10077 -10076 10061 0
10077 10076 -10061 0
-10077 0
-10078 9632 0
-10078 46 0
10078 -9632 -46 0
-10079 9634 0
-10079 40 0
10079 -9634 -40 0
-10080 9636 0
-10080 42 0
10080 -9636 -42 0
-10081 9638 0
-10081 44 0
10081 -9638 -44 0
-10082 9640 0
-10082 39 0
10082 -9640 -39 0
-10083 9642 0
-10083 47 0
10083 -9642 -47 0
-10084 9644 0
-10084 40 0
10084 -9644 -40 0
-10085 9646 0
-10085 46 0
10085 -9646 -46 0
-10086 9648 0
-10086 39 0
10086 -9648 -39 0
-10087 9650 0
-10087 47 0
10087 -9650 -47 0
-10088 9652 0
-10088 42 0
10088 -9652 -42 0
-10089 9654 0
-10089 44 0
10089 -9654 -44 0
-10090 9656 0
-10090 94 0
10090 -9656 -94 0
-10091 9658 0
-10091 90 0
10091 -9658 -90 0
-10092 9660 0
-10092 87 0
10092 -9660 -87 0
-10093 9662 0
-10093 142 0
10093 -9662 -142 0
-10094 9664 0
-10094 190 0
10094 -9664 -190 0
-10095 10078 10079 0
-10095 -10078 -10079 0
10095 -10078 10079 0
10095 10078 -10079 0
-10096 10095 10080 0
-10096 -10095 -10080 0
10096 -10095 10080 0
10096 10095 -10080 0
-10097 10096 10081 0
-10097 -10096 -10081 0
10097 -10096 10081 0
10097 10096 -10081 0
-10098 10097 10082 0
-10098 -10097 -10082 0
10098 -10097 10082 0
10098 10097 -10082 0
-10099 10098 10083 0
-10099 -10098 -10083 0
10099 -10098 10083 0
10099 10098 -10083 0
-10100 10099 10084 0
-10100 -10099 -10084 0
10100 -10099 10084 0
10100 10099 -10084 0
-10101 10100 10085 0
-10101 -10100 -10085 0
10101 -10100 10085 0
10101 10100 -10085 0
-10102 10101 10086 0
-10102 -10101 -10086 0
10102 -10101 10086 0
10102 10101 -10086 0
-10103 10102 10087 0
-10103 -10102 -10087 0
10103 -10102 10087 0
10103 10102 -10087 0
-10104 10103 10088 0
-10104 -10103 -10088 0
10104 -10103 10088 0
10104 10103 -10088 0
-10105 10104 10089 0
-10105 -10104 -10089 0
10105 -10104 10089 0
10105 10104 -10089 0
-10106 10105 10090 0
-10106 -10105 -10090 0
10106 -10105 10090 0
10106 10105 -10090 0
-10107 10106 10091 0
-10107 -10106 -10091 0
10107 -10106 10091 0
10107 10106 -10091 0
-10108 10107 10092 0
-10108 -10107 -10092 0
10108 -10107 10092 0
10108 10107 -10092 0
-10109 10108 10093 0
-10109 -10108 -10093 0
10109 -10108 10093 0
10109 10108 -10093 0
-10110 10109 10094 0
-10110 -10109 -10094 0
10110 -10109 10094 0
10110 10109 -10094 0
-10110 0
-10111 9632 0
-10111 47 0
10111 -9632 -47 0
-10112 9634 0
-10112 39 0
10112 -9634 -39 0
-10113 9636 0
-10113 44 0
10113 -9636 -44 0
-10114 9638 0
-10114 42 0
10114 -9638 -42 0
-10115 9640 0
-10115 40 0
10115 -9640 -40 0
-10116 9642 0
-10116 46 0
10116 -9642 -46 0
-10117 9644 0
-10117 44 0
10117 -9644 -44 0
-10118 9646 0
-10118 42 0
10118 -9646 -42 0
-10119 9648 0
-10119 47 0
10119 -9648 -47 0
-10120 9650 0
-10120 39 0
10120 -9650 -39 0
-10121 9652 0
-10121 46 0
10121 -9652 -46 0
-10122 9654 0
-10122 40 0
10122 -9654 -40 0
-10123 9656 0
-10123 95 0
10123 -9656 -95 0
-10124 9658 0
-10124 92 0
10124 -9658 -92 0
-10125 9660 0
-10125 88 0
10125 -9660 -88 0
-10126 9662 0
-10126 143 0
10126 -9662 -143 0
-10127 9664 0
-10127 191 0
10127 -9664 -191 0
-10128 10111 10112 0
-10128 -10111 -10112 0
10128 -10111 10112 0
10128 10111 -10112 0
-10129 10128 10113 0
-10129 -10128 -10113 0
10129 -10128 10113 0
10129 10128 -10113 0
-10130 10129 10114 0
-10130 -10129 -10114 0
10130 -10129 10114 0
10130 10129 -10114 0
-10131 10130 10115 0
-10131 -10130 -10115 0
10131 -10130 10115 0
10131 10130 -10115 0
-10132 10131 10116 0
-10132 -10131 -10116 0
10132 -10131 10116 0
10132 10131 -10116 0
-10133 10132 10117 0
-10133 -10132 -10117 0
10133 -10132 10117 0
10133 10132 -10117 0
-10134 10133 10118 0
-10134 -10133 -10118 0
10134 -10133 10118 0
10134 10133 -10118 0
-10135 10134 10119 0
-10135 -10134 -10119 0
10135 -10134 10119 0
10135 10134 -10119 0
-10136 10135 10120 0
-10136 -10135 -10120 0
10136 -10135 10120 0
10136 10135 -10120 0
-10137 10136 10121 0
-10137 -10136 -10121 0
10137 -10136 10121 0
10137 10136 -10121 0
-10138 10137 10122 0
-10138 -10137 -10122 0
10138 -10137 10122 0
10138 10137 -10122 0
-10139 10138 10123 0
-10139 -10138 -10123 0
10139 -10138 10123 0
10139 10138 -10123 0
-10140 10139 10124 0
-10140 -10139 -10124 0
10140 -10139 10124 0
10140 10139 -10124 0
-10141 10140 10125 0
-10141 -10140 -10125 0
10141 -10140 10125 0
10141 10140 -10125 0
-10142 10141 10126 0
-10142 -10141 -10126 0
10142 -10141 10126 0
10142 10141 -10126 0
-10143 10142 10127 0
-10143 -10142 -10127 0
10143 -10142 10127 0
10143 10142 -10127 0
-10143 0
-10144 9632 0
-10144 48 0
10144 -9632 -48 0
-10145 9634 0
-10145 38 0
10145 -9634 -38 0
-10146 9636 0
-10146 43 0
10146 -9636 -43 0
-10147 9638 0
-10147 43 0
10147 -9638 -43 0
-10148 9640 0
-10148 38 0
10148 -9640 -38 0
-10149 9642 0
-10149 48 0
10149 -9642 -48 0
-10150 9644 0
-10150 48 0
10150 -9644 -48 0
-10151 9646 0
-10151 38 0
10151 -9646 -38 0
-10152 9648 0
-10152 43 0
10152 -9648 -43 0
-10153 9650 0
-10153 43 0
10153 -9650 -43 0
-10154 9652 0
-10154 38 0
10154 -9652 -38 0
-10155 9654 0
-10155 48 0
10155 -9654 -48 0
-10156 9656 0
-10156 96 0
10156 -9656 -96 0
-10157 9658 0
-10157 91 0
10157 -9658 -91 0
-10158 9660 0
-10158 86 0
10158 -9660 -86 0
-10159 9662 0
-10159 144 0
10159 -9662 -144 0
-10160 9664 0
-10160 192 0
10160 -9664 -192 0
-10161 10144 10145 0
-10161 -10144 -10145 0
10161 -10144 10145 0
10161 10144 -10145 0
-10162 10161 10146 0
-10162 -10161 -10146 0
10162 -10161 10146 0
10162 10161 -10146 0
-10163 10162 10147 0
-10163 -10162 -10147 0
10163 -10162 10147 0
10163 10162 -10147 0
-10164 10163 10148 0
-10164 -10163 -10148 0
10164 -10163 10148 0
10164 10163 -10148 0
-10165 10164 10149 0
-10165 -10164 -10149 0
10165 -10164 10149 0
10165 10164 -10149 0
-10166 10165 10150 0
-10166 -10165 -10150 0
10166 -10165 10150 0
10166 10165 -10150 0
-10167 10166 10151 0
-10167 -10166 -10151 0
10167 -10166 10151 0
10167 10166 -10151 0
-10168 10167 10152 0
-10168 -10167 -10152 0
10168 -10167 10152 0
10168 10167 -10152 0
-10169 10168 10153 0
-10169 -10168 -10153 0
10169 -10168 10153 0
10169 10168 -10153 0
-10170 10169 10154 0
-10170 -10169 -10154 0
10170 -10169 10154 0
10170 10169 -10154 0
-10171 10170 10155 0
-10171 -10170 -10155 0
10171 -10170 10155 0
10171 10170 -10155 0
-10172 10171 10156 0
-10172 -10171 -10156 0
10172 -10171 10156 0
10172 10171 -10156 0
-10173 10172 10157 0
-10173 -10172 -10157 0
10173 -10172 10157 0
10173 10172 -10157 0
-10174 10173 10158 0
-10174 -10173 -10158 0
10174 -10173 10158 0
10174 10173 -10158 0
-10175 10174 10159 0
-10175 -10174 -10159 0
10175 -10174 10159 0
10175 10174 -10159 0
-10176 10175 10160 0
-10176 -10175 -10160 0
10176 -10175 10160 0
10176 10175 -10160 0
-10176 0
-10177 5 0
-10177 32 0
10177 -5 -32 0
-10178 10177 0
-10178 33 0
10178 -10177 -33 0
-10179 13 0
-10179 30 0
10179 -13 -30 0
-10180 10179 0
-10180 33 0
10180 -10179 -33 0
-10181 6 0
-10181 31 0
10181 -6 -31 0
-10182 10181 0
-10182 33 0
10182 -10181 -33 0
-10183 15 0
-10183 31 0
10183 -15 -31 0
-10184 10183 0
-10184 33 0
10184 -10183 -33 0
-10185 10 0
-10185 30 0
10185 -10 -30 0
-10186 10185 0
-10186 33 0
10186 -10185 -33 0
-10187 11 0
-10187 32 0
10187 -11 -32 0
-10188 10187 0
-10188 33 0
10188 -10187 -33 0
-10189 18 0
-10189 16 0
10189 -18 -16 0
-10190 10189 0
-10190 33 0
10190 -10189 -33 0
-10191 20 0
-10191 8 0
10191 -20 -8 0
-10192 10191 0
-10192 33 0
10192 -10191 -33 0
-10193 22 0
-10193 12 0
10193 -22 -12 0
-10194 10193 0
-10194 33 0
10194 -10193 -33 0
-10195 28 0
-10195 12 0
10195 -28 -12 0
-10196 10195 0
-10196 33 0
10196 -10195 -33 0
-10197 23 0
-10197 8 0
10197 -23 -8 0
-10198 10197 0
-10198 33 0
10198 -10197 -33 0
-10199 27 0
-10199 16 0
10199 -27 -16 0
-10200 10199 0
-10200 33 0
10200 -10199 -33 0
-10201 53 0
-10201 80 0
10201 -53 -80 0
-10202 10201 0
-10202 81 0
10202 -10201 -81 0
-10203 54 0
-10203 79 0
10203 -54 -79 0
-10204 10203 0
-10204 81 0
10204 -10203 -81 0
-10205 58 0
-10205 78 0
10205 -58 -78 0
-10206 10205 0
-10206 81 0
10206 -10205 -81 0
-10207 101 0
-10207 128 0
10207 -101 -128 0
-10208 10207 0
-10208 129 0
10208 -10207 -129 0
-10209 149 0
-10209 176 0
10209 -149 -176 0
-10210 10209 0
-10210 177 0
10210 -10209 -177 0
-10211 10178 10180 0
-10211 -10178 -10180 0
10211 -10178 10180 0
10211 10178 -10180 0
-10212 10211 10182 0
-10212 -10211 -10182 0
10212 -10211 10182 0
10212 10211 -10182 0
-10213 10212 10184 0
-10213 -10212 -10184 0
10213 -10212 10184 0
10213 10212 -10184 0
-10214 10213 10186 0
-10214 -10213 -10186 0
10214 -10213 10186 0
10214 10213 -10186 0
-10215 10214 10188 0
-10215 -10214 -10188 0
10215 -10214 10188 0
10215 10214 -10188 0
-10216 10215 10190 0
-10216 -10215 -10190 0
10216 -10215 10190 0
10216 10215 -10190 0
-10217 10216 10192 0
-10217 -10216 -10192 0
10217 -10216 10192 0
10217 10216 -10192 0
-10218 10217 10194 0
-10218 -10217 -10194 0
10218 -10217 10194 0
10218 10217 -10194 0
-10219 10218 10196 0
-10219 -10218 -10196 0
10219 -10218 10196 0
10219 10218 -10196 0
-10220 10219 10198 0
-10220 -10219 -10198 0
10220 -10219 10198 0
10220 10219 -10198 0
-10221 10220 10200 0
-10221 -10220 -10200 0
10221 -10220 10200 0
10221 10220 -10200 0
-10222 10221 10202 0
-10222 -10221 -10202 0
10222 -10221 10202 0
10222 10221 -10202 0
-10223 10222 10204 0
-10223 -10222 -10204 0
10223 -10222 10204 0
10223 10222 -10204 0
-10224 10223 10206 0
-10224 -10223 -10206 0
10224 -10223 10206 0
10224 10223 -10206 0
-10225 10224 10208 0
-10225 -10224 -10208 0
10225 -10224 10208 0
10225 10224 -10208 0
-10226 10225 10210 0
-10226 -10225 -10210 0
10226 -10225 10210 0
10226 10225 -10210 0
-10226 0
-10227 10177 0
-10227 34 0
10227 -10177 -34 0
-10228 10179 0
-10228 36 0
10228 -10179 -36 0
-10229 10181 0
-10229 34 0
10229 -10181 -34 0
-10230 10183 0
-10230 36 0
10230 -10183 -36 0
-10231 10185 0
-10231 35 0
10231 -10185 -35 0
-10232 10187 0
-10232 35 0
10232 -10187 -35 0
-10233 10189 0
-10233 37 0
10233 -10189 -37 0
-10234 10191 0
-10234 45 0
10234 -10191 -45 0
-10235 10193 0
-10235 37 0
10235 -10193 -37 0
-10236 10195 0
-10236 45 0
10236 -10195 -45 0
-10237 10197 0
-10237 41 0
10237 -10197 -41 0
-10238 10199 0
-10238 41 0
10238 -10199 -41 0
-10239 10201 0
-10239 82 0
10239 -10201 -82 0
-10240 10203 0
-10240 82 0
10240 -10203 -82 0
-10241 10205 0
-10241 83 0
10241 -10205 -83 0
-10242 10207 0
-10242 130 0
10242 -10207 -130 0
-10243 10209 0
-10243 178 0
10243 -10209 -178 0
-10244 10227 10228 0
-10244 -10227 -10228 0
10244 -10227 10228 0
10244 10227 -10228 0
-10245 10244 10229 0
-10245 -10244 -10229 0
10245 -10244 10229 0
10245 10244 -10229 0
-10246 10245 10230 0
-10246 -10245 -10230 0
10246 -10245 10230 0
10246 10245 -10230 0
-10247 10246 10231 0
-10247 -10246 -10231 0
10247 -10246 10231 0
10247 10246 -10231 0
-10248 10247 10232 0
-10248 -10247 -10232 0
10248 -10247 10232 0
10248 10247 -10232 0
-10249 10248 10233 0
-10249 -10248 -10233 0
10249 -10248 10233 0
10249 10248 -10233 0
-10250 10249 10234 0
-10250 -10249 -10234 0
10250 -10249 10234 0
10250 10249 -10234 0
-10251 10250 10235 0
-10251 -10250 -10235 0
10251 -10250 10235 0
10251 10250 -10235 0
-10252 10251 10236 0
-10252 -10251 -10236 0
10252 -10251 10236 0
10252 10251 -10236 0
-10253 10252 10237 0
-10253 -10252 -10237 0
10253 -10252 10237 0
10253 10252 -10237 0
-10254 10253 10238 0
-10254 -10253 -10238 0
10254 -10253 10238 0
10254 10253 -10238 0
-10255 10254 10239 0
-10255 -10254 -10239 0
10255 -10254 10239 0
10255 10254 -10239 0
-10256 10255 10240 0
-10256 -10255 -10240 0
10256 -10255 10240 0
10256 10255 -10240 0
-10257 10256 10241 0
-10257 -10256 -10241 0
10257 -10256 10241 0
10257 10256 -10241 0
-10258 10257 10242 0
-10258 -10257 -10242 0
10258 -10257 10242 0
10258 10257 -10242 0
-10259 10258 10243 0
-10259 -10258 -10243 0
10259 -10258 10243 0
10259 10258 -10243 0
10259 0
-10260 10177 0
-10260 35 0
10260 -10177 -35 0
-10261 10179 0
-10261 35 0
10261 -10179 -35 0
-10262 10181 0
-10262 36 0
10262 -10181 -36 0
-10263 10183 0
-10263 34 0
10263 -10183 -34 0
-10264 10185 0
-10264 36 0
10264 -10185 -36 0
-10265 10187 0
-10265 34 0
10265 -10187 -34 0
-10266 10189 0
-10266 41 0
10266 -10189 -41 0
-10267 10191 0
-10267 41 0
10267 -10191 -41 0
-10268 10193 0
-10268 45 0
10268 -10193 -45 0
-10269 10195 0
-10269 37 0
10269 -10195 -37 0
-10270 10197 0
-10270 45 0
10270 -10197 -45 0
-10271 10199 0
-10271 37 0
10271 -10199 -37 0
-10272 10201 0
-10272 83 0
10272 -10201 -83 0
-10273 10203 0
-10273 84 0
10273 -10203 -84 0
-10274 10205 0
-10274 84 0
10274 -10205 -84 0
-10275 10207 0
-10275 131 0
10275 -10207 -131 0
-10276 10209 0
-10276 179 0
10276 -10209 -179 0
-10277 10260 10261 0
-10277 -10260 -10261 0
10277 -10260 10261 0
10277 10260 -10261 0
-10278 10277 10262 0
-10278 -10277 -10262 0
10278 -10277 10262 0
10278 10277 -10262 0
-10279 10278 10263 0
-10279 -10278 -10263 0
10279 -10278 10263 0
10279 10278 -10263 0
-10280 10279 10264 0
-10280 -10279 -10264 0
10280 -10279 10264 0
10280 10279 -10264 0
-10281 10280 10265 0
-10281 -10280 -10265 0
10281 -10280 10265 0
10281 10280 -10265 0
-10282 10281 10266 0
-10282 -10281 -10266 0
10282 -10281 10266 0
10282 10281 -10266 0
-10283 10282 10267 0
-10283 -10282 -10267 0
10283 -10282 10267 0
10283 10282 -10267 0
-10284 10283 10268 0
-10284 -10283 -10268 0
10284 -10283 10268 0
10284 10283 -10268 0
-10285 10284 10269 0
-10285 -10284 -10269 0
10285 -10284 10269 0
10285 10284 -10269 0
-10286 10285 10270 0
-10286 -10285 -10270 0
10286 -10285 10270 0
10286 10285 -10270 0
-10287 10286 10271 0
-10287 -10286 -10271 0
10287 -10286 10271 0
10287 10286 -10271 0
-10288 10287 10272 0
-10288 -10287 -10272 0
10288 -10287 10272 0
10288 10287 -10272 0
-10289 10288 10273 0
-10289 -10288 -10273 0
10289 -10288 10273 0
10289 10288 -10273 0
-10290 10289 10274 0
-10290 -10289 -10274 0
10290 -10289 10274 0
10290 10289 -10274 0
-10291 10290 10275 0
-10291 -10290 -10275 0
10291 -10290 10275 0
10291 10290 -10275 0
-10292 10291 10276 0
-10292 -10291 -10276 0
10292 -10291 10276 0
10292 10291 -10276 0
-10292 0
-10293 10177 0
-10293 36 0
10293 -10177 -36 0
-10294 10179 0
-10294 34 0
10294 -10179 -34 0
-10295 10181 0
-10295 35 0
10295 -10181 -35 0
-10296 10183 0
-10296 35 0
10296 -10183 -35 0
-10297 10185 0
-10297 34 0
10297 -10185 -34 0
-10298 10187 0
-10298 36 0
10298 -10187 -36 0
-10299 10189 0
-10299 45 0
10299 -10189 -45 0
-10300 10191 0
-10300 37 0
10300 -10191 -37 0
-10301 10193 0
-10301 41 0
10301 -10193 -41 0
-10302 10195 0
-10302 41 0
10302 -10195 -41 0
-10303 10197 0
-10303 37 0
10303 -10197 -37 0
-10304 10199 0
-10304 45 0
10304 -10199 -45 0
-10305 10201 0
-10305 84 0
10305 -10201 -84 0
-10306 10203 0
-10306 83 0
10306 -10203 -83 0
-10307 10205 0
-10307 82 0
10307 -10205 -82 0
-10308 10207 0
-10308 132 0
10308 -10207 -132 0
-10309 10209 0
-10309 180 0
10309 -10209 -180 0
-10310 10293 10294 0
-10310 -10293 -10294 0
10310 -10293 10294 0
10310 10293 -10294 0
-10311 10310 10295 0
-10311 -10310 -10295 0
10311 -10310 10295 0
10311 10310 -10295 0
-10312 10311 10296 0
-10312 -10311 -10296 0
10312 -10311 10296 0
10312 10311 -10296 0
-10313 10312 10297 0
-10313 -10312 -10297 0
10313 -10312 10297 0
10313 10312 -10297 0
-10314 10313 10298 0
-10314 -10313 -10298 0
10314 -10313 10298 0
10314 10313 -10298 0
-10315 10314 10299 0
-10315 -10314 -10299 0
10315 -10314 10299 0
10315 10314 -10299 0
-10316 10315 10300 0
-10316 -10315 -10300 0
10316 -10315 10300 0
10316 10315 -10300 0
-10317 10316 10301 0
-10317 -10316 -10301 0
10317 -10316 10301 0
10317 10316 -10301 0
-10318 10317 10302 0
-10318 -10317 -10302 0
10318 -10317 10302 0
10318 10317 -10302 0
-10319 10318 10303 0
-10319 -10318 -10303 0
10319 -10318 10303 0
10319 10318 -10303 0
-10320 10319 10304 0
-10320 -10319 -10304 0
10320 -10319 10304 0
10320 10319 -10304 0
-10321 10320 10305 0
-10321 -10320 -10305 0
10321 -10320 10305 0
10321 10320 -10305 0
-10322 10321 10306 0
-10322 -10321 -10306 0
10322 -10321 10306 0
10322 10321 -10306 0
-10323 10322 10307 0
-10323 -10322 -10307 0
10323 -10322 10307 0
10323 10322 -10307 0
-10324 10323 10308 0
-10324 -10323 -10308 0
10324 -10323 10308 0
10324 10323 -10308 0
-10325 10324 10309 0
-10325 -10324 -10309 0
10325 -10324 10309 0
10325 10324 -10309 0
-10325 0
-10326 10177 0
-10326 37 0
10326 -10177 -37 0
-10327 10179 0
-10327 45 0
10327 -10179 -45 0
-10328 10181 0
-10328 37 0
10328 -10181 -37 0
-10329 10183 0
-10329 45 0
10329 -10183 -45 0
-10330 10185 0
-10330 41 0
10330 -10185 -41 0
-10331 10187 0
-10331 41 0
10331 -10187 -41 0
-10332 10189 0
-10332 34 0
10332 -10189 -34 0
-10333 10191 0
-10333 36 0
10333 -10191 -36 0
-10334 10193 0
-10334 34 0
10334 -10193 -34 0
-10335 10195 0
-10335 36 0
10335 -10195 -36 0
-10336 10197 0
-10336 35 0
10336 -10197 -35 0
-10337 10199 0
-10337 35 0
10337 -10199 -35 0
-10338 10201 0
-10338 85 0
10338 -10201 -85 0
-10339 10203 0
-10339 85 0
10339 -10203 -85 0
-10340 10205 0
-10340 89 0
10340 -10205 -89 0
-10341 10207 0
-10341 133 0
10341 -10207 -133 0
-10342 10209 0
-10342 181 0
10342 -10209 -181 0
-10343 10326 10327 0
-10343 -10326 -10327 0
10343 -10326 10327 0
10343 10326 -10327 0
-10344 10343 10328 0
-10344 -10343 -10328 0
10344 -10343 10328 0
10344 10343 -10328 0
-10345 10344 10329 0
-10345 -10344 -10329 0
10345 -10344 10329 0
10345 10344 -10329 0
-10346 10345 10330 0
-10346 -10345 -10330 0
10346 -10345 10330 0
10346 10345 -10330 0
-10347 10346 10331 0
-10347 -10346 -10331 0
10347 -10346 10331 0
10347 10346 -10331 0
-10348 10347 10332 0
-10348 -10347 -10332 0
10348 -10347 10332 0
10348 10347 -10332 0
-10349 10348 10333 0
-10349 -10348 -10333 0
10349 -10348 10333 0
10349 10348 -10333 0
-10350 10349 10334 0
-10350 -10349 -10334 0
10350 -10349 10334 0
10350 10349 -10334 0
-10351 10350 10335 0
-10351 -10350 -10335 0
10351 -10350 10335 0
10351 10350 -10335 0
-10352 10351 10336 0
-10352 -10351 -10336 0
10352 -10351 10336 0
10352 10351 -10336 0
-10353 10352 10337 0
-10353 -10352 -10337 0
10353 -10352 10337 0
10353 10352 -10337 0
-10354 10353 10338 0
-10354 -10353 -10338 0
10354 -10353 10338 0
10354 10353 -10338 0
-10355 10354 10339 0
-10355 -10354 -10339 0
10355 -10354 10339 0
10355 10354 -10339 0
-10356 10355 10340 0
-10356 -10355 -10340 0
10356 -10355 10340 0
10356 10355 -10340 0
-10357 10356 10341 0
-10357 -10356 -10341 0
10357 -10356 10341 0
10357 10356 -10341 0
-10358 10357 10342 0
-10358 -10357 -10342 0
10358 -10357 10342 0
10358 10357 -10342 0
-10358 0
-10359 10177 0
-10359 38 0
10359 -10177 -38 0
-10360 10179 0
-10360 48 0
10360 -10179 -48 0
-10361 10181 0
-10361 38 0
10361 -10181 -38 0
-10362 10183 0
-10362 48 0
10362 -10183 -48 0
-10363 10185 0
-10363 43 0
10363 -10185 -43 0
-10364 10187 0
-10364 43 0
10364 -10187 -43 0
-10365 10189 0
-10365 38 0
10365 -10189 -38 0
-10366 10191 0
-10366 48 0
10366 -10191 -48 0
-10367 10193 0
-10367 38 0
10367 -10193 -38 0
-10368 10195 0
-10368 48 0
10368 -10195 -48 0
-10369 10197 0
-10369 43 0
10369 -10197 -43 0
-10370 10199 0
-10370 43 0
10370 -10199 -43 0
-10371 10201 0
-10371 86 0
10371 -10201 -86 0
-10372 10203 0
-10372 86 0
10372 -10203 -86 0
-10373 10205 0
-10373 91 0
10373 -10205 -91 0
-10374 10207 0
-10374 134 0
10374 -10207 -134 0
-10375 10209 0
-10375 182 0
10375 -10209 -182 0
-10376 10359 10360 0
-10376 -10359 -10360 0
10376 -10359 10360 0
10376 10359 -10360 0
-10377 10376 10361 0
-10377 -10376 -10361 0
10377 -10376 10361 0
10377 10376 -10361 0
-10378 10377 10362 0
-10378 -10377 -10362 0
10378 -10377 10362 0
10378 10377 -10362 0
-10379 10378 10363 0
-10379 -10378 -10363 0
10379 -10378 10363 0
10379 10378 -10363 0
-10380 10379 10364 0
-10380 -10379 -10364 0
10380 -10379 10364 0
10380 10379 -10364 0
-10381 10380 10365 0
-10381 -10380 -10365 0
10381 -10380 10365 0
10381 10380 -10365 0
-10382 10381 10366 0
-10382 -10381 -10366 0
10382 -10381 10366 0
10382 10381 -10366 0
-10383 10382 10367 0
-10383 -10382 -10367 0
10383 -10382 10367 0
10383 10382 -10367 0
-10384 10383 10368 0
-10384 -10383 -10368 0
10384 -10383 10368 0
10384 10383 -10368 0
-10385 10384 10369 0
-10385 -10384 -10369 0
10385 -10384 10369 0
10385 10384 -10369 0
-10386 10385 10370 0
-10386 -10385 -10370 0
10386 -10385 10370 0
10386 10385 -10370 0
-10387 10386 10371 0
-10387 -10386 -10371 0
10387 -10386 10371 0
10387 10386 -10371 0
-10388 10387 10372 0
-10388 -10387 -10372 0
10388 -10387 10372 0
10388 10387 -10372 0
-10389 10388 10373 0
-10389 -10388 -10373 0
10389 -10388 10373 0
10389 10388 -10373 0
-10390 10389 10374 0
-10390 -10389 -10374 0
10390 -10389 10374 0
10390 10389 -10374 0
-10391 10390 10375 0
-10391 -10390 -10375 0
10391 -10390 10375 0
10391 10390 -10375 0
-10391 0
-10392 10177 0
-10392 39 0
10392 -10177 -39 0
-10393 10179 0
-10393 47 0
10393 -10179 -47 0
-10394 10181 0
-10394 40 0
10394 -10181 -40 0
-10395 10183 0
-10395 46 0
10395 -10183 -46 0
-10396 10185 0
-10396 44 0
10396 -10185 -44 0
-10397 10187 0
-10397 42 0
10397 -10187 -42 0
-10398 10189 0
-10398 42 0
10398 -10189 -42 0
-10399 10191 0
-10399 44 0
10399 -10191 -44 0
-10400 10193 0
-10400 46 0
10400 -10193 -46 0
-10401 10195 0
-10401 40 0
10401 -10195 -40 0
-10402 10197 0
-10402 47 0
10402 -10197 -47 0
-10403 10199 0
-10403 39 0
10403 -10199 -39 0
-10404 10201 0
-10404 87 0
10404 -10201 -87 0
-10405 10203 0
-10405 88 0
10405 -10203 -88 0
-10406 10205 0
-10406 92 0
10406 -10205 -92 0
-10407 10207 0
-10407 135 0
10407 -10207 -135 0
-10408 10209 0
-10408 183 0
10408 -10209 -183 0
-10409 10392 10393 0
-10409 -10392 -10393 0
10409 -10392 10393 0
10409 10392 -10393 0
-10410 10409 10394 0
-10410 -10409 -10394 0
10410 -10409 10394 0
10410 10409 -10394 0
-10411 10410 10395 0
-10411 -10410 -10395 0
10411 -10410 10395 0
10411 10410 -10395 0
-10412 10411 10396 0
-10412 -10411 -10396 0
10412 -10411 10396 0
10412 10411 -10396 0
-10413 10412 10397 0
-10413 -10412 -10397 0
10413 -10412 10397 0
10413 10412 -10397 0
-10414 10413 10398 0
-10414 -10413 -10398 0
10414 -10413 10398 0
10414 10413 -10398 0
-10415 10414 10399 0
-10415 -10414 -10399 0
10415 -10414 10399 0
10415 10414 -10399 0
-10416 10415 10400 0
-10416 -10415 -10400 0
10416 -10415 10400 0
10416 10415 -10400 0
-10417 10416 10401 0
-10417 -10416 -10401 0
10417 -10416 10401 0
10417 10416 -10401 0
-10418 10417 10402 0
-10418 -10417 -10402 0
10418 -10417 10402 0
10418 10417 -10402 0
-10419 10418 10403 0
-10419 -10418 -10403 0
10419 -10418 10403 0
10419 10418 -10403 0
-10420 10419 10404 0
-10420 -10419 -10404 0
10420 -10419 10404 0
10420 10419 -10404 0
-10421 10420 10405 0
-10421 -10420 -10405 0
10421 -10420 10405 0
10421 10420 -10405 0
-10422 10421 10406 0
-10422 -10421 -10406 0
10422 -10421 10406 0
10422 10421 -10406 0
-10423 10422 10407 0
-10423 -10422 -10407 0
10423 -10422 10407 0
10423 10422 -10407 0
-10424 10423 10408 0
-10424 -10423 -10408 0
10424 -10423 10408 0
10424 10423 -10408 0
-10424 0
-10425 10177 0
-10425 40 0
10425 -10177 -40 0
-10426 10179 0
-10426 46 0
10426 -10179 -46 0
-10427 10181 0
-10427 39 0
10427 -10181 -39 0
-10428 10183 0
-10428 47 0
10428 -10183 -47 0
-10429 10185 0
-10429 42 0
10429 -10185 -42 0
-10430 10187 0
-10430 44 0
10430 -10187 -44 0
-10431 10189 0
-10431 46 0
10431 -10189 -46 0
-10432 10191 0
-10432 40 0
10432 -10191 -40 0
-10433 10193 0
-10433 42 0
10433 -10193 -42 0
-10434 10195 0
-10434 44 0
10434 -10195 -44 0
-10435 10197 0
-10435 39 0
10435 -10197 -39 0
-10436 10199 0
-10436 47 0
10436 -10199 -47 0
-10437 10201 0
-10437 88 0
10437 -10201 -88 0
-10438 10203 0
-10438 87 0
10438 -10203 -87 0
-10439 10205 0
-10439 90 0
10439 -10205 -90 0
-10440 10207 0
-10440 136 0
10440 -10207 -136 0
-10441 10209 0
-10441 184 0
10441 -10209 -184 0
-10442 10425 10426 0
-10442 -10425 -10426 0
10442 -10425 10426 0
10442 10425 -10426 0
-10443 10442 10427 0
-10443 -10442 -10427 0
10443 -10442 10427 0
10443 10442 -10427 0
-10444 10443 10428 0
-10444 -10443 -10428 0
10444 -10443 10428 0
10444 10443 -10428 0
-10445 10444 10429 0
-10445 -10444 -10429 0
10445 -10444 10429 0
10445 10444 -10429 0
-10446 10445 10430 0
-10446 -10445 -10430 0
10446 -10445 10430 0
10446 10445 -10430 0
-10447 10446 10431 0
-10447 -10446 -10431 0
10447 -10446 10431 0
10447 10446 -10431 0
-10448 10447 10432 0
-10448 -10447 -10432 0
10448 -10447 10432 0
10448 10447 -10432 0
-10449 10448 10433 0
-10449 -10448 -10433 0
10449 -10448 10433 0
10449 10448 -10433 0
-10450 10449 10434 0
-10450 -10449 -10434 0
10450 -10449 10434 0
10450 10449 -10434 0
-10451 10450 10435 0
-10451 -10450 -10435 0
10451 -10450 10435 0
10451 10450 -10435 0
-10452 10451 10436 0
-10452 -10451 -10436 0
10452 -10451 10436 0
10452 10451 -10436 0
-10453 10452 10437 0
-10453 -10452 -10437 0
10453 -10452 10437 0
10453 10452 -10437 0
-10454 10453 10438 0
-10454 -10453 -10438 0
10454 -10453 10438 0
10454 10453 -10438 0
-10455 10454 10439 0
-10455 -10454 -10439 0
10455 -10454 10439 0
10455 10454 -10439 0
-10456 10455 10440 0
-10456 -10455 -10440 0
10456 -10455 10440 0
10456 10455 -10440 0
-10457 10456 10441 0
-10457 -10456 -10441 0
10457 -10456 10441 0
10457 10456 -10441 0
-10457 0
-10458 10177 0
-10458 41 0
10458 -10177 -41 0
-10459 10179 0
-10459 41 0
10459 -10179 -41 0
-10460 10181 0
-10460 45 0
10460 -10181 -45 0
-10461 10183 0
-10461 37 0
10461 -10183 -37 0
-10462 10185 0
-10462 45 0
10462 -10185 -45 0
-10463 10187 0
-10463 37 0
10463 -10187 -37 0
-10464 10189 0
-10464 35 0
10464 -10189 -35 0
-10465 10191 0
-10465 35 0
10465 -10191 -35 0
-10466 10193 0
-10466 36 0
10466 -10193 -36 0
-10467 10195 0
-10467 34 0
10467 -10195 -34 0
-10468 10197 0
-10468 36 0
10468 -10197 -36 0
-10469 10199 0
-10469 34 0
10469 -10199 -34 0
-10470 10201 0
-10470 89 0
10470 -10201 -89 0
-10471 10203 0
-10471 93 0
10471 -10203 -93 0
-10472 10205 0
-10472 93 0
10472 -10205 -93 0
-10473 10207 0
-10473 137 0
10473 -10207 -137 0
-10474 10209 0
-10474 185 0
10474 -10209 -185 0
-10475 10458 10459 0
-10475 -10458 -10459 0
10475 -10458 10459 0
10475 10458 -10459 0
-10476 10475 10460 0
-10476 -10475 -10460 0
10476 -10475 10460 0
10476 10475 -10460 0
-10477 10476 10461 0
-10477 -10476 -10461 0
10477 -10476 10461 0
10477 10476 -10461 0
-10478 10477 10462 0
-10478 -10477 -10462 0
10478 -10477 10462 0
10478 10477 -10462 0
-10479 10478 10463 0
-10479 -10478 -10463 0
10479 -10478 10463 0
10479 10478 -10463 0
-10480 10479 10464 0
-10480 -10479 -10464 0
10480 -10479 10464 0
10480 10479 -10464 0
-10481 10480 10465 0
-10481 -10480 -10465 0
10481 -10480 10465 0
10481 10480 -10465 0
-10482 10481 10466 0
-10482 -10481 -10466 0
10482 -10481 10466 0
10482 10481 -10466 0
-10483 10482 10467 0
-10483 -10482 -10467 0
10483 -10482 10467 0
10483 10482 -10467 0
-10484 10483 10468 0
-10484 -10483 -10468 0
10484 -10483 10468 0
10484 10483 -10468 0
-10485 10484 10469 0
-10485 -10484 -10469 0
10485 -10484 10469 0
10485 10484 -10469 0
-10486 10485 10470 0
-10486 -10485 -10470 0
10486 -10485 10470 0
10486 10485 -10470 0
-10487 10486 10471 0
-10487 -10486 -10471 0
10487 -10486 10471 0
10487 10486 -10471 0
-10488 10487 10472 0
-10488 -10487 -10472 0
10488 -10487 10472 0
10488 10487 -10472 0
-10489 10488 10473 0
-10489 -10488 -10473 0
10489 -10488 10473 0
10489 10488 -10473 0
-10490 10489 10474 0
-10490 -10489 -10474 0
10490 -10489 10474 0
10490 10489 -10474 0
-10490 0
-10491 10177 0
-10491 42 0
10491 -10177 -42 0
-10492 10179 0
-10492 44 0
10492 -10179 -44 0
-10493 10181 0
-10493 46 0
10493 -10181 -46 0
-10494 10183 0
-10494 40 0
10494 -10183 -40 0
-10495 10185 0
-10495 47 0
10495 -10185 -47 0
-10496 10187 0
-10496 39 0
10496 -10187 -39 0
-10497 10189 0
-10497 39 0
10497 -10189 -39 0
-10498 10191 0
-10498 47 0
10498 -10191 -47 0
-10499 10193 0
-10499 40 0
10499 -10193 -40 0
-10500 10195 0
-10500 46 0
10500 -10195 -46 0
-10501 10197 0
-10501 44 0
10501 -10197 -44 0
-10502 10199 0
-10502 42 0
10502 -10199 -42 0
-10503 10201 0
-10503 90 0
10503 -10201 -90 0
-10504 10203 0
-10504 94 0
10504 -10203 -94 0
-10505 10205 0
-10505 95 0
10505 -10205 -95 0
-10506 10207 0
-10506 138 0
10506 -10207 -138 0
-10507 10209 0
-10507 186 0
10507 -10209 -186 0
-10508 10491 10492 0
-10508 -10491 -10492 0
10508 -10491 10492 0
10508 10491 -10492 0
-10509 10508 10493 0
-10509 -10508 -10493 0
10509 -10508 10493 0
10509 10508 -10493 0
-10510 10509 10494 0
-10510 -10509 -10494 0
10510 -10509 10494 0
10510 10509 -10494 0
-10511 10510 10495 0
-10511 -10510 -10495 0
10511 -10510 10495 0
10511 10510 -10495 0
-10512 10511 10496 0
-10512 -10511 -10496 0
10512 -10511 10496 0
10512 10511 -10496 0
-10513 10512 10497 0
-10513 -10512 -10497 0
10513 -10512 10497 0
10513 10512 -10497 0
-10514 10513 10498 0
-10514 -10513 -10498 0
10514 -10513 10498 0
10514 10513 -10498 0
-10515 10514 10499 0
-10515 -10514 -10499 0
10515 -10514 10499 0
10515 10514 -10499 0
-10516 10515 10500 0
-10516 -10515 -10500 0
10516 -10515 10500 0
10516 10515 -10500 0
-10517 10516 10501 0
-10517 -10516 -10501 0
10517 -10516 10501 0
10517 10516 -10501 0
-10518 10517 10502 0
-10518 -10517 -10502 0
10518 -10517 10502 0
10518 10517 -10502 0
-10519 10518 10503 0
-10519 -10518 -10503 0
10519 -10518 10503 0
10519 10518 -10503 0
-10520 10519 10504 0
-10520 -10519 -10504 0
10520 -10519 10504 0
10520 10519 -10504 0
-10521 10520 10505 0
-10521 -10520 -10505 0
10521 -10520 10505 0
10521 10520 -10505 0
-10522 10521 10506 0
-10522 -10521 -10506 0
10522 -10521 10506 0
10522 10521 -10506 0
-10523 10522 10507 0
-10523 -10522 -10507 0
10523 -10522 10507 0
10523 10522 -10507 0
10523 0
-10524 10177 0
-10524 43 0
10524 -10177 -43 0
-10525 10179 0
-10525 43 0
10525 -10179 -43 0
-10526 10181 0
-10526 48 0
10526 -10181 -48 0
-10527 10183 0
-10527 38 0
10527 -10183 -38 0
-10528 10185 0
-10528 48 0
10528 -10185 -48 0
-10529 10187 0
-10529 38 0
10529 -10187 -38 0
-10530 10189 0
-10530 43 0
10530 -10189 -43 0
-10531 10191 0
-10531 43 0
10531 -10191 -43 0
-10532 10193 0
-10532 48 0
10532 -10193 -48 0
-10533 10195 0
-10533 38 0
10533 -10195 -38 0
-10534 10197 0
-10534 48 0
10534 -10197 -48 0
-10535 10199 0
-10535 38 0
10535 -10199 -38 0
-10536 10201 0
-10536 91 0
10536 -10201 -91 0
-10537 10203 0
-10537 96 0
10537 -10203 -96 0
-10538 10205 0
-10538 96 0
10538 -10205 -96 0
-10539 10207 0
-10539 139 0
10539 -10207 -139 0
-10540 10209 0
-10540 187 0
10540 -10209 -187 0
-10541 10524 10525 0
-10541 -10524 -10525 0
10541 -10524 10525 0
10541 10524 -10525 0
-10542 10541 10526 0
-10542 -10541 -10526 0
10542 -10541 10526 0
10542 10541 -10526 0
-10543 10542 10527 0
-10543 -10542 -10527 0
10543 -10542 10527 0
10543 10542 -10527 0
-10544 10543 10528 0
-10544 -10543 -10528 0
10544 -10543 10528 0
10544 10543 -10528 0
-10545 10544 10529 0
-10545 -10544 -10529 0
10545 -10544 10529 0
10545 10544 -10529 0
-10546 10545 10530 0
-10546 -10545 -10530 0
10546 -10545 10530 0
10546 10545 -10530 0
-10547 10546 10531 0
-10547 -10546 -10531 0
10547 -10546 10531 0
10547 10546 -10531 0
-10548 10547 10532 0
-10548 -10547 -10532 0
10548 -10547 10532 0
10548 10547 -10532 0
-10549 10548 10533 0
-10549 -10548 -10533 0
10549 -10548 10533 0
10549 10548 -10533 0
-10550 10549 10534 0
-10550 -10549 -10534 0
10550 -10549 10534 0
10550 10549 -10534 0
-10551 10550 10535 0
-10551 -10550 -10535 0
10551 -10550 10535 0
10551 10550 -10535 0
-10552 10551 10536 0
-10552 -10551 -10536 0
10552 -10551 10536 0
10552 10551 -10536 0
-10553 10552 10537 0
-10553 -10552 -10537 0
10553 -10552 10537 0
10553 10552 -10537 0
-10554 10553 10538 0
-10554 -10553 -10538 0
10554 -10553 10538 0
10554 10553 -10538 0
-10555 10554 10539 0
-10555 -10554 -10539 0
10555 -10554 10539 0
10555 10554 -10539 0
-10556 10555 10540 0
-10556 -10555 -10540 0
10556 -10555 10540 0
10556 10555 -10540 0
10556 0
-10557 10177 0
-10557 44 0
10557 -10177 -44 0
-10558 10179 0
-10558 42 0
10558 -10179 -42 0
-10559 10181 0
-10559 47 0
10559 -10181 -47 0
-10560 10183 0
-10560 39 0
10560 -10183 -39 0
-10561 10185 0
-10561 46 0
10561 -10185 -46 0
-10562 10187 0
-10562 40 0
10562 -10187 -40 0
-10563 10189 0
-10563 47 0
10563 -10189 -47 0
-10564 10191 0
-10564 39 0
10564 -10191 -39 0
-10565 10193 0
-10565 44 0
10565 -10193 -44 0
-10566 10195 0
-10566 42 0
10566 -10195 -42 0
-10567 10197 0
-10567 40 0
10567 -10197 -40 0
-10568 10199 0
-10568 46 0
10568 -10199 -46 0
-10569 10201 0
-10569 92 0
10569 -10201 -92 0
-10570 10203 0
-10570 95 0
10570 -10203 -95 0
-10571 10205 0
-10571 94 0
10571 -10205 -94 0
-10572 10207 0
-10572 140 0
10572 -10207 -140 0
-10573 10209 0
-10573 188 0
10573 -10209 -188 0
-10574 10557 10558 0
-10574 -10557 -10558 0
10574 -10557 10558 0
10574 10557 -10558 0
-10575 10574 10559 0
-10575 -10574 -10559 0
10575 -10574 10559 0
10575 10574 -10559 0
-10576 10575 10560 0
-10576 -10575 -10560 0
10576 -10575 10560 0
10576 10575 -10560 0
-10577 10576 10561 0
-10577 -10576 -10561 0
10577 -10576 10561 0
10577 10576 -10561 0
-10578 10577 10562 0
-10578 -10577 -10562 0
10578 -10577 10562 0
10578 10577 -10562 0
-10579 10578 10563 0
-10579 -10578 -10563 0
10579 -10578 10563 0
10579 10578 -10563 0
-10580 10579 10564 0
-10580 -10579 -10564 0
10580 -10579 10564 0
10580 10579 -10564 0
-10581 10580 10565 0
-10581 -10580 -10565 0
10581 -10580 10565 0
10581 10580 -10565 0
-10582 10581 10566 0
-10582 -10581 -10566 0
10582 -10581 10566 0
10582 10581 -10566 0
-10583 10582 10567 0
-10583 -10582 -10567 0
10583 -10582 10567 0
10583 10582 -10567 0
-10584 10583 10568 0
-10584 -10583 -10568 0
10584 -10583 10568 0
10584 10583 -10568 0
-10585 10584 10569 0
-10585 -10584 -10569 0
10585 -10584 10569 0
10585 10584 -10569 0
-10586 10585 10570 0
-10586 -10585 -10570 0
10586 -10585 10570 0
10586 10585 -10570 0
-10587 10586 10571 0
-10587 -10586 -10571 0
10587 -10586 10571 0
10587 10586 -10571 0
-10588 10587 10572 0
-10588 -10587 -10572 0
10588 -10587 10572 0
10588 10587 -10572 0
-10589 10588 10573 0
-10589 -10588 -10573 0
10589 -10588 10573 0
10589 10588 -10573 0
-10589 0
-10590 10177 0
-10590 45 0
10590 -10177 -45 0
-10591 10179 0
-10591 37 0
10591 -10179 -37 0
-10592 10181 0
-10592 41 0
10592 -10181 -41 0
-10593 10183 0
-10593 41 0
10593 -10183 -41 0
-10594 10185 0
-10594 37 0
10594 -10185 -37 0
-10595 10187 0
-10595 45 0
10595 -10187 -45 0
-10596 10189 0
-10596 36 0
10596 -10189 -36 0
-10597 10191 0
-10597 34 0
10597 -10191 -34 0
-10598 10193 0
-10598 35 0
10598 -10193 -35 0
-10599 10195 0
-10599 35 0
10599 -10195 -35 0
-10600 10197 0
-10600 34 0
10600 -10197 -34 0
-10601 10199 0
-10601 36 0
10601 -10199 -36 0
-10602 10201 0
-10602 93 0
10602 -10201 -93 0
-10603 10203 0
-10603 89 0
10603 -10203 -89 0
-10604 10205 0
-10604 85 0
10604 -10205 -85 0
-10605 10207 0
-10605 141 0
10605 -10207 -141 0
-10606 10209 0
-10606 189 0
10606 -10209 -189 0
-10607 10590 10591 0
-10607 -10590 -10591 0
10607 -10590 10591 0
10607 10590 -10591 0
-10608 10607 10592 0
-10608 -10607 -10592 0
10608 -10607 10592 0
10608 10607 -10592 0
-10609 10608 10593 0
-10609 -10608 -10593 0
10609 -10608 10593 0
10609 10608 -10593 0
-10610 10609 10594 0
-10610 -10609 -10594 0
10610 -10609 10594 0
10610 10609 -10594 0
-10611 10610 10595 0
-10611 -10610 -10595 0
10611 -10610 10595 0
10611 10610 -10595 0
-10612 10611 10596 0
-10612 -10611 -10596 0
10612 -10611 10596 0
10612 10611 -10596 0
-10613 10612 10597 0
-10613 -10612 -10597 0
10613 -10612 10597 0
10613 10612 -10597 0
-10614 10613 10598 0
-10614 -10613 -10598 0
10614 -10613 10598 0
10614 10613 -10598 0
-10615 10614 10599 0
-10615 -10614 -10599 0
10615 -10614 10599 0
10615 10614 -10599 0
-10616 10615 10600 0
-10616 -10615 -10600 0
10616 -10615 10600 0
10616 10615 -10600 0
-10617 10616 10601 0
-10617 -10616 -10601 0
10617 -10616 10601 0
10617 10616 -10601 0
-10618 10617 10602 0
-10618 -10617 -10602 0
10618 -10617 10602 0
10618 10617 -10602 0
-10619 10618 10603 0
-10619 -10618 -10603 0
10619 -10618 10603 0
10619 10618 -10603 0
-10620 10619 10604 0
-10620 -10619 -10604 0
10620 -10619 10604 0
10620 10619 -10604 0
-10621 10620 10605 0
-10621 -10620 -10605 0
10621 -10620 10605 0
10621 10620 -10605 0
-10622 10621 10606 0
-10622 -10621 -10606 0
10622 -10621 10606 0
10622 10621 -10606 0
-10622 0
-10623 10177 0
-10623 46 0
10623 -10177 -46 0
-10624 10179 0
-10624 40 0
10624 -10179 -40 0
-10625 10181 0
-10625 42 0
10625 -10181 -42 0
-10626 10183 0
-10626 44 0
10626 -10183 -44 0
-10627 10185 0
-10627 39 0
10627 -10185 -39 0
-10628 10187 0
-10628 47 0
10628 -10187 -47 0
-10629 10189 0
-10629 40 0
10629 -10189 -40 0
-10630 10191 0
-10630 46 0
10630 -10191 -46 0
-10631 10193 0
-10631 39 0
10631 -10193 -39 0
-10632 10195 0
-10632 47 0
10632 -10195 -47 0
-10633 10197 0
-10633 42 0
10633 -10197 -42 0
-10634 10199 0
-10634 44 0
10634 -10199 -44 0
-10635 10201 0
-10635 94 0
10635 -10201 -94 0
-10636 10203 0
-10636 90 0
10636 -10203 -90 0
-10637 10205 0
-10637 87 0
10637 -10205 -87 0
-10638 10207 0
-10638 142 0
10638 -10207 -142 0
-10639 10209 0
-10639 190 0
10639 -10209 -190 0
-10640 10623 10624 0
-10640 -10623 -10624 0
10640 -10623 10624 0
10640 10623 -10624 0
-10641 10640 10625 0
-10641 -10640 -10625 0
10641 -10640 10625 0
10641 10640 -10625 0
-10642 10641 10626 0
-10642 -10641 -10626 0
10642 -10641 10626 0
10642 10641 -10626 0
-10643 10642 10627 0
-10643 -10642 -10627 0
10643 -10642 10627 0
10643 10642 -10627 0
-10644 10643 10628 0
-10644 -10643 -10628 0
10644 -10643 10628 0
10644 10643 -10628 0
-10645 10644 10629 0
-10645 -10644 -10629 0
10645 -10644 10629 0
10645 10644 -10629 0
-10646 10645 10630 0
-10646 -10645 -10630 0
10646 -10645 10630 0
10646 10645 -10630 0
-10647 10646 10631 0
-10647 -10646 -10631 0
10647 -10646 10631 0
10647 10646 -10631 0
-10648 10647 10632 0
-10648 -10647 -10632 0
10648 -10647 10632 0
10648 10647 -10632 0
-10649 10648 10633 0
-10649 -10648 -10633 0
10649 -10648 10633 0
10649 10648 -10633 0
-10650 10649 10634 0
-10650 -10649 -10634 0
10650 -10649 10634 0
10650 10649 -10634 0
-10651 10650 10635 0
-10651 -10650 -10635 0
10651 -10650 10635 0
10651 10650 -10635 0
-10652 10651 10636 0
-10652 -10651 -10636 0
10652 -10651 10636 0
10652 10651 -10636 0
-10653 10652 10637 0
-10653 -10652 -10637 0
10653 -10652 10637 0
10653 10652 -10637 0
-10654 10653 10638 0
-10654 -10653 -10638 0
10654 -10653 10638 0
10654 10653 -10638 0
-10655 10654 10639 0
-10655 -10654 -10639 0
10655 -10654 10639 0
10655 10654 -10639 0
-10655 0
-10656 10177 0
-10656 47 0
10656 -10177 -47 0
-10657 10179 0
-10657 39 0
10657 -10179 -39 0
-10658 10181 0
-10658 44 0
10658 -10181 -44 0
-10659 10183 0
-10659 42 0
10659 -10183 -42 0
-10660 10185 0
-10660 40 0
10660 -10185 -40 0
-10661 10187 0
-10661 46 0
10661 -10187 -46 0
-10662 10189 0
-10662 44 0
10662 -10189 -44 0
-10663 10191 0
-10663 42 0
10663 -10191 -42 0
-10664 10193 0
-10664 47 0
10664 -10193 -47 0
-10665 10195 0
-10665 39 0
10665 -10195 -39 0
-10666 10197 0
-10666 46 0
10666 -10197 -46 0
-10667 10199 0
-10667 40 0
10667 -10199 -40 0
-10668 10201 0
-10668 95 0
10668 -10201 -95 0
-10669 10203 0
-10669 92 0
10669 -10203 -92 0
-10670 10205 0
-10670 88 0
10670 -10205 -88 0
-10671 10207 0
-10671 143 0
10671 -10207 -143 0
-10672 10209 0
-10672 191 0
10672 -10209 -191 0
-10673 10656 10657 0
-10673 -10656 -10657 0
10673 -10656 10657 0
10673 10656 -10657 0
-10674 10673 10658 0
-10674 -10673 -10658 0
10674 -10673 10658 0
10674 10673 -10658 0
-10675 10674 10659 0
-10675 -10674 -10659 0
10675 -10674 10659 0
10675 10674 -10659 0
-10676 10675 10660 0
-10676 -10675 -10660 0
10676 -10675 10660 0
10676 10675 -10660 0
-10677 10676 10661 0
-10677 -10676 -10661 0
10677 -10676 10661 0
10677 10676 -10661 0
-10678 10677 10662 0
-10678 -10677 -10662 0
10678 -10677 10662 0
10678 10677 -10662 0
-10679 10678 10663 0
-10679 -10678 -10663 0
10679 -10678 10663 0
10679 10678 -10663 0
-10680 10679 10664 0
-10680 -10679 -10664 0
10680 -10679 10664 0
10680 10679 -10664 0
-10681 10680 10665 0
-10681 -10680 -10665 0
10681 -10680 10665 0
10681 10680 -10665 0
-10682 10681 10666 0
-10682 -10681 -10666 0
10682 -10681 10666 0
10682 10681 -10666 0
-10683 10682 10667 0
-10683 -10682 -10667 0
10683 -10682 10667 0
10683 10682 -10667 0
-10684 10683 10668 0
-10684 -10683 -10668 0
10684 -10683 10668 0
10684 10683 -10668 0
-10685 10684 10669 0
-10685 -10684 -10669 0
10685 -10684 10669 0
10685 10684 -10669 0
-10686 10685 10670 0
-10686 -10685 -10670 0
10686 -10685 10670 0
10686 10685 -10670 0
-10687 10686 10671 0
-10687 -10686 -10671 0
10687 -10686 10671 0
10687 10686 -10671 0
-10688 10687 10672 0
-10688 -10687 -10672 0
10688 -10687 10672 0
10688 10687 -10672 0
-10688 0
-10689 10177 0
-10689 48 0
10689 -10177 -48 0
-10690 10179 0
-10690 38 0
10690 -10179 -38 0
-10691 10181 0
-10691 43 0
10691 -10181 -43 0
-10692 10183 0
-10692 43 0
10692 -10183 -43 0
-10693 10185 0
-10693 38 0
10693 -10185 -38 0
-10694 10187 0
-10694 48 0
10694 -10187 -48 0
-10695 10189 0
-10695 48 0
10695 -10189 -48 0
-10696 10191 0
-10696 38 0
10696 -10191 -38 0
-10697 10193 0
-10697 43 0
10697 -10193 -43 0
-10698 10195 0
-10698 43 0
10698 -10195 -43 0
-10699 10197 0
-10699 38 0
10699 -10197 -38 0
-10700 10199 0
-10700 48 0
10700 -10199 -48 0
-10701 10201 0
-10701 96 0
10701 -10201 -96 0
-10702 10203 0
-10702 91 0
10702 -10203 -91 0
-10703 10205 0
-10703 86 0
10703 -10205 -86 0
-10704 10207 0
-10704 144 0
10704 -10207 -144 0
-10705 10209 0
-10705 192 0
10705 -10209 -192 0
-10706 10689 10690 0
-10706 -10689 -10690 0
10706 -10689 10690 0
10706 10689 -10690 0
-10707 10706 10691 0
-10707 -10706 -10691 0
10707 -10706 10691 0
10707 10706 -10691 0
-10708 10707 10692 0
-10708 -10707 -10692 0
10708 -10707 10692 0
10708 10707 -10692 0
-10709 10708 10693 0
-10709 -10708 -10693 0
10709 -10708 10693 0
10709 10708 -10693 0
-10710 10709 10694 0
-10710 -10709 -10694 0
10710 -10709 10694 0
10710 10709 -10694 0
-10711 10710 10695 0
-10711 -10710 -10695 0
10711 -10710 10695 0
10711 10710 -10695 0
-10712 10711 10696 0
-10712 -10711 -10696 0
10712 -10711 10696 0
10712 10711 -10696 0
-10713 10712 10697 0
-10713 -10712 -10697 0
10713 -10712 10697 0
10713 10712 -10697 0
-10714 10713 10698 0
-10714 -10713 -10698 0
10714 -10713 10698 0
10714 10713 -10698 0
-10715 10714 10699 0
-10715 -10714 -10699 0
10715 -10714 10699 0
10715 10714 -10699 0
-10716 10715 10700 0
-10716 -10715 -10700 0
10716 -10715 10700 0
10716 10715 -10700 0
-10717 10716 10701 0
-10717 -10716 -10701 0
10717 -10716 10701 0
10717 10716 -10701 0
-10718 10717 10702 0
-10718 -10717 -10702 0
10718 -10717 10702 0
10718 10717 -10702 0
-10719 10718 10703 0
-10719 -10718 -10703 0
10719 -10718 10703 0
10719 10718 -10703 0
-10720 10719 10704 0
-10720 -10719 -10704 0
10720 -10719 10704 0
10720 10719 -10704 0
-10721 10720 10705 0
-10721 -10720 -10705 0
10721 -10720 10705 0
10721 10720 -10705 0
-10721 0
-10722 7 0
-10722 19 0
10722 -7 -19 0
-10723 10722 0
-10723 33 0
10723 -10722 -33 0
-10724 14 0
-10724 19 0
10724 -14 -19 0
-10725 10724 0
-10725 33 0
10725 -10724 -33 0
-10726 7 0
-10726 24 0
10726 -7 -24 0
-10727 10726 0
-10727 33 0
10727 -10726 -33 0
-10728 14 0
-10728 26 0
10728 -14 -26 0
-10729 10728 0
-10729 33 0
10729 -10728 -33 0
-10730 9 0
-10730 24 0
10730 -9 -24 0
-10731 10730 0
-10731 33 0
10731 -10730 -33 0
-10732 9 0
-10732 26 0
10732 -9 -26 0
-10733 10732 0
-10733 33 0
10733 -10732 -33 0
-10734 55 0
-10734 67 0
10734 -55 -67 0
-10735 10734 0
-10735 81 0
10735 -10734 -81 0
-10736 55 0
-10736 72 0
10736 -55 -72 0
-10737 10736 0
-10737 81 0
10737 -10736 -81 0
-10738 57 0
-10738 72 0
10738 -57 -72 0
-10739 10738 0
-10739 81 0
10739 -10738 -81 0
-10740 103 0
-10740 115 0
10740 -103 -115 0
-10741 10740 0
-10741 129 0
10741 -10740 -129 0
-10742 151 0
-10742 163 0
10742 -151 -163 0
-10743 10742 0
-10743 177 0
10743 -10742 -177 0
-10744 10723 10725 0
-10744 -10723 -10725 0
10744 -10723 10725 0
10744 10723 -10725 0
-10745 10744 10727 0
-10745 -10744 -10727 0
10745 -10744 10727 0
10745 10744 -10727 0
-10746 10745 10729 0
-10746 -10745 -10729 0
10746 -10745 10729 0
10746 10745 -10729 0
-10747 10746 10731 0
-10747 -10746 -10731 0
10747 -10746 10731 0
10747 10746 -10731 0
-10748 10747 10733 0
-10748 -10747 -10733 0
10748 -10747 10733 0
10748 10747 -10733 0
-10749 10748 10733 0
-10749 -10748 -10733 0
10749 -10748 10733 0
10749 10748 -10733 0
-10750 10749 10731 0
-10750 -10749 -10731 0
10750 -10749 10731 0
10750 10749 -10731 0
-10751 10750 10729 0
-10751 -10750 -10729 0
10751 -10750 10729 0
10751 10750 -10729 0
-10752 10751 10727 0
-10752 -10751 -10727 0
10752 -10751 10727 0
10752 10751 -10727 0
-10753 10752 10725 0
-10753 -10752 -10725 0
10753 -10752 10725 0
10753 10752 -10725 0
-10754 10753 10723 0
-10754 -10753 -10723 0
10754 -10753 10723 0
10754 10753 -10723 0
-10755 10754 10735 0
-10755 -10754 -10735 0
10755 -10754 10735 0
10755 10754 -10735 0
-10756 10755 10737 0
-10756 -10755 -10737 0
10756 -10755 10737 0
10756 10755 -10737 0
-10757 10756 10739 0
-10757 -10756 -10739 0
10757 -10756 10739 0
10757 10756 -10739 0
-10758 10757 10741 0
-10758 -10757 -10741 0
10758 -10757 10741 0
10758 10757 -10741 0
-10759 10758 10743 0
-10759 -10758 -10743 0
10759 -10758 10743 0
10759 10758 -10743 0
-10759 0
-10760 10722 0
-10760 34 0
10760 -10722 -34 0
-10761 10724 0
-10761 36 0
10761 -10724 -36 0
-10762 10726 0
-10762 34 0
10762 -10726 -34 0
-10763 10728 0
-10763 36 0
10763 -10728 -36 0
-10764 10730 0
-10764 35 0
10764 -10730 -35 0
-10765 10732 0
-10765 35 0
10765 -10732 -35 0
-10766 10732 0
-10766 37 0
10766 -10732 -37 0
-10767 10730 0
-10767 45 0
10767 -10730 -45 0
-10768 10728 0
-10768 37 0
10768 -10728 -37 0
-10769 10726 0
-10769 45 0
10769 -10726 -45 0
-10770 10724 0
-10770 41 0
10770 -10724 -41 0
-10771 10722 0
-10771 41 0
10771 -10722 -41 0
-10772 10734 0
-10772 82 0
10772 -10734 -82 0
-10773 10736 0
-10773 82 0
10773 -10736 -82 0
-10774 10738 0
-10774 83 0
10774 -10738 -83 0
-10775 10740 0
-10775 130 0
10775 -10740 -130 0
-10776 10742 0
-10776 178 0
10776 -10742 -178 0
-10777 10760 10761 0
-10777 -10760 -10761 0
10777 -10760 10761 0
10777 10760 -10761 0
-10778 10777 10762 0
-10778 -10777 -10762 0
10778 -10777 10762 0
10778 10777 -10762 0
-10779 10778 10763 0
-10779 -10778 -10763 0
10779 -10778 10763 0
10779 10778 -10763 0
-10780 10779 10764 0
-10780 -10779 -10764 0
10780 -10779 10764 0
10780 10779 -10764 0
-10781 10780 10765 0
-10781 -10780 -10765 0
10781 -10780 10765 0
10781 10780 -10765 0
-10782 10781 10766 0
-10782 -10781 -10766 0
10782 -10781 10766 0
10782 10781 -10766 0
-10783 10782 10767 0
-10783 -10782 -10767 0
10783 -10782 10767 0
10783 10782 -10767 0
-10784 10783 10768 0
-10784 -10783 -10768 0
10784 -10783 10768 0
10784 10783 -10768 0
-10785 10784 10769 0
-10785 -10784 -10769 0
10785 -10784 10769 0
10785 10784 -10769 0
-10786 10785 10770 0
-10786 -10785 -10770 0
10786 -10785 10770 0
10786 10785 -10770 0
-10787 10786 10771 0
-10787 -10786 -10771 0
10787 -10786 10771 0
10787 10786 -10771 0
-10788 10787 10772 0
-10788 -10787 -10772 0
10788 -10787 10772 0
10788 10787 -10772 0
-10789 10788 10773 0
-10789 -10788 -10773 0
10789 -10788 10773 0
10789 10788 -10773 0
-10790 10789 10774 0
-10790 -10789 -10774 0
10790 -10789 10774 0
10790 10789 -10774 0
-10791 10790 10775 0
-10791 -10790 -10775 0
10791 -10790 10775 0
10791 10790 -10775 0
-10792 10791 10776 0
-10792 -10791 -10776 0
10792 -10791 10776 0
10792 10791 -10776 0
10792 0
-10793 10722 0
-10793 35 0
10793 -10722 -35 0
-10794 10724 0
-10794 35 0
10794 -10724 -35 0
-10795 10726 0
-10795 36 0
10795 -10726 -36 0
-10796 10728 0
-10796 34 0
10796 -10728 -34 0
-10797 10730 0
-10797 36 0
10797 -10730 -36 0
-10798 10732 0
-10798 34 0
10798 -10732 -34 0
-10799 10732 0
-10799 41 0
10799 -10732 -41 0
-10800 10730 0
-10800 41 0
10800 -10730 -41 0
-10801 10728 0
-10801 45 0
10801 -10728 -45 0
-10802 10726 0
-10802 37 0
10802 -10726 -37 0
-10803 10724 0
-10803 45 0
10803 -10724 -45 0
-10804 10722 0
-10804 37 0
10804 -10722 -37 0
-10805 10734 0
-10805 83 0
10805 -10734 -83 0
-10806 10736 0
-10806 84 0
10806 -10736 -84 0
-10807 10738 0
-10807 84 0
10807 -10738 -84 0
-10808 10740 0
-10808 131 0
10808 -10740 -131 0
-10809 10742 0
-10809 179 0
10809 -10742 -179 0
-10810 10793 10794 0
-10810 -10793 -10794 0
10810 -10793 10794 0
10810 10793 -10794 0
-10811 10810 10795 0
-10811 -10810 -10795 0
10811 -10810 10795 0
10811 10810 -10795 0
-10812 10811 10796 0
-10812 -10811 -10796 0
10812 -10811 10796 0
10812 10811 -10796 0
-10813 10812 10797 0
-10813 -10812 -10797 0
10813 -10812 10797 0
10813 10812 -10797 0
-10814 10813 10798 0
-10814 -10813 -10798 0
10814 -10813 10798 0
10814 10813 -10798 0
-10815 10814 10799 0
-10815 -10814 -10799 0
10815 -10814 10799 0
10815 10814 -10799 0
-10816 10815 10800 0
-10816 -10815 -10800 0
10816 -10815 10800 0
10816 10815 -10800 0
-10817 10816 10801 0
-10817 -10816 -10801 0
10817 -10816 10801 0
10817 10816 -10801 0
-10818 10817 10802 0
-10818 -10817 -10802 0
10818 -10817 10802 0
10818 10817 -10802 0
-10819 10818 10803 0
-10819 -10818 -10803 0
10819 -10818 10803 0
10819 10818 -10803 0
-10820 10819 10804 0
-10820 -10819 -10804 0
10820 -10819 10804 0
10820 10819 -10804 0
-10821 10820 10805 0
-10821 -10820 -10805 0
10821 -10820 10805 0
10821 10820 -10805 0
-10822 10821 10806 0
-10822 -10821 -10806 0
10822 -10821 10806 0
10822 10821 -10806 0
-10823 10822 10807 0
-10823 -10822 -10807 0
10823 -10822 10807 0
10823 10822 -10807 0
-10824 10823 10808 0
-10824 -10823 -10808 0
10824 -10823 10808 0
10824 10823 -10808 0
-10825 10824 10809 0
-10825 -10824 -10809 0
10825 -10824 10809 0
10825 10824 -10809 0
-10825 0
-10826 10722 0
-10826 36 0
10826 -10722 -36 0
-10827 10724 0
-10827 34 0
10827 -10724 -34 0
-10828 10726 0
-10828 35 0
10828 -10726 -35 0
-10829 10728 0
-10829 35 0
10829 -10728 -35 0
-10830 10730 0
-10830 34 0
10830 -10730 -34 0
-10831 10732 0
-10831 36 0
10831 -10732 -36 0
-10832 10732 0
-10832 45 0
10832 -10732 -45 0
-10833 10730 0
-10833 37 0
10833 -10730 -37 0
-10834 10728 0
-10834 41 0
10834 -10728 -41 0
-10835 10726 0
-10835 41 0
10835 -10726 -41 0
-10836 10724 0
-10836 37 0
10836 -10724 -37 0
-10837 10722 0
-10837 45 0
10837 -10722 -45 0
-10838 10734 0
-10838 84 0
10838 -10734 -84 0
-10839 10736 0
-10839 83 0
10839 -10736 -83 0
-10840 10738 0
-10840 82 0
10840 -10738 -82 0
-10841 10740 0
-10841 132 0
10841 -10740 -132 0
-10842 10742 0
-10842 180 0
10842 -10742 -180 0
-10843 10826 10827 0
-10843 -10826 -10827 0
10843 -10826 10827 0
10843 10826 -10827 0
-10844 10843 10828 0
-10844 -10843 -10828 0
10844 -10843 10828 0
10844 10843 -10828 0
-10845 10844 10829 0
-10845 -10844 -10829 0
10845 -10844 10829 0
10845 10844 -10829 0
-10846 10845 10830 0
-10846 -10845 -10830 0
10846 -10845 10830 0
10846 10845 -10830 0
-10847 10846 10831 0
-10847 -10846 -10831 0
10847 -10846 10831 0
10847 10846 -10831 0
-10848 10847 10832 0
-10848 -10847 -10832 0
10848 -10847 10832 0
10848 10847 -10832 0
-10849 10848 10833 0
-10849 -10848 -10833 0
10849 -10848 10833 0
10849 10848 -10833 0
-10850 10849 10834 0
-10850 -10849 -10834 0
10850 -10849 10834 0
10850 10849 -10834 0
-10851 10850 10835 0
-10851 -10850 -10835 0
10851 -10850 10835 0
10851 10850 -10835 0
-10852 10851 10836 0
-10852 -10851 -10836 0
10852 -10851 10836 0
10852 10851 -10836 0
-10853 10852 10837 0
-10853 -10852 -10837 0
10853 -10852 10837 0
10853 10852 -10837 0
-10854 10853 10838 0
-10854 -10853 -10838 0
10854 -10853 10838 0
10854 10853 -10838 0
-10855 10854 10839 0
-10855 -10854 -10839 0
10855 -10854 10839 0
10855 10854 -10839 0
-10856 10855 10840 0
-10856 -10855 -10840 0
10856 -10855 10840 0
10856 10855 -10840 0
-10857 10856 10841 0
-10857 -10856 -10841 0
10857 -10856 10841 0
10857 10856 -10841 0
-10858 10857 10842 0
-10858 -10857 -10842 0
10858 -10857 10842 0
10858 10857 -10842 0
-10858 0
-10859 10722 0
-10859 38 0
10859 -10722 -38 0
-10860 10724 0
-10860 48 0
10860 -10724 -48 0
-10861 10726 0
-10861 38 0
10861 -10726 -38 0
-10862 10728 0
-10862 48 0
10862 -10728 -48 0
-10863 10730 0
-10863 43 0
10863 -10730 -43 0
-10864 10732 0
-10864 43 0
10864 -10732 -43 0
-10865 10732 0
-10865 38 0
10865 -10732 -38 0
-10866 10730 0
-10866 48 0
10866 -10730 -48 0
-10867 10728 0
-10867 38 0
10867 -10728 -38 0
-10868 10726 0
-10868 48 0
10868 -10726 -48 0
-10869 10724 0
-10869 43 0
10869 -10724 -43 0
-10870 10722 0
-10870 43 0
10870 -10722 -43 0
-10871 10734 0
-10871 86 0
10871 -10734 -86 0
-10872 10736 0
-10872 86 0
10872 -10736 -86 0
-10873 10738 0
-10873 91 0
10873 -10738 -91 0
-10874 10740 0
-10874 134 0
10874 -10740 -134 0
-10875 10742 0
-10875 182 0
10875 -10742 -182 0
-10876 10859 10860 0
-10876 -10859 -10860 0
10876 -10859 10860 0
10876 10859 -10860 0
-10877 10876 10861 0
-10877 -10876 -10861 0
10877 -10876 10861 0
10877 10876 -10861 0
-10878 10877 10862 0
-10878 -10877 -10862 0
10878 -10877 10862 0
10878 10877 -10862 0
-10879 10878 10863 0
-10879 -10878 -10863 0
10879 -10878 10863 0
10879 10878 -10863 0
-10880 10879 10864 0
-10880 -10879 -10864 0
10880 -10879 10864 0
10880 10879 -10864 0
-10881 10880 10865 0
-10881 -10880 -10865 0
10881 -10880 10865 0
10881 10880 -10865 0
-10882 10881 10866 0
-10882 -10881 -10866 0
10882 -10881 10866 0
10882 10881 -10866 0
-10883 10882 10867 0
-10883 -10882 -10867 0
10883 -10882 10867 0
10883 10882 -10867 0
-10884 10883 10868 0
-10884 -10883 -10868 0
10884 -10883 10868 0
10884 10883 -10868 0
-10885 10884 10869 0
-10885 -10884 -10869 0
10885 -10884 10869 0
10885 10884 -10869 0
-10886 10885 10870 0
-10886 -10885 -10870 0
10886 -10885 10870 0
10886 10885 -10870 0
-10887 10886 10871 0
-10887 -10886 -10871 0
10887 -10886 10871 0
10887 10886 -10871 0
-10888 10887 10872 0
-10888 -10887 -10872 0
10888 -10887 10872 0
10888 10887 -10872 0
-10889 10888 10873 0
-10889 -10888 -10873 0
10889 -10888 10873 0
10889 10888 -10873 0
-10890 10889 10874 0
-10890 -10889 -10874 0
10890 -10889 10874 0
10890 10889 -10874 0
-10891 10890 10875 0
-10891 -10890 -10875 0
10891 -10890 10875 0
10891 10890 -10875 0
-10891 0
-10892 10722 0
-10892 39 0
10892 -10722 -39 0
-10893 10724 0
-10893 47 0
10893 -10724 -47 0
-10894 10726 0
-10894 40 0
10894 -10726 -40 0
-10895 10728 0
-10895 46 0
10895 -10728 -46 0
-10896 10730 0
-10896 44 0
10896 -10730 -44 0
-10897 10732 0
-10897 42 0
10897 -10732 -42 0
-10898 10734 0
-10898 87 0
10898 -10734 -87 0
-10899 10736 0
-10899 88 0
10899 -10736 -88 0
-10900 10738 0
-10900 92 0
10900 -10738 -92 0
-10901 10740 0
-10901 135 0
10901 -10740 -135 0
-10902 10742 0
-10902 183 0
10902 -10742 -183 0
-10903 10892 10893 0
-10903 -10892 -10893 0
10903 -10892 10893 0
10903 10892 -10893 0
-10904 10903 10894 0
-10904 -10903 -10894 0
10904 -10903 10894 0
10904 10903 -10894 0
-10905 10904 10895 0
-10905 -10904 -10895 0
10905 -10904 10895 0
10905 10904 -10895 0
-10906 10905 10896 0
-10906 -10905 -10896 0
10906 -10905 10896 0
10906 10905 -10896 0
-10907 10906 10897 0
-10907 -10906 -10897 0
10907 -10906 10897 0
10907 10906 -10897 0
-10908 10907 10897 0
-10908 -10907 -10897 0
10908 -10907 10897 0
10908 10907 -10897 0
-10909 10908 10896 0
-10909 -10908 -10896 0
10909 -10908 10896 0
10909 10908 -10896 0
-10910 10909 10895 0
-10910 -10909 -10895 0
10910 -10909 10895 0
10910 10909 -10895 0
-10911 10910 10894 0
-10911 -10910 -10894 0
10911 -10910 10894 0
10911 10910 -10894 0
-10912 10911 10893 0
-10912 -10911 -10893 0
10912 -10911 10893 0
10912 10911 -10893 0
-10913 10912 10892 0
-10913 -10912 -10892 0
10913 -10912 10892 0
10913 10912 -10892 0
-10914 10913 10898 0
-10914 -10913 -10898 0
10914 -10913 10898 0
10914 10913 -10898 0
-10915 10914 10899 0
-10915 -10914 -10899 0
10915 -10914 10899 0
10915 10914 -10899 0
-10916 10915 10900 0
-10916 -10915 -10900 0
10916 -10915 10900 0
10916 10915 -10900 0
-10917 10916 10901 0
-10917 -10916 -10901 0
10917 -10916 10901 0
10917 10916 -10901 0
-10918 10917 10902 0
-10918 -10917 -10902 0
10918 -10917 10902 0
10918 10917 -10902 0
-10918 0
-10919 10722 0
-10919 40 0
10919 -10722 -40 0
-10920 10724 0
-10920 46 0
10920 -10724 -46 0
-10921 10726 0
-10921 39 0
10921 -10726 -39 0
-10922 10728 0
-10922 47 0
10922 -10728 -47 0
-10923 10730 0
-10923 42 0
10923 -10730 -42 0
-10924 10732 0
-10924 44 0
10924 -10732 -44 0
-10925 10732 0
-10925 46 0
10925 -10732 -46 0
-10926 10730 0
-10926 40 0
10926 -10730 -40 0
-10927 10728 0
-10927 42 0
10927 -10728 -42 0
-10928 10726 0
-10928 44 0
10928 -10726 -44 0
-10929 10724 0
-10929 39 0
10929 -10724 -39 0
-10930 10722 0
-10930 47 0
10930 -10722 -47 0
-10931 10734 0
-10931 88 0
10931 -10734 -88 0
-10932 10736 0
-10932 87 0
10932 -10736 -87 0
-10933 10738 0
-10933 90 0
10933 -10738 -90 0
-10934 10740 0
-10934 136 0
10934 -10740 -136 0
-10935 10742 0
-10935 184 0
10935 -10742 -184 0
-10936 10919 10920 0
-10936 -10919 -10920 0
10936 -10919 10920 0
10936 10919 -10920 0
-10937 10936 10921 0
-10937 -10936 -10921 0
10937 -10936 10921 0
10937 10936 -10921 0
-10938 10937 10922 0
-10938 -10937 -10922 0
10938 -10937 10922 0
10938 10937 -10922 0
-10939 10938 10923 0
-10939 -10938 -10923 0
10939 -10938 10923 0
10939 10938 -10923 0
-10940 10939 10924 0
-10940 -10939 -10924 0
10940 -10939 10924 0
10940 10939 -10924 0
-10941 10940 10925 0
-10941 -10940 -10925 0
10941 -10940 10925 0
10941 10940 -10925 0
-10942 10941 10926 0
-10942 -10941 -10926 0
10942 -10941 10926 0
10942 10941 -10926 0
-10943 10942 10927 0
-10943 -10942 -10927 0
10943 -10942 10927 0
10943 10942 -10927 0
-10944 10943 10928 0
-10944 -10943 -10928 0
10944 -10943 10928 0
10944 10943 -10928 0
-10945 10944 10929 0
-10945 -10944 -10929 0
10945 -10944 10929 0
10945 10944 -10929 0
-10946 10945 10930 0
-10946 -10945 -10930 0
10946 -10945 10930 0
10946 10945 -10930 0
-10947 10946 10931 0
-10947 -10946 -10931 0
10947 -10946 10931 0
10947 10946 -10931 0
-10948 10947 10932 0
-10948 -10947 -10932 0
10948 -10947 10932 0
10948 10947 -10932 0
-10949 10948 10933 0
-10949 -10948 -10933 0
10949 -10948 10933 0
10949 10948 -10933 0
-10950 10949 10934 0
-10950 -10949 -10934 0
10950 -10949 10934 0
10950 10949 -10934 0
-10951 10950 10935 0
-10951 -10950 -10935 0
10951 -10950 10935 0
10951 10950 -10935 0
-10951 0
-10952 10722 0
-10952 42 0
10952 -10722 -42 0
-10953 10724 0
-10953 44 0
10953 -10724 -44 0
-10954 10726 0
-10954 46 0
10954 -10726 -46 0
-10955 10728 0
-10955 40 0
10955 -10728 -40 0
-10956 10730 0
-10956 47 0
10956 -10730 -47 0
-10957 10732 0
-10957 39 0
10957 -10732 -39 0
-10958 10734 0
-10958 90 0
10958 -10734 -90 0
-10959 10736 0
-10959 94 0
10959 -10736 -94 0
-10960 10738 0
-10960 95 0
10960 -10738 -95 0
-10961 10740 0
-10961 138 0
10961 -10740 -138 0
-10962 10742 0
-10962 186 0
10962 -10742 -186 0
-10963 10952 10953 0
-10963 -10952 -10953 0
10963 -10952 10953 0
10963 10952 -10953 0
-10964 10963 10954 0
-10964 -10963 -10954 0
10964 -10963 10954 0
10964 10963 -10954 0
-10965 10964 10955 0
-10965 -10964 -10955 0
10965 -10964 10955 0
10965 10964 -10955 0
-10966 10965 10956 0
-10966 -10965 -10956 0
10966 -10965 10956 0
10966 10965 -10956 0
-10967 10966 10957 0
-10967 -10966 -10957 0
10967 -10966 10957 0
10967 10966 -10957 0
-10968 10967 10957 0
-10968 -10967 -10957 0
10968 -10967 10957 0
10968 10967 -10957 0
-10969 10968 10956 0
-10969 -10968 -10956 0
10969 -10968 10956 0
10969 10968 -10956 0
-10970 10969 10955 0
-10970 -10969 -10955 0
10970 -10969 10955 0
10970 10969 -10955 0
-10971 10970 10954 0
-10971 -10970 -10954 0
10971 -10970 10954 0
10971 10970 -10954 0
-10972 10971 10953 0
-10972 -10971 -10953 0
10972 -10971 10953 0
10972 10971 -10953 0
-10973 10972 10952 0
-10973 -10972 -10952 0
10973 -10972 10952 0
10973 10972 -10952 0
-10974 10973 10958 0
-10974 -10973 -10958 0
10974 -10973 10958 0
10974 10973 -10958 0
-10975 10974 10959 0
-10975 -10974 -10959 0
10975 -10974 10959 0
10975 10974 -10959 0
-10976 10975 10960 0
-10976 -10975 -10960 0
10976 -10975 10960 0
10976 10975 -10960 0
-10977 10976 10961 0
-10977 -10976 -10961 0
10977 -10976 10961 0
10977 10976 -10961 0
-10978 10977 10962 0
-10978 -10977 -10962 0
10978 -10977 10962 0
10978 10977 -10962 0
-10978 0
-10979 10722 0
-10979 44 0
10979 -10722 -44 0
-10980 10724 0
-10980 42 0
10980 -10724 -42 0
-10981 10726 0
-10981 47 0
10981 -10726 -47 0
-10982 10728 0
-10982 39 0
10982 -10728 -39 0
-10983 10730 0
-10983 46 0
10983 -10730 -46 0
-10984 10732 0
-10984 40 0
10984 -10732 -40 0
-10985 10732 0
-10985 47 0
10985 -10732 -47 0
-10986 10730 0
-10986 39 0
10986 -10730 -39 0
-10987 10728 0
-10987 44 0
10987 -10728 -44 0
-10988 10726 0
-10988 42 0
10988 -10726 -42 0
-10989 10724 0
-10989 40 0
10989 -10724 -40 0
-10990 10722 0
-10990 46 0
10990 -10722 -46 0
-10991 10734 0
-10991 92 0
10991 -10734 -92 0
-10992 10736 0
-10992 95 0
10992 -10736 -95 0
-10993 10738 0
-10993 94 0
10993 -10738 -94 0
-10994 10740 0
-10994 140 0
10994 -10740 -140 0
-10995 10742 0
-10995 188 0
10995 -10742 -188 0
-10996 10979 10980 0
-10996 -10979 -10980 0
10996 -10979 10980 0
10996 10979 -10980 0
-10997 10996 10981 0
-10997 -10996 -10981 0
10997 -10996 10981 0
10997 10996 -10981 0
-10998 10997 10982 0
-10998 -10997 -10982 0
10998 -10997 10982 0
10998 10997 -10982 0
-10999 10998 10983 0
-10999 -10998 -10983 0
10999 -10998 10983 0
10999 10998 -10983 0
-11000 10999 10984 0
-11000 -10999 -10984 0
11000 -10999 10984 0
11000 10999 -10984 0
-11001 11000 10985 0
-11001 -11000 -10985 0
11001 -11000 10985 0
11001 11000 -10985 0
-11002 11001 10986 0
-11002 -11001 -10986 0
11002 -11001 10986 0
11002 11001 -10986 0
-11003 11002 10987 0
-11003 -11002 -10987 0
11003 -11002 10987 0
11003 11002 -10987 0
-11004 11003 10988 0
-11004 -11003 -10988 0
11004 -11003 10988 0
11004 11003 -10988 0
-11005 11004 10989 0
-11005 -11004 -10989 0
11005 -11004 10989 0
11005 11004 -10989 0
-11006 11005 10990 0
-11006 -11005 -10990 0
11006 -11005 10990 0
11006 11005 -10990 0
-11007 11006 10991 0
-11007 -11006 -10991 0
11007 -11006 10991 0
11007 11006 -10991 0
-11008 11007 10992 0
-11008 -11007 -10992 0
11008 -11007 10992 0
11008 11007 -10992 0
-11009 11008 10993 0
-11009 -11008 -10993 0
11009 -11008 10993 0
11009 11008 -10993 0
-11010 11009 10994 0
-11010 -11009 -10994 0
11010 -11009 10994 0
11010 11009 -10994 0
-11011 11010 10995 0
-11011 -11010 -10995 0
11011 -11010 10995 0
11011 11010 -10995 0
-11011 0
-11012 10722 0
-11012 48 0
11012 -10722 -48 0
-11013 10724 0
-11013 38 0
11013 -10724 -38 0
-11014 10726 0
-11014 43 0
11014 -10726 -43 0
-11015 10728 0
-11015 43 0
11015 -10728 -43 0
-11016 10730 0
-11016 38 0
11016 -10730 -38 0
-11017 10732 0
-11017 48 0
11017 -10732 -48 0
-11018 10734 0
-11018 96 0
11018 -10734 -96 0
-11019 10736 0
-11019 91 0
11019 -10736 -91 0
-11020 10738 0
-11020 86 0
11020 -10738 -86 0
-11021 10740 0
-11021 144 0
11021 -10740 -144 0
-11022 10742 0
-11022 192 0
11022 -10742 -192 0
-11023 11012 11013 0
-11023 -11012 -11013 0
11023 -11012 11013 0
11023 11012 -11013 0
-11024 11023 11014 0
-11024 -11023 -11014 0
11024 -11023 11014 0
11024 11023 -11014 0
-11025 11024 11015 0
-11025 -11024 -11015 0
11025 -11024 11015 0
11025 11024 -11015 0
-11026 11025 11016 0
-11026 -11025 -11016 0
11026 -11025 11016 0
11026 11025 -11016 0
-11027 11026 11017 0
-11027 -11026 -11017 0
11027 -11026 11017 0
11027 11026 -11017 0
-11028 11027 11017 0
-11028 -11027 -11017 0
11028 -11027 11017 0
11028 11027 -11017 0
-11029 11028 11016 0
-11029 -11028 -11016 0
11029 -11028 11016 0
11029 11028 -11016 0
-11030 11029 11015 0
-11030 -11029 -11015 0
11030 -11029 11015 0
11030 11029 -11015 0
-11031 11030 11014 0
-11031 -11030 -11014 0
11031 -11030 11014 0
11031 11030 -11014 0
-11032 11031 11013 0
-11032 -11031 -11013 0
11032 -11031 11013 0
11032 11031 -11013 0
-11033 11032 11012 0
-11033 -11032 -11012 0
11033 -11032 11012 0
11033 11032 -11012 0
-11034 11033 11018 0
-11034 -11033 -11018 0
11034 -11033 11018 0
11034 11033 -11018 0
-11035 11034 11019 0
-11035 -11034 -11019 0
11035 -11034 11019 0
11035 11034 -11019 0
-11036 11035 11020 0
-11036 -11035 -11020 0
11036 -11035 11020 0
11036 11035 -11020 0
-11037 11036 11021 0
-11037 -11036 -11021 0
11037 -11036 11021 0
11037 11036 -11021 0
-11038 11037 11022 0
-11038 -11037 -11022 0
11038 -11037 11022 0
11038 11037 -11022 0
-11038 0
-11039 7 0
-11039 26 0
11039 -7 -26 0
-11040 11039 0
-11040 33 0
11040 -11039 -33 0
-11041 14 0
-11041 24 0
11041 -14 -24 0
-11042 11041 0
-11042 33 0
11042 -11041 -33 0
-11043 9 0
-11043 19 0
11043 -9 -19 0
-11044 11043 0
-11044 33 0
11044 -11043 -33 0
-11045 55 0
-11045 74 0
11045 -55 -74 0
-11046 11045 0
-11046 81 0
11046 -11045 -81 0
-11047 57 0
-11047 67 0
11047 -57 -67 0
-11048 11047 0
-11048 81 0
11048 -11047 -81 0
-11049 103 0
-11049 122 0
11049 -103 -122 0
-11050 11049 0
-11050 129 0
11050 -11049 -129 0
-11051 151 0
-11051 170 0
11051 -151 -170 0
-11052 11051 0
-11052 177 0
11052 -11051 -177 0
-11053 11040 11042 0
-11053 -11040 -11042 0
11053 -11040 11042 0
11053 11040 -11042 0
-11054 11053 11040 0
-11054 -11053 -11040 0
11054 -11053 11040 0
11054 11053 -11040 0
-11055 11054 11042 0
-11055 -11054 -11042 0
11055 -11054 11042 0
11055 11054 -11042 0
-11056 11055 11044 0
-11056 -11055 -11044 0
11056 -11055 11044 0
11056 11055 -11044 0
-11057 11056 11044 0
-11057 -11056 -11044 0
11057 -11056 11044 0
11057 11056 -11044 0
-11058 11057 11040 0
-11058 -11057 -11040 0
11058 -11057 11040 0
11058 11057 -11040 0
-11059 11058 11042 0
-11059 -11058 -11042 0
11059 -11058 11042 0
11059 11058 -11042 0
-11060 11059 11040 0
-11060 -11059 -11040 0
11060 -11059 11040 0
11060 11059 -11040 0
-11061 11060 11042 0
-11061 -11060 -11042 0
11061 -11060 11042 0
11061 11060 -11042 0
-11062 11061 11044 0
-11062 -11061 -11044 0
11062 -11061 11044 0
11062 11061 -11044 0
-11063 11062 11044 0
-11063 -11062 -11044 0
11063 -11062 11044 0
11063 11062 -11044 0
-11064 11063 11046 0
-11064 -11063 -11046 0
11064 -11063 11046 0
11064 11063 -11046 0
-11065 11064 11046 0
-11065 -11064 -11046 0
11065 -11064 11046 0
11065 11064 -11046 0
-11066 11065 11048 0
-11066 -11065 -11048 0
11066 -11065 11048 0
11066 11065 -11048 0
-11067 11066 11050 0
-11067 -11066 -11050 0
11067 -11066 11050 0
11067 11066 -11050 0
-11068 11067 11052 0
-11068 -11067 -11052 0
11068 -11067 11052 0
11068 11067 -11052 0
-11068 0
-11069 11039 0
-11069 34 0
11069 -11039 -34 0
-11070 11041 0
-11070 36 0
11070 -11041 -36 0
-11071 11043 0
-11071 35 0
11071 -11043 -35 0
-11072 11039 0
-11072 37 0
11072 -11039 -37 0
-11073 11041 0
-11073 45 0
11073 -11041 -45 0
-11074 11043 0
-11074 41 0
11074 -11043 -41 0
-11075 11045 0
-11075 82 0
11075 -11045 -82 0
-11076 11047 0
-11076 83 0
11076 -11047 -83 0
-11077 11049 0
-11077 130 0
11077 -11049 -130 0
-11078 11051 0
-11078 178 0
11078 -11051 -178 0
-11079 11069 11070 0
-11079 -11069 -11070 0
11079 -11069 11070 0
11079 11069 -11070 0
-11080 11079 11069 0
-11080 -11079 -11069 0
11080 -11079 11069 0
11080 11079 -11069 0
-11081 11080 11070 0
-11081 -11080 -11070 0
11081 -11080 11070 0
11081 11080 -11070 0
-11082 11081 11071 0
-11082 -11081 -11071 0
11082 -11081 11071 0
11082 11081 -11071 0
-11083 11082 11071 0
-11083 -11082 -11071 0
11083 -11082 11071 0
11083 11082 -11071 0
-11084 11083 11072 0
-11084 -11083 -11072 0
11084 -11083 11072 0
11084 11083 -11072 0
-11085 11084 11073 0
-11085 -11084 -11073 0
11085 -11084 11073 0
11085 11084 -11073 0
-11086 11085 11072 0
-11086 -11085 -11072 0
11086 -11085 11072 0
11086 11085 -11072 0
-11087 11086 11073 0
-11087 -11086 -11073 0
11087 -11086 11073 0
11087 11086 -11073 0
-11088 11087 11074 0
-11088 -11087 -11074 0
11088 -11087 11074 0
11088 11087 -11074 0
-11089 11088 11074 0
-11089 -11088 -11074 0
11089 -11088 11074 0
11089 11088 -11074 0
-11090 11089 11075 0
-11090 -11089 -11075 0
11090 -11089 11075 0
11090 11089 -11075 0
-11091 11090 11075 0
-11091 -11090 -11075 0
11091 -11090 11075 0
11091 11090 -11075 0
-11092 11091 11076 0
-11092 -11091 -11076 0
11092 -11091 11076 0
11092 11091 -11076 0
-11093 11092 11077 0
-11093 -11092 -11077 0
11093 -11092 11077 0
11093 11092 -11077 0
-11094 11093 11078 0
-11094 -11093 -11078 0
11094 -11093 11078 0
11094 11093 -11078 0
-11094 0
-11095 11039 0
-11095 35 0
11095 -11039 -35 0
-11096 11041 0
-11096 35 0
11096 -11041 -35 0
-11097 11039 0
-11097 36 0
11097 -11039 -36 0
-11098 11041 0
-11098 34 0
11098 -11041 -34 0
-11099 11043 0
-11099 36 0
11099 -11043 -36 0
-11100 11043 0
-11100 34 0
11100 -11043 -34 0
-11101 11039 0
-11101 41 0
11101 -11039 -41 0
-11102 11041 0
-11102 41 0
11102 -11041 -41 0
-11103 11039 0
-11103 45 0
11103 -11039 -45 0
-11104 11041 0
-11104 37 0
11104 -11041 -37 0
-11105 11043 0
-11105 45 0
11105 -11043 -45 0
-11106 11043 0
-11106 37 0
11106 -11043 -37 0
-11107 11045 0
-11107 83 0
11107 -11045 -83 0
-11108 11045 0
-11108 84 0
11108 -11045 -84 0
-11109 11047 0
-11109 84 0
11109 -11047 -84 0
-11110 11049 0
-11110 131 0
11110 -11049 -131 0
-11111 11051 0
-11111 179 0
11111 -11051 -179 0
-11112 11095 11096 0
-11112 -11095 -11096 0
11112 -11095 11096 0
11112 11095 -11096 0
-11113 11112 11097 0
-11113 -11112 -11097 0
11113 -11112 11097 0
11113 11112 -11097 0
-11114 11113 11098 0
-11114 -11113 -11098 0
11114 -11113 11098 0
11114 11113 -11098 0
-11115 11114 11099 0
-11115 -11114 -11099 0
11115 -11114 11099 0
11115 11114 -11099 0
-11116 11115 11100 0
-11116 -11115 -11100 0
11116 -11115 11100 0
11116 11115 -11100 0
-11117 11116 11101 0
-11117 -11116 -11101 0
11117 -11116 11101 0
11117 11116 -11101 0
-11118 11117 11102 0
-11118 -11117 -11102 0
11118 -11117 11102 0
11118 11117 -11102 0
-11119 11118 11103 0
-11119 -11118 -11103 0
11119 -11118 11103 0
11119 11118 -11103 0
-11120 11119 11104 0
-11120 -11119 -11104 0
11120 -11119 11104 0
11120 11119 -11104 0
-11121 11120 11105 0
-11121 -11120 -11105 0
11121 -11120 11105 0
11121 11120 -11105 0
-11122 11121 11106 0
-11122 -11121 -11106 0
11122 -11121 11106 0
11122 11121 -11106 0
-11123 11122 11107 0
-11123 -11122 -11107 0
11123 -11122 11107 0
11123 11122 -11107 0
-11124 11123 11108 0
-11124 -11123 -11108 0
11124 -11123 11108 0
11124 11123 -11108 0
-11125 11124 11109 0
-11125 -11124 -11109 0
11125 -11124 11109 0
11125 11124 -11109 0
-11126 11125 11110 0
-11126 -11125 -11110 0
11126 -11125 11110 0
11126 11125 -11110 0
-11127 11126 11111 0
-11127 -11126 -11111 0
11127 -11126 11111 0
11127 11126 -11111 0
-11127 0
-11128 11039 0
-11128 38 0
11128 -11039 -38 0
-11129 11041 0
-11129 48 0
11129 -11041 -48 0
-11130 11043 0
-11130 43 0
11130 -11043 -43 0
-11131 11045 0
-11131 86 0
11131 -11045 -86 0
-11132 11047 0
-11132 91 0
11132 -11047 -91 0
-11133 11049 0
-11133 134 0
11133 -11049 -134 0
-11134 11051 0
-11134 182 0
11134 -11051 -182 0
-11135 11128 11129 0
-11135 -11128 -11129 0
11135 -11128 11129 0
11135 11128 -11129 0
-11136 11135 11128 0
-11136 -11135 -11128 0
11136 -11135 11128 0
11136 11135 -11128 0
-11137 11136 11129 0
-11137 -11136 -11129 0
11137 -11136 11129 0
11137 11136 -11129 0
-11138 11137 11130 0
-11138 -11137 -11130 0
11138 -11137 11130 0
11138 11137 -11130 0
-11139 11138 11130 0
-11139 -11138 -11130 0
11139 -11138 11130 0
11139 11138 -11130 0
-11140 11139 11128 0
-11140 -11139 -11128 0
11140 -11139 11128 0
11140 11139 -11128 0
-11141 11140 11129 0
-11141 -11140 -11129 0
11141 -11140 11129 0
11141 11140 -11129 0
-11142 11141 11128 0
-11142 -11141 -11128 0
11142 -11141 11128 0
11142 11141 -11128 0
-11143 11142 11129 0
-11143 -11142 -11129 0
11143 -11142 11129 0
11143 11142 -11129 0
-11144 11143 11130 0
-11144 -11143 -11130 0
11144 -11143 11130 0
11144 11143 -11130 0
-11145 11144 11130 0
-11145 -11144 -11130 0
11145 -11144 11130 0
11145 11144 -11130 0
-11146 11145 11131 0
-11146 -11145 -11131 0
11146 -11145 11131 0
11146 11145 -11131 0
-11147 11146 11131 0
-11147 -11146 -11131 0
11147 -11146 11131 0
11147 11146 -11131 0
-11148 11147 11132 0
-11148 -11147 -11132 0
11148 -11147 11132 0
11148 11147 -11132 0
-11149 11148 11133 0
-11149 -11148 -11133 0
11149 -11148 11133 0
11149 11148 -11133 0
-11150 11149 11134 0
-11150 -11149 -11134 0
11150 -11149 11134 0
11150 11149 -11134 0
-11150 0
-11151 11039 0
-11151 39 0
11151 -11039 -39 0
-11152 11041 0
-11152 47 0
11152 -11041 -47 0
-11153 11039 0
-11153 40 0
11153 -11039 -40 0
-11154 11041 0
-11154 46 0
11154 -11041 -46 0
-11155 11043 0
-11155 44 0
11155 -11043 -44 0
-11156 11043 0
-11156 42 0
11156 -11043 -42 0
-11157 11039 0
-11157 42 0
11157 -11039 -42 0
-11158 11041 0
-11158 44 0
11158 -11041 -44 0
-11159 11039 0
-11159 46 0
11159 -11039 -46 0
-11160 11041 0
-11160 40 0
11160 -11041 -40 0
-11161 11043 0
-11161 47 0
11161 -11043 -47 0
-11162 11043 0
-11162 39 0
11162 -11043 -39 0
-11163 11045 0
-11163 87 0
11163 -11045 -87 0
-11164 11045 0
-11164 88 0
11164 -11045 -88 0
-11165 11047 0
-11165 92 0
11165 -11047 -92 0
-11166 11049 0
-11166 135 0
11166 -11049 -135 0
-11167 11051 0
-11167 183 0
11167 -11051 -183 0
-11168 11151 11152 0
-11168 -11151 -11152 0
11168 -11151 11152 0
11168 11151 -11152 0
-11169 11168 11153 0
-11169 -11168 -11153 0
11169 -11168 11153 0
11169 11168 -11153 0
-11170 11169 11154 0
-11170 -11169 -11154 0
11170 -11169 11154 0
11170 11169 -11154 0
-11171 11170 11155 0
-11171 -11170 -11155 0
11171 -11170 11155 0
11171 11170 -11155 0
-11172 11171 11156 0
-11172 -11171 -11156 0
11172 -11171 11156 0
11172 11171 -11156 0
-11173 11172 11157 0
-11173 -11172 -11157 0
11173 -11172 11157 0
11173 11172 -11157 0
-11174 11173 11158 0
-11174 -11173 -11158 0
11174 -11173 11158 0
11174 11173 -11158 0
-11175 11174 11159 0
-11175 -11174 -11159 0
11175 -11174 11159 0
11175 11174 -11159 0
-11176 11175 11160 0
-11176 -11175 -11160 0
11176 -11175 11160 0
11176 11175 -11160 0
-11177 11176 11161 0
-11177 -11176 -11161 0
11177 -11176 11161 0
11177 11176 -11161 0
-11178 11177 11162 0
-11178 -11177 -11162 0
11178 -11177 11162 0
11178 11177 -11162 0
-11179 11178 11163 0
-11179 -11178 -11163 0
11179 -11178 11163 0
11179 11178 -11163 0
-11180 11179 11164 0
-11180 -11179 -11164 0
11180 -11179 11164 0
11180 11179 -11164 0
-11181 11180 11165 0
-11181 -11180 -11165 0
11181 -11180 11165 0
11181 11180 -11165 0
-11182 11181 11166 0
-11182 -11181 -11166 0
11182 -11181 11166 0
11182 11181 -11166 0
-11183 11182 11167 0
-11183 -11182 -11167 0
11183 -11182 11167 0
11183 11182 -11167 0
-11183 0
-11184 11039 0
-11184 43 0
11184 -11039 -43 0
-11185 11041 0
-11185 43 0
11185 -11041 -43 0
-11186 11039 0
-11186 48 0
11186 -11039 -48 0
-11187 11041 0
-11187 38 0
11187 -11041 -38 0
-11188 11043 0
-11188 48 0
11188 -11043 -48 0
-11189 11043 0
-11189 38 0
11189 -11043 -38 0
-11190 11045 0
-11190 91 0
11190 -11045 -91 0
-11191 11045 0
-11191 96 0
11191 -11045 -96 0
-11192 11047 0
-11192 96 0
11192 -11047 -96 0
-11193 11049 0
-11193 139 0
11193 -11049 -139 0
-11194 11051 0
-11194 187 0
11194 -11051 -187 0
-11195 11184 11185 0
-11195 -11184 -11185 0
11195 -11184 11185 0
11195 11184 -11185 0
-11196 11195 11186 0
-11196 -11195 -11186 0
11196 -11195 11186 0
11196 11195 -11186 0
-11197 11196 11187 0
-11197 -11196 -11187 0
11197 -11196 11187 0
11197 11196 -11187 0
-11198 11197 11188 0
-11198 -11197 -11188 0
11198 -11197 11188 0
11198 11197 -11188 0
-11199 11198 11189 0
-11199 -11198 -11189 0
11199 -11198 11189 0
11199 11198 -11189 0
-11200 11199 11184 0
-11200 -11199 -11184 0
11200 -11199 11184 0
11200 11199 -11184 0
-11201 11200 11185 0
-11201 -11200 -11185 0
11201 -11200 11185 0
11201 11200 -11185 0
-11202 11201 11186 0
-11202 -11201 -11186 0
11202 -11201 11186 0
11202 11201 -11186 0
-11203 11202 11187 0
-11203 -11202 -11187 0
11203 -11202 11187 0
11203 11202 -11187 0
-11204 11203 11188 0
-11204 -11203 -11188 0
11204 -11203 11188 0
11204 11203 -11188 0
-11205 11204 11189 0
-11205 -11204 -11189 0
11205 -11204 11189 0
11205 11204 -11189 0
-11206 11205 11190 0
-11206 -11205 -11190 0
11206 -11205 11190 0
11206 11205 -11190 0
-11207 11206 11191 0
-11207 -11206 -11191 0
11207 -11206 11191 0
11207 11206 -11191 0
-11208 11207 11192 0
-11208 -11207 -11192 0
11208 -11207 11192 0
11208 11207 -11192 0
-11209 11208 11193 0
-11209 -11208 -11193 0
11209 -11208 11193 0
11209 11208 -11193 0
-11210 11209 11194 0
-11210 -11209 -11194 0
11210 -11209 11194 0
11210 11209 -11194 0
-11210 0
-11211 11039 0
-11211 44 0
11211 -11039 -44 0
-11212 11041 0
-11212 42 0
11212 -11041 -42 0
-11213 11039 0
-11213 47 0
11213 -11039 -47 0
-11214 11041 0
-11214 39 0
11214 -11041 -39 0
-11215 11043 0
-11215 46 0
11215 -11043 -46 0
-11216 11043 0
-11216 40 0
11216 -11043 -40 0
-11217 11045 0
-11217 92 0
11217 -11045 -92 0
-11218 11045 0
-11218 95 0
11218 -11045 -95 0
-11219 11047 0
-11219 94 0
11219 -11047 -94 0
-11220 11049 0
-11220 140 0
11220 -11049 -140 0
-11221 11051 0
-11221 188 0
11221 -11051 -188 0
-11222 11211 11212 0
-11222 -11211 -11212 0
11222 -11211 11212 0
11222 11211 -11212 0
-11223 11222 11213 0
-11223 -11222 -11213 0
11223 -11222 11213 0
11223 11222 -11213 0
-11224 11223 11214 0
-11224 -11223 -11214 0
11224 -11223 11214 0
11224 11223 -11214 0
-11225 11224 11215 0
-11225 -11224 -11215 0
11225 -11224 11215 0
11225 11224 -11215 0
-11226 11225 11216 0
-11226 -11225 -11216 0
11226 -11225 11216 0
11226 11225 -11216 0
-11227 11226 11213 0
-11227 -11226 -11213 0
11227 -11226 11213 0
11227 11226 -11213 0
-11228 11227 11214 0
-11228 -11227 -11214 0
11228 -11227 11214 0
11228 11227 -11214 0
-11229 11228 11211 0
-11229 -11228 -11211 0
11229 -11228 11211 0
11229 11228 -11211 0
-11230 11229 11212 0
-11230 -11229 -11212 0
11230 -11229 11212 0
11230 11229 -11212 0
-11231 11230 11216 0
-11231 -11230 -11216 0
11231 -11230 11216 0
11231 11230 -11216 0
-11232 11231 11215 0
-11232 -11231 -11215 0
11232 -11231 11215 0
11232 11231 -11215 0
-11233 11232 11217 0
-11233 -11232 -11217 0
11233 -11232 11217 0
11233 11232 -11217 0
-11234 11233 11218 0
-11234 -11233 -11218 0
11234 -11233 11218 0
11234 11233 -11218 0
-11235 11234 11219 0
-11235 -11234 -11219 0
11235 -11234 11219 0
11235 11234 -11219 0
-11236 11235 11220 0
-11236 -11235 -11220 0
11236 -11235 11220 0
11236 11235 -11220 0
-11237 11236 11221 0
-11237 -11236 -11221 0
11237 -11236 11221 0
11237 11236 -11221 0
-11237 0
-11238 7 0
-11238 30 0
11238 -7 -30 0
-11239 11238 0
-11239 33 0
11239 -11238 -33 0
-11240 14 0
-11240 32 0
11240 -14 -32 0
-11241 11240 0
-11241 33 0
11241 -11240 -33 0
-11242 9 0
-11242 31 0
11242 -9 -31 0
-11243 11242 0
-11243 33 0
11243 -11242 -33 0
-11244 26 0
-11244 8 0
11244 -26 -8 0
-11245 11244 0
-11245 33 0
11245 -11244 -33 0
-11246 24 0
-11246 16 0
11246 -24 -16 0
-11247 11246 0
-11247 33 0
11247 -11246 -33 0
-11248 19 0
-11248 12 0
11248 -19 -12 0
-11249 11248 0
-11249 33 0
11249 -11248 -33 0
-11250 55 0
-11250 78 0
11250 -55 -78 0
-11251 11250 0
-11251 81 0
11251 -11250 -81 0
-11252 57 0
-11252 79 0
11252 -57 -79 0
-11253 11252 0
-11253 81 0
11253 -11252 -81 0
-11254 103 0
-11254 126 0
11254 -103 -126 0
-11255 11254 0
-11255 129 0
11255 -11254 -129 0
-11256 151 0
-11256 174 0
11256 -151 -174 0
-11257 11256 0
-11257 177 0
11257 -11256 -177 0
-11258 11239 11241 0
-11258 -11239 -11241 0
11258 -11239 11241 0
11258 11239 -11241 0
-11259 11258 11239 0
-11259 -11258 -11239 0
11259 -11258 11239 0
11259 11258 -11239 0
-11260 11259 11241 0
-11260 -11259 -11241 0
11260 -11259 11241 0
11260 11259 -11241 0
-11261 11260 11243 0
-11261 -11260 -11243 0
11261 -11260 11243 0
11261 11260 -11243 0
-11262 11261 11243 0
-11262 -11261 -11243 0
11262 -11261 11243 0
11262 11261 -11243 0
-11263 11262 11245 0
-11263 -11262 -11245 0
11263 -11262 11245 0
11263 11262 -11245 0
-11264 11263 11247 0
-11264 -11263 -11247 0
11264 -11263 11247 0
11264 11263 -11247 0
-11265 11264 11245 0
-11265 -11264 -11245 0
11265 -11264 11245 0
11265 11264 -11245 0
-11266 11265 11247 0
-11266 -11265 -11247 0
11266 -11265 11247 0
11266 11265 -11247 0
-11267 11266 11249 0
-11267 -11266 -11249 0
11267 -11266 11249 0
11267 11266 -11249 0
-11268 11267 11249 0
-11268 -11267 -11249 0
11268 -11267 11249 0
11268 11267 -11249 0
-11269 11268 11251 0
-11269 -11268 -11251 0
11269 -11268 11251 0
11269 11268 -11251 0
-11270 11269 11251 0
-11270 -11269 -11251 0
11270 -11269 11251 0
11270 11269 -11251 0
-11271 11270 11253 0
-11271 -11270 -11253 0
11271 -11270 11253 0
11271 11270 -11253 0
-11272 11271 11255 0
-11272 -11271 -11255 0
11272 -11271 11255 0
11272 11271 -11255 0
-11273 11272 11257 0
-11273 -11272 -11257 0
11273 -11272 11257 0
11273 11272 -11257 0
-11273 0
-11274 11238 0
-11274 34 0
11274 -11238 -34 0
-11275 11240 0
-11275 36 0
11275 -11240 -36 0
-11276 11242 0
-11276 35 0
11276 -11242 -35 0
-11277 11244 0
-11277 37 0
11277 -11244 -37 0
-11278 11246 0
-11278 45 0
11278 -11246 -45 0
-11279 11248 0
-11279 41 0
11279 -11248 -41 0
-11280 11250 0
-11280 82 0
11280 -11250 -82 0
-11281 11252 0
-11281 83 0
11281 -11252 -83 0
-11282 11254 0
-11282 130 0
11282 -11254 -130 0
-11283 11256 0
-11283 178 0
11283 -11256 -178 0
-11284 11274 11275 0
-11284 -11274 -11275 0
11284 -11274 11275 0
11284 11274 -11275 0
-11285 11284 11274 0
-11285 -11284 -11274 0
11285 -11284 11274 0
11285 11284 -11274 0
-11286 11285 11275 0
-11286 -11285 -11275 0
11286 -11285 11275 0
11286 11285 -11275 0
-11287 11286 11276 0
-11287 -11286 -11276 0
11287 -11286 11276 0
11287 11286 -11276 0
-11288 11287 11276 0
-11288 -11287 -11276 0
11288 -11287 11276 0
11288 11287 -11276 0
-11289 11288 11277 0
-11289 -11288 -11277 0
11289 -11288 11277 0
11289 11288 -11277 0
-11290 11289 11278 0
-11290 -11289 -11278 0
11290 -11289 11278 0
11290 11289 -11278 0
-11291 11290 11277 0
-11291 -11290 -11277 0
11291 -11290 11277 0
11291 11290 -11277 0
-11292 11291 11278 0
-11292 -11291 -11278 0
11292 -11291 11278 0
11292 11291 -11278 0
-11293 11292 11279 0
-11293 -11292 -11279 0
11293 -11292 11279 0
11293 11292 -11279 0
-11294 11293 11279 0
-11294 -11293 -11279 0
11294 -11293 11279 0
11294 11293 -11279 0
-11295 11294 11280 0
-11295 -11294 -11280 0
11295 -11294 11280 0
11295 11294 -11280 0
-11296 11295 11280 0
-11296 -11295 -11280 0
11296 -11295 11280 0
11296 11295 -11280 0
-11297 11296 11281 0
-11297 -11296 -11281 0
11297 -11296 11281 0
11297 11296 -11281 0
-11298 11297 11282 0
-11298 -11297 -11282 0
11298 -11297 11282 0
11298 11297 -11282 0
-11299 11298 11283 0
-11299 -11298 -11283 0
11299 -11298 11283 0
11299 11298 -11283 0
-11299 0
-11300 11238 0
-11300 35 0
11300 -11238 -35 0
-11301 11240 0
-11301 35 0
11301 -11240 -35 0
-11302 11238 0
-11302 36 0
11302 -11238 -36 0
-11303 11240 0
-11303 34 0
11303 -11240 -34 0
-11304 11242 0
-11304 36 0
11304 -11242 -36 0
-11305 11242 0
-11305 34 0
11305 -11242 -34 0
-11306 11244 0
-11306 41 0
11306 -11244 -41 0
-11307 11246 0
-11307 41 0
11307 -11246 -41 0
-11308 11244 0
-11308 45 0
11308 -11244 -45 0
-11309 11246 0
-11309 37 0
11309 -11246 -37 0
-11310 11248 0
-11310 45 0
11310 -11248 -45 0
-11311 11248 0
-11311 37 0
11311 -11248 -37 0
-11312 11250 0
-11312 83 0
11312 -11250 -83 0
-11313 11250 0
-11313 84 0
11313 -11250 -84 0
-11314 11252 0
-11314 84 0
11314 -11252 -84 0
-11315 11254 0
-11315 131 0
11315 -11254 -131 0
-11316 11256 0
-11316 179 0
11316 -11256 -179 0
-11317 11300 11301 0
-11317 -11300 -11301 0
11317 -11300 11301 0
11317 11300 -11301 0
-11318 11317 11302 0
-11318 -11317 -11302 0
11318 -11317 11302 0
11318 11317 -11302 0
-11319 11318 11303 0
-11319 -11318 -11303 0
11319 -11318 11303 0
11319 11318 -11303 0
-11320 11319 11304 0
-11320 -11319 -11304 0
11320 -11319 11304 0
11320 11319 -11304 0
-11321 11320 11305 0
-11321 -11320 -11305 0
11321 -11320 11305 0
11321 11320 -11305 0
-11322 11321 11306 0
-11322 -11321 -11306 0
11322 -11321 11306 0
11322 11321 -11306 0
-11323 11322 11307 0
-11323 -11322 -11307 0
11323 -11322 11307 0
11323 11322 -11307 0
-11324 11323 11308 0
-11324 -11323 -11308 0
11324 -11323 11308 0
11324 11323 -11308 0
-11325 11324 11309 0
-11325 -11324 -11309 0
11325 -11324 11309 0
11325 11324 -11309 0
-11326 11325 11310 0
-11326 -11325 -11310 0
11326 -11325 11310 0
11326 11325 -11310 0
-11327 11326 11311 0
-11327 -11326 -11311 0
11327 -11326 11311 0
11327 11326 -11311 0
-11328 11327 11312 0
-11328 -11327 -11312 0
11328 -11327 11312 0
11328 11327 -11312 0
-11329 11328 11313 0
-11329 -11328 -11313 0
11329 -11328 11313 0
11329 11328 -11313 0
-11330 11329 11314 0
-11330 -11329 -11314 0
11330 -11329 11314 0
11330 11329 -11314 0
-11331 11330 11315 0
-11331 -11330 -11315 0
11331 -11330 11315 0
11331 11330 -11315 0
-11332 11331 11316 0
-11332 -11331 -11316 0
11332 -11331 11316 0
11332 11331 -11316 0
-11332 0
-11333 11238 0
-11333 37 0
11333 -11238 -37 0
-11334 11240 0
-11334 45 0
11334 -11240 -45 0
-11335 11242 0
-11335 41 0
11335 -11242 -41 0
-11336 11244 0
-11336 34 0
11336 -11244 -34 0
-11337 11246 0
-11337 36 0
11337 -11246 -36 0
-11338 11248 0
-11338 35 0
11338 -11248 -35 0
-11339 11250 0
-11339 85 0
11339 -11250 -85 0
-11340 11252 0
-11340 89 0
11340 -11252 -89 0
-11341 11254 0
-11341 133 0
11341 -11254 -133 0
-11342 11256 0
-11342 181 0
11342 -11256 -181 0
-11343 11333 11334 0
-11343 -11333 -11334 0
11343 -11333 11334 0
11343 11333 -11334 0
-11344 11343 11333 0
-11344 -11343 -11333 0
11344 -11343 11333 0
11344 11343 -11333 0
-11345 11344 11334 0
-11345 -11344 -11334 0
11345 -11344 11334 0
11345 11344 -11334 0
-11346 11345 11335 0
-11346 -11345 -11335 0
11346 -11345 11335 0
11346 11345 -11335 0
-11347 11346 11335 0
-11347 -11346 -11335 0
11347 -11346 11335 0
11347 11346 -11335 0
-11348 11347 11336 0
-11348 -11347 -11336 0
11348 -11347 11336 0
11348 11347 -11336 0
-11349 11348 11337 0
-11349 -11348 -11337 0
11349 -11348 11337 0
11349 11348 -11337 0
-11350 11349 11336 0
-11350 -11349 -11336 0
11350 -11349 11336 0
11350 11349 -11336 0
-11351 11350 11337 0
-11351 -11350 -11337 0
11351 -11350 11337 0
11351 11350 -11337 0
-11352 11351 11338 0
-11352 -11351 -11338 0
11352 -11351 11338 0
11352 11351 -11338 0
-11353 11352 11338 0
-11353 -11352 -11338 0
11353 -11352 11338 0
11353 11352 -11338 0
-11354 11353 11339 0
-11354 -11353 -11339 0
11354 -11353 11339 0
11354 11353 -11339 0
-11355 11354 11339 0
-11355 -11354 -11339 0
11355 -11354 11339 0
11355 11354 -11339 0
-11356 11355 11340 0
-11356 -11355 -11340 0
11356 -11355 11340 0
11356 11355 -11340 0
-11357 11356 11341 0
-11357 -11356 -11341 0
11357 -11356 11341 0
11357 11356 -11341 0
-11358 11357 11342 0
-11358 -11357 -11342 0
11358 -11357 11342 0
11358 11357 -11342 0
-11358 0
-11359 11238 0
-11359 38 0
11359 -11238 -38 0
-11360 11240 0
-11360 48 0
11360 -11240 -48 0
-11361 11242 0
-11361 43 0
11361 -11242 -43 0
-11362 11244 0
-11362 38 0
11362 -11244 -38 0
-11363 11246 0
-11363 48 0
11363 -11246 -48 0
-11364 11248 0
-11364 43 0
11364 -11248 -43 0
-11365 11250 0
-11365 86 0
11365 -11250 -86 0
-11366 11252 0
-11366 91 0
11366 -11252 -91 0
-11367 11254 0
-11367 134 0
11367 -11254 -134 0
-11368 11256 0
-11368 182 0
11368 -11256 -182 0
-11369 11359 11360 0
-11369 -11359 -11360 0
11369 -11359 11360 0
11369 11359 -11360 0
-11370 11369 11359 0
-11370 -11369 -11359 0
11370 -11369 11359 0
11370 11369 -11359 0
-11371 11370 11360 0
-11371 -11370 -11360 0
11371 -11370 11360 0
11371 11370 -11360 0
-11372 11371 11361 0
-11372 -11371 -11361 0
11372 -11371 11361 0
11372 11371 -11361 0
-11373 11372 11361 0
-11373 -11372 -11361 0
11373 -11372 11361 0
11373 11372 -11361 0
-11374 11373 11362 0
-11374 -11373 -11362 0
11374 -11373 11362 0
11374 11373 -11362 0
-11375 11374 11363 0
-11375 -11374 -11363 0
11375 -11374 11363 0
11375 11374 -11363 0
-11376 11375 11362 0
-11376 -11375 -11362 0
11376 -11375 11362 0
11376 11375 -11362 0
-11377 11376 11363 0
-11377 -11376 -11363 0
11377 -11376 11363 0
11377 11376 -11363 0
-11378 11377 11364 0
-11378 -11377 -11364 0
11378 -11377 11364 0
11378 11377 -11364 0
-11379 11378 11364 0
-11379 -11378 -11364 0
11379 -11378 11364 0
11379 11378 -11364 0
-11380 11379 11365 0
-11380 -11379 -11365 0
11380 -11379 11365 0
11380 11379 -11365 0
-11381 11380 11365 0
-11381 -11380 -11365 0
11381 -11380 11365 0
11381 11380 -11365 0
-11382 11381 11366 0
-11382 -11381 -11366 0
11382 -11381 11366 0
11382 11381 -11366 0
-11383 11382 11367 0
-11383 -11382 -11367 0
11383 -11382 11367 0
11383 11382 -11367 0
-11384 11383 11368 0
-11384 -11383 -11368 0
11384 -11383 11368 0
11384 11383 -11368 0
-11384 0
-11385 11238 0
-11385 39 0
11385 -11238 -39 0
-11386 11240 0
-11386 47 0
11386 -11240 -47 0
-11387 11238 0
-11387 40 0
11387 -11238 -40 0
-11388 11240 0
-11388 46 0
11388 -11240 -46 0
-11389 11242 0
-11389 44 0
11389 -11242 -44 0
-11390 11242 0
-11390 42 0
11390 -11242 -42 0
-11391 11244 0
-11391 42 0
11391 -11244 -42 0
-11392 11246 0
-11392 44 0
11392 -11246 -44 0
-11393 11244 0
-11393 46 0
11393 -11244 -46 0
-11394 11246 0
-11394 40 0
11394 -11246 -40 0
-11395 11248 0
-11395 47 0
11395 -11248 -47 0
-11396 11248 0
-11396 39 0
11396 -11248 -39 0
-11397 11250 0
-11397 87 0
11397 -11250 -87 0
-11398 11250 0
-11398 88 0
11398 -11250 -88 0
-11399 11252 0
-11399 92 0
11399 -11252 -92 0
-11400 11254 0
-11400 135 0
11400 -11254 -135 0
-11401 11256 0
-11401 183 0
11401 -11256 -183 0
-11402 11385 11386 0
-11402 -11385 -11386 0
11402 -11385 11386 0
11402 11385 -11386 0
-11403 11402 11387 0
-11403 -11402 -11387 0
11403 -11402 11387 0
11403 11402 -11387 0
-11404 11403 11388 0
-11404 -11403 -11388 0
11404 -11403 11388 0
11404 11403 -11388 0
-11405 11404 11389 0
-11405 -11404 -11389 0
11405 -11404 11389 0
11405 11404 -11389 0
-11406 11405 11390 0
-11406 -11405 -11390 0
11406 -11405 11390 0
11406 11405 -11390 0
-11407 11406 11391 0
-11407 -11406 -11391 0
11407 -11406 11391 0
11407 11406 -11391 0
-11408 11407 11392 0
-11408 -11407 -11392 0
11408 -11407 11392 0
11408 11407 -11392 0
-11409 11408 11393 0
-11409 -11408 -11393 0
11409 -11408 11393 0
11409 11408 -11393 0
-11410 11409 11394 0
-11410 -11409 -11394 0
11410 -11409 11394 0
11410 11409 -11394 0
-11411 11410 11395 0
-11411 -11410 -11395 0
11411 -11410 11395 0
11411 11410 -11395 0
-11412 11411 11396 0
-11412 -11411 -11396 0
11412 -11411 11396 0
11412 11411 -11396 0
-11413 11412 11397 0
-11413 -11412 -11397 0
11413 -11412 11397 0
11413 11412 -11397 0
-11414 11413 11398 0
-11414 -11413 -11398 0
11414 -11413 11398 0
11414 11413 -11398 0
-11415 11414 11399 0
-11415 -11414 -11399 0
11415 -11414 11399 0
11415 11414 -11399 0
-11416 11415 11400 0
-11416 -11415 -11400 0
11416 -11415 11400 0
11416 11415 -11400 0
-11417 11416 11401 0
-11417 -11416 -11401 0
11417 -11416 11401 0
11417 11416 -11401 0
-11417 0
-11418 11238 0
-11418 41 0
11418 -11238 -41 0
-11419 11240 0
-11419 41 0
11419 -11240 -41 0
-11420 11238 0
-11420 45 0
11420 -11238 -45 0
-11421 11240 0
-11421 37 0
11421 -11240 -37 0
-11422 11242 0
-11422 45 0
11422 -11242 -45 0
-11423 11242 0
-11423 37 0
11423 -11242 -37 0
-11424 11244 0
-11424 35 0
11424 -11244 -35 0
-11425 11246 0
-11425 35 0
11425 -11246 -35 0
-11426 11244 0
-11426 36 0
11426 -11244 -36 0
-11427 11246 0
-11427 34 0
11427 -11246 -34 0
-11428 11248 0
-11428 36 0
11428 -11248 -36 0
-11429 11248 0
-11429 34 0
11429 -11248 -34 0
-11430 11250 0
-11430 89 0
11430 -11250 -89 0
-11431 11250 0
-11431 93 0
11431 -11250 -93 0
-11432 11252 0
-11432 93 0
11432 -11252 -93 0
-11433 11254 0
-11433 137 0
11433 -11254 -137 0
-11434 11256 0
-11434 185 0
11434 -11256 -185 0
-11435 11418 11419 0
-11435 -11418 -11419 0
11435 -11418 11419 0
11435 11418 -11419 0
-11436 11435 11420 0
-11436 -11435 -11420 0
11436 -11435 11420 0
11436 11435 -11420 0
-11437 11436 11421 0
-11437 -11436 -11421 0
11437 -11436 11421 0
11437 11436 -11421 0
-11438 11437 11422 0
-11438 -11437 -11422 0
11438 -11437 11422 0
11438 11437 -11422 0
-11439 11438 11423 0
-11439 -11438 -11423 0
11439 -11438 11423 0
11439 11438 -11423 0
-11440 11439 11424 0
-11440 -11439 -11424 0
11440 -11439 11424 0
11440 11439 -11424 0
-11441 11440 11425 0
-11441 -11440 -11425 0
11441 -11440 11425 0
11441 11440 -11425 0
-11442 11441 11426 0
-11442 -11441 -11426 0
11442 -11441 11426 0
11442 11441 -11426 0
-11443 11442 11427 0
-11443 -11442 -11427 0
11443 -11442 11427 0
11443 11442 -11427 0
-11444 11443 11428 0
-11444 -11443 -11428 0
11444 -11443 11428 0
11444 11443 -11428 0
-11445 11444 11429 0
-11445 -11444 -11429 0
11445 -11444 11429 0
11445 11444 -11429 0
-11446 11445 11430 0
-11446 -11445 -11430 0
11446 -11445 11430 0
11446 11445 -11430 0
-11447 11446 11431 0
-11447 -11446 -11431 0
11447 -11446 11431 0
11447 11446 -11431 0
-11448 11447 11432 0
-11448 -11447 -11432 0
11448 -11447 11432 0
11448 11447 -11432 0
-11449 11448 11433 0
-11449 -11448 -11433 0
11449 -11448 11433 0
11449 11448 -11433 0
-11450 11449 11434 0
-11450 -11449 -11434 0
11450 -11449 11434 0
11450 11449 -11434 0
-11450 0
-11451 11238 0
-11451 42 0
11451 -11238 -42 0
-11452 11240 0
-11452 44 0
11452 -11240 -44 0
-11453 11238 0
-11453 46 0
11453 -11238 -46 0
-11454 11240 0
-11454 40 0
11454 -11240 -40 0
-11455 11242 0
-11455 47 0
11455 -11242 -47 0
-11456 11242 0
-11456 39 0
11456 -11242 -39 0
-11457 11244 0
-11457 39 0
11457 -11244 -39 0
-11458 11246 0
-11458 47 0
11458 -11246 -47 0
-11459 11244 0
-11459 40 0
11459 -11244 -40 0
-11460 11246 0
-11460 46 0
11460 -11246 -46 0
-11461 11248 0
-11461 44 0
11461 -11248 -44 0
-11462 11248 0
-11462 42 0
11462 -11248 -42 0
-11463 11250 0
-11463 90 0
11463 -11250 -90 0
-11464 11250 0
-11464 94 0
11464 -11250 -94 0
-11465 11252 0
-11465 95 0
11465 -11252 -95 0
-11466 11254 0
-11466 138 0
11466 -11254 -138 0
-11467 11256 0
-11467 186 0
11467 -11256 -186 0
-11468 11451 11452 0
-11468 -11451 -11452 0
11468 -11451 11452 0
11468 11451 -11452 0
-11469 11468 11453 0
-11469 -11468 -11453 0
11469 -11468 11453 0
11469 11468 -11453 0
-11470 11469 11454 0
-11470 -11469 -11454 0
11470 -11469 11454 0
11470 11469 -11454 0
-11471 11470 11455 0
-11471 -11470 -11455 0
11471 -11470 11455 0
11471 11470 -11455 0
-11472 11471 11456 0
-11472 -11471 -11456 0
11472 -11471 11456 0
11472 11471 -11456 0
-11473 11472 11457 0
-11473 -11472 -11457 0
11473 -11472 11457 0
11473 11472 -11457 0
-11474 11473 11458 0
-11474 -11473 -11458 0
11474 -11473 11458 0
11474 11473 -11458 0
-11475 11474 11459 0
-11475 -11474 -11459 0
11475 -11474 11459 0
11475 11474 -11459 0
-11476 11475 11460 0
-11476 -11475 -11460 0
11476 -11475 11460 0
11476 11475 -11460 0
-11477 11476 11461 0
-11477 -11476 -11461 0
11477 -11476 11461 0
11477 11476 -11461 0
-11478 11477 11462 0
-11478 -11477 -11462 0
11478 -11477 11462 0
11478 11477 -11462 0
-11479 11478 11463 0
-11479 -11478 -11463 0
11479 -11478 11463 0
11479 11478 -11463 0
-11480 11479 11464 0
-11480 -11479 -11464 0
11480 -11479 11464 0
11480 11479 -11464 0
-11481 11480 11465 0
-11481 -11480 -11465 0
11481 -11480 11465 0
11481 11480 -11465 0
-11482 11481 11466 0
-11482 -11481 -11466 0
11482 -11481 11466 0
11482 11481 -11466 0
-11483 11482 11467 0
-11483 -11482 -11467 0
11483 -11482 11467 0
11483 11482 -11467 0
-11483 0
-11484 11238 0
-11484 43 0
11484 -11238 -43 0
-11485 11240 0
-11485 43 0
11485 -11240 -43 0
-11486 11238 0
-11486 48 0
11486 -11238 -48 0
-11487 11240 0
-11487 38 0
11487 -11240 -38 0
-11488 11242 0
-11488 48 0
11488 -11242 -48 0
-11489 11242 0
-11489 38 0
11489 -11242 -38 0
-11490 11244 0
-11490 43 0
11490 -11244 -43 0
-11491 11246 0
-11491 43 0
11491 -11246 -43 0
-11492 11244 0
-11492 48 0
11492 -11244 -48 0
-11493 11246 0
-11493 38 0
11493 -11246 -38 0
-11494 11248 0
-11494 48 0
11494 -11248 -48 0
-11495 11248 0
-11495 38 0
11495 -11248 -38 0
-11496 11250 0
-11496 91 0
11496 -11250 -91 0
-11497 11250 0
-11497 96 0
11497 -11250 -96 0
-11498 11252 0
-11498 96 0
11498 -11252 -96 0
-11499 11254 0
-11499 139 0
11499 -11254 -139 0
-11500 11256 0
-11500 187 0
11500 -11256 -187 0
-11501 11484 11485 0
-11501 -11484 -11485 0
11501 -11484 11485 0
11501 11484 -11485 0
-11502 11501 11486 0
-11502 -11501 -11486 0
11502 -11501 11486 0
11502 11501 -11486 0
-11503 11502 11487 0
-11503 -11502 -11487 0
11503 -11502 11487 0
11503 11502 -11487 0
-11504 11503 11488 0
-11504 -11503 -11488 0
11504 -11503 11488 0
11504 11503 -11488 0
-11505 11504 11489 0
-11505 -11504 -11489 0
11505 -11504 11489 0
11505 11504 -11489 0
-11506 11505 11490 0
-11506 -11505 -11490 0
11506 -11505 11490 0
11506 11505 -11490 0
-11507 11506 11491 0
-11507 -11506 -11491 0
11507 -11506 11491 0
11507 11506 -11491 0
-11508 11507 11492 0
-11508 -11507 -11492 0
11508 -11507 11492 0
11508 11507 -11492 0
-11509 11508 11493 0
-11509 -11508 -11493 0
11509 -11508 11493 0
11509 11508 -11493 0
-11510 11509 11494 0
-11510 -11509 -11494 0
11510 -11509 11494 0
11510 11509 -11494 0
-11511 11510 11495 0
-11511 -11510 -11495 0
11511 -11510 11495 0
11511 11510 -11495 0
-11512 11511 11496 0
-11512 -11511 -11496 0
11512 -11511 11496 0
11512 11511 -11496 0
-11513 11512 11497 0
-11513 -11512 -11497 0
11513 -11512 11497 0
11513 11512 -11497 0
-11514 11513 11498 0
-11514 -11513 -11498 0
11514 -11513 11498 0
11514 11513 -11498 0
-11515 11514 11499 0
-11515 -11514 -11499 0
11515 -11514 11499 0
11515 11514 -11499 0
-11516 11515 11500 0
-11516 -11515 -11500 0
11516 -11515 11500 0
11516 11515 -11500 0
-11516 0
-11517 11238 0
-11517 44 0
11517 -11238 -44 0
-11518 11240 0
-11518 42 0
11518 -11240 -42 0
-11519 11238 0
-11519 47 0
11519 -11238 -47 0
-11520 11240 0
-11520 39 0
11520 -11240 -39 0
-11521 11242 0
-11521 46 0
11521 -11242 -46 0
-11522 11242 0
-11522 40 0
11522 -11242 -40 0
-11523 11244 0
-11523 47 0
11523 -11244 -47 0
-11524 11246 0
-11524 39 0
11524 -11246 -39 0
-11525 11244 0
-11525 44 0
11525 -11244 -44 0
-11526 11246 0
-11526 42 0
11526 -11246 -42 0
-11527 11248 0
-11527 40 0
11527 -11248 -40 0
-11528 11248 0
-11528 46 0
11528 -11248 -46 0
-11529 11250 0
-11529 92 0
11529 -11250 -92 0
-11530 11250 0
-11530 95 0
11530 -11250 -95 0
-11531 11252 0
-11531 94 0
11531 -11252 -94 0
-11532 11254 0
-11532 140 0
11532 -11254 -140 0
-11533 11256 0
-11533 188 0
11533 -11256 -188 0
-11534 11517 11518 0
-11534 -11517 -11518 0
11534 -11517 11518 0
11534 11517 -11518 0
-11535 11534 11519 0
-11535 -11534 -11519 0
11535 -11534 11519 0
11535 11534 -11519 0
-11536 11535 11520 0
-11536 -11535 -11520 0
11536 -11535 11520 0
11536 11535 -11520 0
-11537 11536 11521 0
-11537 -11536 -11521 0
11537 -11536 11521 0
11537 11536 -11521 0
-11538 11537 11522 0
-11538 -11537 -11522 0
11538 -11537 11522 0
11538 11537 -11522 0
-11539 11538 11523 0
-11539 -11538 -11523 0
11539 -11538 11523 0
11539 11538 -11523 0
-11540 11539 11524 0
-11540 -11539 -11524 0
11540 -11539 11524 0
11540 11539 -11524 0
-11541 11540 11525 0
-11541 -11540 -11525 0
11541 -11540 11525 0
11541 11540 -11525 0
-11542 11541 11526 0
-11542 -11541 -11526 0
11542 -11541 11526 0
11542 11541 -11526 0
-11543 11542 11527 0
-11543 -11542 -11527 0
11543 -11542 11527 0
11543 11542 -11527 0
-11544 11543 11528 0
-11544 -11543 -11528 0
11544 -11543 11528 0
11544 11543 -11528 0
-11545 11544 11529 0
-11545 -11544 -11529 0
11545 -11544 11529 0
11545 11544 -11529 0
-11546 11545 11530 0
-11546 -11545 -11530 0
11546 -11545 11530 0
11546 11545 -11530 0
-11547 11546 11531 0
-11547 -11546 -11531 0
11547 -11546 11531 0
11547 11546 -11531 0
-11548 11547 11532 0
-11548 -11547 -11532 0
11548 -11547 11532 0
11548 11547 -11532 0
-11549 11548 11533 0
-11549 -11548 -11533 0
11549 -11548 11533 0
11549 11548 -11533 0
-11549 0
-11550 7 0
-11550 31 0
11550 -7 -31 0
-11551 11550 0
-11551 33 0
11551 -11550 -33 0
-11552 14 0
-11552 31 0
11552 -14 -31 0
-11553 11552 0
-11553 33 0
11553 -11552 -33 0
-11554 7 0
-11554 32 0
11554 -7 -32 0
-11555 11554 0
-11555 33 0
11555 -11554 -33 0
-11556 14 0
-11556 30 0
11556 -14 -30 0
-11557 11556 0
-11557 33 0
11557 -11556 -33 0
-11558 9 0
-11558 32 0
11558 -9 -32 0
-11559 11558 0
-11559 33 0
11559 -11558 -33 0
-11560 9 0
-11560 30 0
11560 -9 -30 0
-11561 11560 0
-11561 33 0
11561 -11560 -33 0
-11562 26 0
-11562 12 0
11562 -26 -12 0
-11563 11562 0
-11563 33 0
11563 -11562 -33 0
-11564 24 0
-11564 12 0
11564 -24 -12 0
-11565 11564 0
-11565 33 0
11565 -11564 -33 0
-11566 26 0
-11566 16 0
11566 -26 -16 0
-11567 11566 0
-11567 33 0
11567 -11566 -33 0
-11568 24 0
-11568 8 0
11568 -24 -8 0
-11569 11568 0
-11569 33 0
11569 -11568 -33 0
-11570 19 0
-11570 16 0
11570 -19 -16 0
-11571 11570 0
-11571 33 0
11571 -11570 -33 0
-11572 19 0
-11572 8 0
11572 -19 -8 0
-11573 11572 0
-11573 33 0
11573 -11572 -33 0
-11574 55 0
-11574 79 0
11574 -55 -79 0
-11575 11574 0
-11575 81 0
11575 -11574 -81 0
-11576 55 0
-11576 80 0
11576 -55 -80 0
-11577 11576 0
-11577 81 0
11577 -11576 -81 0
-11578 57 0
-11578 80 0
11578 -57 -80 0
-11579 11578 0
-11579 81 0
11579 -11578 -81 0
-11580 103 0
-11580 127 0
11580 -103 -127 0
-11581 11580 0
-11581 129 0
11581 -11580 -129 0
-11582 151 0
-11582 175 0
11582 -151 -175 0
-11583 11582 0
-11583 177 0
11583 -11582 -177 0
-11584 11551 11553 0
-11584 -11551 -11553 0
11584 -11551 11553 0
11584 11551 -11553 0
-11585 11584 11555 0
-11585 -11584 -11555 0
11585 -11584 11555 0
11585 11584 -11555 0
-11586 11585 11557 0
-11586 -11585 -11557 0
11586 -11585 11557 0
11586 11585 -11557 0
-11587 11586 11559 0
-11587 -11586 -11559 0
11587 -11586 11559 0
11587 11586 -11559 0
-11588 11587 11561 0
-11588 -11587 -11561 0
11588 -11587 11561 0
11588 11587 -11561 0
-11589 11588 11563 0
-11589 -11588 -11563 0
11589 -11588 11563 0
11589 11588 -11563 0
-11590 11589 11565 0
-11590 -11589 -11565 0
11590 -11589 11565 0
11590 11589 -11565 0
-11591 11590 11567 0
-11591 -11590 -11567 0
11591 -11590 11567 0
11591 11590 -11567 0
-11592 11591 11569 0
-11592 -11591 -11569 0
11592 -11591 11569 0
11592 11591 -11569 0
-11593 11592 11571 0
-11593 -11592 -11571 0
11593 -11592 11571 0
11593 11592 -11571 0
-11594 11593 11573 0
-11594 -11593 -11573 0
11594 -11593 11573 0
11594 11593 -11573 0
-11595 11594 11575 0
-11595 -11594 -11575 0
11595 -11594 11575 0
11595 11594 -11575 0
-11596 11595 11577 0
-11596 -11595 -11577 0
11596 -11595 11577 0
11596 11595 -11577 0
-11597 11596 11579 0
-11597 -11596 -11579 0
11597 -11596 11579 0
11597 11596 -11579 0
-11598 11597 11581 0
-11598 -11597 -11581 0
11598 -11597 11581 0
11598 11597 -11581 0
-11599 11598 11583 0
-11599 -11598 -11583 0
11599 -11598 11583 0
11599 11598 -11583 0
-11599 0
-11600 11550 0
-11600 34 0
11600 -11550 -34 0
-11601 11552 0
-11601 36 0
11601 -11552 -36 0
-11602 11554 0
-11602 34 0
11602 -11554 -34 0
-11603 11556 0
-11603 36 0
11603 -11556 -36 0
-11604 11558 0
-11604 35 0
11604 -11558 -35 0
-11605 11560 0
-11605 35 0
11605 -11560 -35 0
-11606 11562 0
-11606 37 0
11606 -11562 -37 0
-11607 11564 0
-11607 45 0
11607 -11564 -45 0
-11608 11566 0
-11608 37 0
11608 -11566 -37 0
-11609 11568 0
-11609 45 0
11609 -11568 -45 0
-11610 11570 0
-11610 41 0
11610 -11570 -41 0
-11611 11572 0
-11611 41 0
11611 -11572 -41 0
-11612 11574 0
-11612 82 0
11612 -11574 -82 0
-11613 11576 0
-11613 82 0
11613 -11576 -82 0
-11614 11578 0
-11614 83 0
11614 -11578 -83 0
-11615 11580 0
-11615 130 0
11615 -11580 -130 0
-11616 11582 0
-11616 178 0
11616 -11582 -178 0
-11617 11600 11601 0
-11617 -11600 -11601 0
11617 -11600 11601 0
11617 11600 -11601 0
-11618 11617 11602 0
-11618 -11617 -11602 0
11618 -11617 11602 0
11618 11617 -11602 0
-11619 11618 11603 0
-11619 -11618 -11603 0
11619 -11618 11603 0
11619 11618 -11603 0
-11620 11619 11604 0
-11620 -11619 -11604 0
11620 -11619 11604 0
11620 11619 -11604 0
-11621 11620 11605 0
-11621 -11620 -11605 0
11621 -11620 11605 0
11621 11620 -11605 0
-11622 11621 11606 0
-11622 -11621 -11606 0
11622 -11621 11606 0
11622 11621 -11606 0
-11623 11622 11607 0
-11623 -11622 -11607 0
11623 -11622 11607 0
11623 11622 -11607 0
-11624 11623 11608 0
-11624 -11623 -11608 0
11624 -11623 11608 0
11624 11623 -11608 0
-11625 11624 11609 0
-11625 -11624 -11609 0
11625 -11624 11609 0
11625 11624 -11609 0
-11626 11625 11610 0
-11626 -11625 -11610 0
11626 -11625 11610 0
11626 11625 -11610 0
-11627 11626 11611 0
-11627 -11626 -11611 0
11627 -11626 11611 0
11627 11626 -11611 0
-11628 11627 11612 0
-11628 -11627 -11612 0
11628 -11627 11612 0
11628 11627 -11612 0
-11629 11628 11613 0
-11629 -11628 -11613 0
11629 -11628 11613 0
11629 11628 -11613 0
-11630 11629 11614 0
-11630 -11629 -11614 0
11630 -11629 11614 0
11630 11629 -11614 0
-11631 11630 11615 0
-11631 -11630 -11615 0
11631 -11630 11615 0
11631 11630 -11615 0
-11632 11631 11616 0
-11632 -11631 -11616 0
11632 -11631 11616 0
11632 11631 -11616 0
-11632 0
-11633 11550 0
-11633 35 0
11633 -11550 -35 0
-11634 11552 0
-11634 35 0
11634 -11552 -35 0
-11635 11554 0
-11635 36 0
11635 -11554 -36 0
-11636 11556 0
-11636 34 0
11636 -11556 -34 0
-11637 11558 0
-11637 36 0
11637 -11558 -36 0
-11638 11560 0
-11638 34 0
11638 -11560 -34 0
-11639 11562 0
-11639 41 0
11639 -11562 -41 0
-11640 11564 0
-11640 41 0
11640 -11564 -41 0
-11641 11566 0
-11641 45 0
11641 -11566 -45 0
-11642 11568 0
-11642 37 0
11642 -11568 -37 0
-11643 11570 0
-11643 45 0
11643 -11570 -45 0
-11644 11572 0
-11644 37 0
11644 -11572 -37 0
-11645 11574 0
-11645 83 0
11645 -11574 -83 0
-11646 11576 0
-11646 84 0
11646 -11576 -84 0
-11647 11578 0
-11647 84 0
11647 -11578 -84 0
-11648 11580 0
-11648 131 0
11648 -11580 -131 0
-11649 11582 0
-11649 179 0
11649 -11582 -179 0
-11650 11633 11634 0
-11650 -11633 -11634 0
11650 -11633 11634 0
11650 11633 -11634 0
-11651 11650 11635 0
-11651 -11650 -11635 0
11651 -11650 11635 0
11651 11650 -11635 0
-11652 11651 11636 0
-11652 -11651 -11636 0
11652 -11651 11636 0
11652 11651 -11636 0
-11653 11652 11637 0
-11653 -11652 -11637 0
11653 -11652 11637 0
11653 11652 -11637 0
-11654 11653 11638 0
-11654 -11653 -11638 0
11654 -11653 11638 0
11654 11653 -11638 0
-11655 11654 11639 0
-11655 -11654 -11639 0
11655 -11654 11639 0
11655 11654 -11639 0
-11656 11655 11640 0
-11656 -11655 -11640 0
11656 -11655 11640 0
11656 11655 -11640 0
-11657 11656 11641 0
-11657 -11656 -11641 0
11657 -11656 11641 0
11657 11656 -11641 0
-11658 11657 11642 0
-11658 -11657 -11642 0
11658 -11657 11642 0
11658 11657 -11642 0
-11659 11658 11643 0
-11659 -11658 -11643 0
11659 -11658 11643 0
11659 11658 -11643 0
-11660 11659 11644 0
-11660 -11659 -11644 0
11660 -11659 11644 0
11660 11659 -11644 0
-11661 11660 11645 0
-11661 -11660 -11645 0
11661 -11660 11645 0
11661 11660 -11645 0
-11662 11661 11646 0
-11662 -11661 -11646 0
11662 -11661 11646 0
11662 11661 -11646 0
-11663 11662 11647 0
-11663 -11662 -11647 0
11663 -11662 11647 0
11663 11662 -11647 0
-11664 11663 11648 0
-11664 -11663 -11648 0
11664 -11663 11648 0
11664 11663 -11648 0
-11665 11664 11649 0
-11665 -11664 -11649 0
11665 -11664 11649 0
11665 11664 -11649 0
-11665 0
-11666 11550 0
-11666 36 0
11666 -11550 -36 0
-11667 11552 0
-11667 34 0
11667 -11552 -34 0
-11668 11554 0
-11668 35 0
11668 -11554 -35 0
-11669 11556 0
-11669 35 0
11669 -11556 -35 0
-11670 11558 0
-11670 34 0
11670 -11558 -34 0
-11671 11560 0
-11671 36 0
11671 -11560 -36 0
-11672 11562 0
-11672 45 0
11672 -11562 -45 0
-11673 11564 0
-11673 37 0
11673 -11564 -37 0
-11674 11566 0
-11674 41 0
11674 -11566 -41 0
-11675 11568 0
-11675 41 0
11675 -11568 -41 0
-11676 11570 0
-11676 37 0
11676 -11570 -37 0
-11677 11572 0
-11677 45 0
11677 -11572 -45 0
-11678 11574 0
-11678 84 0
11678 -11574 -84 0
-11679 11576 0
-11679 83 0
11679 -11576 -83 0
-11680 11578 0
-11680 82 0
11680 -11578 -82 0
-11681 11580 0
-11681 132 0
11681 -11580 -132 0
-11682 11582 0
-11682 180 0
11682 -11582 -180 0
-11683 11666 11667 0
-11683 -11666 -11667 0
11683 -11666 11667 0
11683 11666 -11667 0
-11684 11683 11668 0
-11684 -11683 -11668 0
11684 -11683 11668 0
11684 11683 -11668 0
-11685 11684 11669 0
-11685 -11684 -11669 0
11685 -11684 11669 0
11685 11684 -11669 0
-11686 11685 11670 0
-11686 -11685 -11670 0
11686 -11685 11670 0
11686 11685 -11670 0
-11687 11686 11671 0
-11687 -11686 -11671 0
11687 -11686 11671 0
11687 11686 -11671 0
-11688 11687 11672 0
-11688 -11687 -11672 0
11688 -11687 11672 0
11688 11687 -11672 0
-11689 11688 11673 0
-11689 -11688 -11673 0
11689 -11688 11673 0
11689 11688 -11673 0
-11690 11689 11674 0
-11690 -11689 -11674 0
11690 -11689 11674 0
11690 11689 -11674 0
-11691 11690 11675 0
-11691 -11690 -11675 0
11691 -11690 11675 0
11691 11690 -11675 0
-11692 11691 11676 0
-11692 -11691 -11676 0
11692 -11691 11676 0
11692 11691 -11676 0
-11693 11692 11677 0
-11693 -11692 -11677 0
11693 -11692 11677 0
11693 11692 -11677 0
-11694 11693 11678 0
-11694 -11693 -11678 0
11694 -11693 11678 0
11694 11693 -11678 0
-11695 11694 11679 0
-11695 -11694 -11679 0
11695 -11694 11679 0
11695 11694 -11679 0
-11696 11695 11680 0
-11696 -11695 -11680 0
11696 -11695 11680 0
11696 11695 -11680 0
-11697 11696 11681 0
-11697 -11696 -11681 0
11697 -11696 11681 0
11697 11696 -11681 0
-11698 11697 11682 0
-11698 -11697 -11682 0
11698 -11697 11682 0
11698 11697 -11682 0
-11698 0
-11699 11550 0
-11699 37 0
11699 -11550 -37 0
-11700 11552 0
-11700 45 0
11700 -11552 -45 0
-11701 11554 0
-11701 37 0
11701 -11554 -37 0
-11702 11556 0
-11702 45 0
11702 -11556 -45 0
-11703 11558 0
-11703 41 0
11703 -11558 -41 0
-11704 11560 0
-11704 41 0
11704 -11560 -41 0
-11705 11562 0
-11705 34 0
11705 -11562 -34 0
-11706 11564 0
-11706 36 0
11706 -11564 -36 0
-11707 11566 0
-11707 34 0
11707 -11566 -34 0
-11708 11568 0
-11708 36 0
11708 -11568 -36 0
-11709 11570 0
-11709 35 0
11709 -11570 -35 0
-11710 11572 0
-11710 35 0
11710 -11572 -35 0
-11711 11574 0
-11711 85 0
11711 -11574 -85 0
-11712 11576 0
-11712 85 0
11712 -11576 -85 0
-11713 11578 0
-11713 89 0
11713 -11578 -89 0
-11714 11580 0
-11714 133 0
11714 -11580 -133 0
-11715 11582 0
-11715 181 0
11715 -11582 -181 0
-11716 11699 11700 0
-11716 -11699 -11700 0
11716 -11699 11700 0
11716 11699 -11700 0
-11717 11716 11701 0
-11717 -11716 -11701 0
11717 -11716 11701 0
11717 11716 -11701 0
-11718 11717 11702 0
-11718 -11717 -11702 0
11718 -11717 11702 0
11718 11717 -11702 0
-11719 11718 11703 0
-11719 -11718 -11703 0
11719 -11718 11703 0
11719 11718 -11703 0
-11720 11719 11704 0
-11720 -11719 -11704 0
11720 -11719 11704 0
11720 11719 -11704 0
-11721 11720 11705 0
-11721 -11720 -11705 0
11721 -11720 11705 0
11721 11720 -11705 0
-11722 11721 11706 0
-11722 -11721 -11706 0
11722 -11721 11706 0
11722 11721 -11706 0
-11723 11722 11707 0
-11723 -11722 -11707 0
11723 -11722 11707 0
11723 11722 -11707 0
-11724 11723 11708 0
-11724 -11723 -11708 0
11724 -11723 11708 0
11724 11723 -11708 0
-11725 11724 11709 0
-11725 -11724 -11709 0
11725 -11724 11709 0
11725 11724 -11709 0
-11726 11725 11710 0
-11726 -11725 -11710 0
11726 -11725 11710 0
11726 11725 -11710 0
-11727 11726 11711 0
-11727 -11726 -11711 0
11727 -11726 11711 0
11727 11726 -11711 0
-11728 11727 11712 0
-11728 -11727 -11712 0
11728 -11727 11712 0
11728 11727 -11712 0
-11729 11728 11713 0
-11729 -11728 -11713 0
11729 -11728 11713 0
11729 11728 -11713 0
-11730 11729 11714 0
-11730 -11729 -11714 0
11730 -11729 11714 0
11730 11729 -11714 0
-11731 11730 11715 0
-11731 -11730 -11715 0
11731 -11730 11715 0
11731 11730 -11715 0
-11731 0
-11732 11550 0
-11732 38 0
11732 -11550 -38 0
-11733 11552 0
-11733 48 0
11733 -11552 -48 0
-11734 11554 0
-11734 38 0
11734 -11554 -38 0
-11735 11556 0
-11735 48 0
11735 -11556 -48 0
-11736 11558 0
-11736 43 0
11736 -11558 -43 0
-11737 11560 0
-11737 43 0
11737 -11560 -43 0
-11738 11562 0
-11738 38 0
11738 -11562 -38 0
-11739 11564 0
-11739 48 0
11739 -11564 -48 0
-11740 11566 0
-11740 38 0
11740 -11566 -38 0
-11741 11568 0
-11741 48 0
11741 -11568 -48 0
-11742 11570 0
-11742 43 0
11742 -11570 -43 0
-11743 11572 0
-11743 43 0
11743 -11572 -43 0
-11744 11574 0
-11744 86 0
11744 -11574 -86 0
-11745 11576 0
-11745 86 0
11745 -11576 -86 0
-11746 11578 0
-11746 91 0
11746 -11578 -91 0
-11747 11580 0
-11747 134 0
11747 -11580 -134 0
-11748 11582 0
-11748 182 0
11748 -11582 -182 0
-11749 11732 11733 0
-11749 -11732 -11733 0
11749 -11732 11733 0
11749 11732 -11733 0
-11750 11749 11734 0
-11750 -11749 -11734 0
11750 -11749 11734 0
11750 11749 -11734 0
-11751 11750 11735 0
-11751 -11750 -11735 0
11751 -11750 11735 0
11751 11750 -11735 0
-11752 11751 11736 0
-11752 -11751 -11736 0
11752 -11751 11736 0
11752 11751 -11736 0
-11753 11752 11737 0
-11753 -11752 -11737 0
11753 -11752 11737 0
11753 11752 -11737 0
-11754 11753 11738 0
-11754 -11753 -11738 0
11754 -11753 11738 0
11754 11753 -11738 0
-11755 11754 11739 0
-11755 -11754 -11739 0
11755 -11754 11739 0
11755 11754 -11739 0
-11756 11755 11740 0
-11756 -11755 -11740 0
11756 -11755 11740 0
11756 11755 -11740 0
-11757 11756 11741 0
-11757 -11756 -11741 0
11757 -11756 11741 0
11757 11756 -11741 0
-11758 11757 11742 0
-11758 -11757 -11742 0
11758 -11757 11742 0
11758 11757 -11742 0
-11759 11758 11743 0
-11759 -11758 -11743 0
11759 -11758 11743 0
11759 11758 -11743 0
-11760 11759 11744 0
-11760 -11759 -11744 0
11760 -11759 11744 0
11760 11759 -11744 0
-11761 11760 11745 0
-11761 -11760 -11745 0
11761 -11760 11745 0
11761 11760 -11745 0
-11762 11761 11746 0
-11762 -11761 -11746 0
11762 -11761 11746 0
11762 11761 -11746 0
-11763 11762 11747 0
-11763 -11762 -11747 0
11763 -11762 11747 0
11763 11762 -11747 0
-11764 11763 11748 0
-11764 -11763 -11748 0
11764 -11763 11748 0
11764 11763 -11748 0
-11764 0
-11765 11550 0
-11765 39 0
11765 -11550 -39 0
-11766 11552 0
-11766 47 0
11766 -11552 -47 0
-11767 11554 0
-11767 40 0
11767 -11554 -40 0
-11768 11556 0
-11768 46 0
11768 -11556 -46 0
-11769 11558 0
-11769 44 0
11769 -11558 -44 0
-11770 11560 0
-11770 42 0
11770 -11560 -42 0
-11771 11562 0
-11771 42 0
11771 -11562 -42 0
-11772 11564 0
-11772 44 0
11772 -11564 -44 0
-11773 11566 0
-11773 46 0
11773 -11566 -46 0
-11774 11568 0
-11774 40 0
11774 -11568 -40 0
-11775 11570 0
-11775 47 0
11775 -11570 -47 0
-11776 11572 0
-11776 39 0
11776 -11572 -39 0
-11777 11574 0
-11777 87 0
11777 -11574 -87 0
-11778 11576 0
-11778 88 0
11778 -11576 -88 0
-11779 11578 0
-11779 92 0
11779 -11578 -92 0
-11780 11580 0
-11780 135 0
11780 -11580 -135 0
-11781 11582 0
-11781 183 0
11781 -11582 -183 0
-11782 11765 11766 0
-11782 -11765 -11766 0
11782 -11765 11766 0
11782 11765 -11766 0
-11783 11782 11767 0
-11783 -11782 -11767 0
11783 -11782 11767 0
11783 11782 -11767 0
-11784 11783 11768 0
-11784 -11783 -11768 0
11784 -11783 11768 0
11784 11783 -11768 0
-11785 11784 11769 0
-11785 -11784 -11769 0
11785 -11784 11769 0
11785 11784 -11769 0
-11786 11785 11770 0
-11786 -11785 -11770 0
11786 -11785 11770 0
11786 11785 -11770 0
-11787 11786 11771 0
-11787 -11786 -11771 0
11787 -11786 11771 0
11787 11786 -11771 0
-11788 11787 11772 0
-11788 -11787 -11772 0
11788 -11787 11772 0
11788 11787 -11772 0
-11789 11788 11773 0
-11789 -11788 -11773 0
11789 -11788 11773 0
11789 11788 -11773 0
-11790 11789 11774 0
-11790 -11789 -11774 0
11790 -11789 11774 0
11790 11789 -11774 0
-11791 11790 11775 0
-11791 -11790 -11775 0
11791 -11790 11775 0
11791 11790 -11775 0
-11792 11791 11776 0
-11792 -11791 -11776 0
11792 -11791 11776 0
11792 11791 -11776 0
-11793 11792 11777 0
-11793 -11792 -11777 0
11793 -11792 11777 0
11793 11792 -11777 0
-11794 11793 11778 0
-11794 -11793 -11778 0
11794 -11793 11778 0
11794 11793 -11778 0
-11795 11794 11779 0
-11795 -11794 -11779 0
11795 -11794 11779 0
11795 11794 -11779 0
-11796 11795 11780 0
-11796 -11795 -11780 0
11796 -11795 11780 0
11796 11795 -11780 0
-11797 11796 11781 0
-11797 -11796 -11781 0
11797 -11796 11781 0
11797 11796 -11781 0
-11797 0
-11798 11550 0
-11798 40 0
11798 -11550 -40 0
-11799 11552 0
-11799 46 0
11799 -11552 -46 0
-11800 11554 0
-11800 39 0
11800 -11554 -39 0
-11801 11556 0
-11801 47 0
11801 -11556 -47 0
-11802 11558 0
-11802 42 0
11802 -11558 -42 0
-11803 11560 0
-11803 44 0
11803 -11560 -44 0
-11804 11562 0
-11804 46 0
11804 -11562 -46 0
-11805 11564 0
-11805 40 0
11805 -11564 -40 0
-11806 11566 0
-11806 42 0
11806 -11566 -42 0
-11807 11568 0
-11807 44 0
11807 -11568 -44 0
-11808 11570 0
-11808 39 0
11808 -11570 -39 0
-11809 11572 0
-11809 47 0
11809 -11572 -47 0
-11810 11574 0
-11810 88 0
11810 -11574 -88 0
-11811 11576 0
-11811 87 0
11811 -11576 -87 0
-11812 11578 0
-11812 90 0
11812 -11578 -90 0
-11813 11580 0
-11813 136 0
11813 -11580 -136 0
-11814 11582 0
-11814 184 0
11814 -11582 -184 0
-11815 11798 11799 0
-11815 -11798 -11799 0
11815 -11798 11799 0
11815 11798 -11799 0
-11816 11815 11800 0
-11816 -11815 -11800 0
11816 -11815 11800 0
11816 11815 -11800 0
-11817 11816 11801 0
-11817 -11816 -11801 0
11817 -11816 11801 0
11817 11816 -11801 0
-11818 11817 11802 0
-11818 -11817 -11802 0
11818 -11817 11802 0
11818 11817 -11802 0
-11819 11818 11803 0
-11819 -11818 -11803 0
11819 -11818 11803 0
11819 11818 -11803 0
-11820 11819 11804 0
-11820 -11819 -11804 0
11820 -11819 11804 0
11820 11819 -11804 0
-11821 11820 11805 0
-11821 -11820 -11805 0
11821 -11820 11805 0
11821 11820 -11805 0
-11822 11821 11806 0
-11822 -11821 -11806 0
11822 -11821 11806 0
11822 11821 -11806 0
-11823 11822 11807 0
-11823 -11822 -11807 0
11823 -11822 11807 0
11823 11822 -11807 0
-11824 11823 11808 0
-11824 -11823 -11808 0
11824 -11823 11808 0
11824 11823 -11808 0
-11825 11824 11809 0
-11825 -11824 -11809 0
11825 -11824 11809 0
11825 11824 -11809 0
-11826 11825 11810 0
-11826 -11825 -11810 0
11826 -11825 11810 0
11826 11825 -11810 0
-11827 11826 11811 0
-11827 -11826 -11811 0
11827 -11826 11811 0
11827 11826 -11811 0
-11828 11827 11812 0
-11828 -11827 -11812 0
11828 -11827 11812 0
11828 11827 -11812 0
-11829 11828 11813 0
-11829 -11828 -11813 0
11829 -11828 11813 0
11829 11828 -11813 0
-11830 11829 11814 0
-11830 -11829 -11814 0
11830 -11829 11814 0
11830 11829 -11814 0
-11830 0
-11831 11550 0
-11831 41 0
11831 -11550 -41 0
-11832 11552 0
-11832 41 0
11832 -11552 -41 0
-11833 11554 0
-11833 45 0
11833 -11554 -45 0
-11834 11556 0
-11834 37 0
11834 -11556 -37 0
-11835 11558 0
-11835 45 0
11835 -11558 -45 0
-11836 11560 0
-11836 37 0
11836 -11560 -37 0
-11837 11562 0
-11837 35 0
11837 -11562 -35 0
-11838 11564 0
-11838 35 0
11838 -11564 -35 0
-11839 11566 0
-11839 36 0
11839 -11566 -36 0
-11840 11568 0
-11840 34 0
11840 -11568 -34 0
-11841 11570 0
-11841 36 0
11841 -11570 -36 0
-11842 11572 0
-11842 34 0
11842 -11572 -34 0
-11843 11574 0
-11843 89 0
11843 -11574 -89 0
-11844 11576 0
-11844 93 0
11844 -11576 -93 0
-11845 11578 0
-11845 93 0
11845 -11578 -93 0
-11846 11580 0
-11846 137 0
11846 -11580 -137 0
-11847 11582 0
-11847 185 0
11847 -11582 -185 0
-11848 11831 11832 0
-11848 -11831 -11832 0
11848 -11831 11832 0
11848 11831 -11832 0
-11849 11848 11833 0
-11849 -11848 -11833 0
11849 -11848 11833 0
11849 11848 -11833 0
-11850 11849 11834 0
-11850 -11849 -11834 0
11850 -11849 11834 0
11850 11849 -11834 0
-11851 11850 11835 0
-11851 -11850 -11835 0
11851 -11850 11835 0
11851 11850 -11835 0
-11852 11851 11836 0
-11852 -11851 -11836 0
11852 -11851 11836 0
11852 11851 -11836 0
-11853 11852 11837 0
-11853 -11852 -11837 0
11853 -11852 11837 0
11853 11852 -11837 0
-11854 11853 11838 0
-11854 -11853 -11838 0
11854 -11853 11838 0
11854 11853 -11838 0
-11855 11854 11839 0
-11855 -11854 -11839 0
11855 -11854 11839 0
11855 11854 -11839 0
-11856 11855 11840 0
-11856 -11855 -11840 0
11856 -11855 11840 0
11856 11855 -11840 0
-11857 11856 11841 0
-11857 -11856 -11841 0
11857 -11856 11841 0
11857 11856 -11841 0
-11858 11857 11842 0
-11858 -11857 -11842 0
11858 -11857 11842 0
11858 11857 -11842 0
-11859 11858 11843 0
-11859 -11858 -11843 0
11859 -11858 11843 0
11859 11858 -11843 0
-11860 11859 11844 0
-11860 -11859 -11844 0
11860 -11859 11844 0
11860 11859 -11844 0
-11861 11860 11845 0
-11861 -11860 -11845 0
11861 -11860 11845 0
11861 11860 -11845 0
-11862 11861 11846 0
-11862 -11861 -11846 0
11862 -11861 11846 0
11862 11861 -11846 0
-11863 11862 11847 0
-11863 -11862 -11847 0
11863 -11862 11847 0
11863 11862 -11847 0
-11863 0
-11864 11550 0
-11864 42 0
11864 -11550 -42 0
-11865 11552 0
-11865 44 0
11865 -11552 -44 0
-11866 11554 0
-11866 46 0
11866 -11554 -46 0
-11867 11556 0
-11867 40 0
11867 -11556 -40 0
-11868 11558 0
-11868 47 0
11868 -11558 -47 0
-11869 11560 0
-11869 39 0
11869 -11560 -39 0
-11870 11562 0
-11870 39 0
11870 -11562 -39 0
-11871 11564 0
-11871 47 0
11871 -11564 -47 0
-11872 11566 0
-11872 40 0
11872 -11566 -40 0
-11873 11568 0
-11873 46 0
11873 -11568 -46 0
-11874 11570 0
-11874 44 0
11874 -11570 -44 0
-11875 11572 0
-11875 42 0
11875 -11572 -42 0
-11876 11574 0
-11876 90 0
11876 -11574 -90 0
-11877 11576 0
-11877 94 0
11877 -11576 -94 0
-11878 11578 0
-11878 95 0
11878 -11578 -95 0
-11879 11580 0
-11879 138 0
11879 -11580 -138 0
-11880 11582 0
-11880 186 0
11880 -11582 -186 0
-11881 11864 11865 0
-11881 -11864 -11865 0
11881 -11864 11865 0
11881 11864 -11865 0
-11882 11881 11866 0
-11882 -11881 -11866 0
11882 -11881 11866 0
11882 11881 -11866 0
-11883 11882 11867 0
-11883 -11882 -11867 0
11883 -11882 11867 0
11883 11882 -11867 0
-11884 11883 11868 0
-11884 -11883 -11868 0
11884 -11883 11868 0
11884 11883 -11868 0
-11885 11884 11869 0
-11885 -11884 -11869 0
11885 -11884 11869 0
11885 11884 -11869 0
-11886 11885 11870 0
-11886 -11885 -11870 0
11886 -11885 11870 0
11886 11885 -11870 0
-11887 11886 11871 0
-11887 -11886 -11871 0
11887 -11886 11871 0
11887 11886 -11871 0
-11888 11887 11872 0
-11888 -11887 -11872 0
11888 -11887 11872 0
11888 11887 -11872 0
-11889 11888 11873 0
-11889 -11888 -11873 0
11889 -11888 11873 0
11889 11888 -11873 0
-11890 11889 11874 0
-11890 -11889 -11874 0
11890 -11889 11874 0
11890 11889 -11874 0
-11891 11890 11875 0
-11891 -11890 -11875 0
11891 -11890 11875 0
11891 11890 -11875 0
-11892 11891 11876 0
-11892 -11891 -11876 0
11892 -11891 11876 0
11892 11891 -11876 0
-11893 11892 11877 0
-11893 -11892 -11877 0
11893 -11892 11877 0
11893 11892 -11877 0
-11894 11893 11878 0
-11894 -11893 -11878 0
11894 -11893 11878 0
11894 11893 -11878 0
-11895 11894 11879 0
-11895 -11894 -11879 0
11895 -11894 11879 0
11895 11894 -11879 0
-11896 11895 11880 0
-11896 -11895 -11880 0
11896 -11895 11880 0
11896 11895 -11880 0
-11896 0
-11897 11550 0
-11897 43 0
11897 -11550 -43 0
-11898 11552 0
-11898 43 0
11898 -11552 -43 0
-11899 11554 0
-11899 48 0
11899 -11554 -48 0
-11900 11556 0
-11900 38 0
11900 -11556 -38 0
-11901 11558 0
-11901 48 0
11901 -11558 -48 0
-11902 11560 0
-11902 38 0
11902 -11560 -38 0
-11903 11562 0
-11903 43 0
11903 -11562 -43 0
-11904 11564 0
-11904 43 0
11904 -11564 -43 0
-11905 11566 0
-11905 48 0
11905 -11566 -48 0
-11906 11568 0
-11906 38 0
11906 -11568 -38 0
-11907 11570 0
-11907 48 0
11907 -11570 -48 0
-11908 11572 0
-11908 38 0
11908 -11572 -38 0
-11909 11574 0
-11909 91 0
11909 -11574 -91 0
-11910 11576 0
-11910 96 0
11910 -11576 -96 0
-11911 11578 0
-11911 96 0
11911 -11578 -96 0
-11912 11580 0
-11912 139 0
11912 -11580 -139 0
-11913 11582 0
-11913 187 0
11913 -11582 -187 0
-11914 11897 11898 0
-11914 -11897 -11898 0
11914 -11897 11898 0
11914 11897 -11898 0
-11915 11914 11899 0
-11915 -11914 -11899 0
11915 -11914 11899 0
11915 11914 -11899 0
-11916 11915 11900 0
-11916 -11915 -11900 0
11916 -11915 11900 0
11916 11915 -11900 0
-11917 11916 11901 0
-11917 -11916 -11901 0
11917 -11916 11901 0
11917 11916 -11901 0
-11918 11917 11902 0
-11918 -11917 -11902 0
11918 -11917 11902 0
11918 11917 -11902 0
-11919 11918 11903 0
-11919 -11918 -11903 0
11919 -11918 11903 0
11919 11918 -11903 0
-11920 11919 11904 0
-11920 -11919 -11904 0
11920 -11919 11904 0
11920 11919 -11904 0
-11921 11920 11905 0
-11921 -11920 -11905 0
11921 -11920 11905 0
11921 11920 -11905 0
-11922 11921 11906 0
-11922 -11921 -11906 0
11922 -11921 11906 0
11922 11921 -11906 0
-11923 11922 11907 0
-11923 -11922 -11907 0
11923 -11922 11907 0
11923 11922 -11907 0
-11924 11923 11908 0
-11924 -11923 -11908 0
11924 -11923 11908 0
11924 11923 -11908 0
-11925 11924 11909 0
-11925 -11924 -11909 0
11925 -11924 11909 0
11925 11924 -11909 0
-11926 11925 11910 0
-11926 -11925 -11910 0
11926 -11925 11910 0
11926 11925 -11910 0
-11927 11926 11911 0
-11927 -11926 -11911 0
11927 -11926 11911 0
11927 11926 -11911 0
-11928 11927 11912 0
-11928 -11927 -11912 0
11928 -11927 11912 0
11928 11927 -11912 0
-11929 11928 11913 0
-11929 -11928 -11913 0
11929 -11928 11913 0
11929 11928 -11913 0
-11929 0
-11930 11550 0
-11930 44 0
11930 -11550 -44 0
-11931 11552 0
-11931 42 0
11931 -11552 -42 0
-11932 11554 0
-11932 47 0
11932 -11554 -47 0
-11933 11556 0
-11933 39 0
11933 -11556 -39 0
-11934 11558 0
-11934 46 0
11934 -11558 -46 0
-11935 11560 0
-11935 40 0
11935 -11560 -40 0
-11936 11562 0
-11936 47 0
11936 -11562 -47 0
-11937 11564 0
-11937 39 0
11937 -11564 -39 0
-11938 11566 0
-11938 44 0
11938 -11566 -44 0
-11939 11568 0
-11939 42 0
11939 -11568 -42 0
-11940 11570 0
-11940 40 0
11940 -11570 -40 0
-11941 11572 0
-11941 46 0
11941 -11572 -46 0
-11942 11574 0
-11942 92 0
11942 -11574 -92 0
-11943 11576 0
-11943 95 0
11943 -11576 -95 0
-11944 11578 0
-11944 94 0
11944 -11578 -94 0
-11945 11580 0
-11945 140 0
11945 -11580 -140 0
-11946 11582 0
-11946 188 0
11946 -11582 -188 0
-11947 11930 11931 0
-11947 -11930 -11931 0
11947 -11930 11931 0
11947 11930 -11931 0
-11948 11947 11932 0
-11948 -11947 -11932 0
11948 -11947 11932 0
11948 11947 -11932 0
-11949 11948 11933 0
-11949 -11948 -11933 0
11949 -11948 11933 0
11949 11948 -11933 0
-11950 11949 11934 0
-11950 -11949 -11934 0
11950 -11949 11934 0
11950 11949 -11934 0
-11951 11950 11935 0
-11951 -11950 -11935 0
11951 -11950 11935 0
11951 11950 -11935 0
-11952 11951 11936 0
-11952 -11951 -11936 0
11952 -11951 11936 0
11952 11951 -11936 0
-11953 11952 11937 0
-11953 -11952 -11937 0
11953 -11952 11937 0
11953 11952 -11937 0
-11954 11953 11938 0
-11954 -11953 -11938 0
11954 -11953 11938 0
11954 11953 -11938 0
-11955 11954 11939 0
-11955 -11954 -11939 0
11955 -11954 11939 0
11955 11954 -11939 0
-11956 11955 11940 0
-11956 -11955 -11940 0
11956 -11955 11940 0
11956 11955 -11940 0
-11957 11956 11941 0
-11957 -11956 -11941 0
11957 -11956 11941 0
11957 11956 -11941 0
-11958 11957 11942 0
-11958 -11957 -11942 0
11958 -11957 11942 0
11958 11957 -11942 0
-11959 11958 11943 0
-11959 -11958 -11943 0
11959 -11958 11943 0
11959 11958 -11943 0
-11960 11959 11944 0
-11960 -11959 -11944 0
11960 -11959 11944 0
11960 11959 -11944 0
-11961 11960 11945 0
-11961 -11960 -11945 0
11961 -11960 11945 0
11961 11960 -11945 0
-11962 11961 11946 0
-11962 -11961 -11946 0
11962 -11961 11946 0
11962 11961 -11946 0
-11962 0
-11963 11550 0
-11963 45 0
11963 -11550 -45 0
-11964 11552 0
-11964 37 0
11964 -11552 -37 0
-11965 11554 0
-11965 41 0
11965 -11554 -41 0
-11966 11556 0
-11966 41 0
11966 -11556 -41 0
-11967 11558 0
-11967 37 0
11967 -11558 -37 0
-11968 11560 0
-11968 45 0
11968 -11560 -45 0
-11969 11562 0
-11969 36 0
11969 -11562 -36 0
-11970 11564 0
-11970 34 0
11970 -11564 -34 0
-11971 11566 0
-11971 35 0
11971 -11566 -35 0
-11972 11568 0
-11972 35 0
11972 -11568 -35 0
-11973 11570 0
-11973 34 0
11973 -11570 -34 0
-11974 11572 0
-11974 36 0
11974 -11572 -36 0
-11975 11574 0
-11975 93 0
11975 -11574 -93 0
-11976 11576 0
-11976 89 0
11976 -11576 -89 0
-11977 11578 0
-11977 85 0
11977 -11578 -85 0
-11978 11580 0
-11978 141 0
11978 -11580 -141 0
-11979 11582 0
-11979 189 0
11979 -11582 -189 0
-11980 11963 11964 0
-11980 -11963 -11964 0
11980 -11963 11964 0
11980 11963 -11964 0
-11981 11980 11965 0
-11981 -11980 -11965 0
11981 -11980 11965 0
11981 11980 -11965 0
-11982 11981 11966 0
-11982 -11981 -11966 0
11982 -11981 11966 0
11982 11981 -11966 0
-11983 11982 11967 0
-11983 -11982 -11967 0
11983 -11982 11967 0
11983 11982 -11967 0
-11984 11983 11968 0
-11984 -11983 -11968 0
11984 -11983 11968 0
11984 11983 -11968 0
-11985 11984 11969 0
-11985 -11984 -11969 0
11985 -11984 11969 0
11985 11984 -11969 0
-11986 11985 11970 0
-11986 -11985 -11970 0
11986 -11985 11970 0
11986 11985 -11970 0
-11987 11986 11971 0
-11987 -11986 -11971 0
11987 -11986 11971 0
11987 11986 -11971 0
-11988 11987 11972 0
-11988 -11987 -11972 0
11988 -11987 11972 0
11988 11987 -11972 0
-11989 11988 11973 0
-11989 -11988 -11973 0
11989 -11988 11973 0
11989 11988 -11973 0
-11990 11989 11974 0
-11990 -11989 -11974 0
11990 -11989 11974 0
11990 11989 -11974 0
-11991 11990 11975 0
-11991 -11990 -11975 0
11991 -11990 11975 0
11991 11990 -11975 0
-11992 11991 11976 0
-11992 -11991 -11976 0
11992 -11991 11976 0
11992 11991 -11976 0
-11993 11992 11977 0
-11993 -11992 -11977 0
11993 -11992 11977 0
11993 11992 -11977 0
-11994 11993 11978 0
-11994 -11993 -11978 0
11994 -11993 11978 0
11994 11993 -11978 0
-11995 11994 11979 0
-11995 -11994 -11979 0
11995 -11994 11979 0
11995 11994 -11979 0
-11995 0
-11996 11550 0
-11996 46 0
11996 -11550 -46 0
-11997 11552 0
-11997 40 0
11997 -11552 -40 0
-11998 11554 0
-11998 42 0
11998 -11554 -42 0
-11999 11556 0
-11999 44 0
11999 -11556 -44 0
-12000 11558 0
-12000 39 0
12000 -11558 -39 0
-12001 11560 0
-12001 47 0
12001 -11560 -47 0
-12002 11562 0
-12002 40 0
12002 -11562 -40 0
-12003 11564 0
-12003 46 0
12003 -11564 -46 0
-12004 11566 0
-12004 39 0
12004 -11566 -39 0
-12005 11568 0
-12005 47 0
12005 -11568 -47 0
-12006 11570 0
-12006 42 0
12006 -11570 -42 0
-12007 11572 0
-12007 44 0
12007 -11572 -44 0
-12008 11574 0
-12008 94 0
12008 -11574 -94 0
-12009 11576 0
-12009 90 0
12009 -11576 -90 0
-12010 11578 0
-12010 87 0
12010 -11578 -87 0
-12011 11580 0
-12011 142 0
12011 -11580 -142 0
-12012 11582 0
-12012 190 0
12012 -11582 -190 0
-12013 11996 11997 0
-12013 -11996 -11997 0
12013 -11996 11997 0
12013 11996 -11997 0
-12014 12013 11998 0
-12014 -12013 -11998 0
12014 -12013 11998 0
12014 12013 -11998 0
-12015 12014 11999 0
-12015 -12014 -11999 0
12015 -12014 11999 0
12015 12014 -11999 0
-12016 12015 12000 0
-12016 -12015 -12000 0
12016 -12015 12000 0
12016 12015 -12000 0
-12017 12016 12001 0
-12017 -12016 -12001 0
12017 -12016 12001 0
12017 12016 -12001 0
-12018 12017 12002 0
-12018 -12017 -12002 0
12018 -12017 12002 0
12018 12017 -12002 0
-12019 12018 12003 0
-12019 -12018 -12003 0
12019 -12018 12003 0
12019 12018 -12003 0
-12020 12019 12004 0
-12020 -12019 -12004 0
12020 -12019 12004 0
12020 12019 -12004 0
-12021 12020 12005 0
-12021 -12020 -12005 0
12021 -12020 12005 0
12021 12020 -12005 0
-12022 12021 12006 0
-12022 -12021 -12006 0
12022 -12021 12006 0
12022 12021 -12006 0
-12023 12022 12007 0
-12023 -12022 -12007 0
12023 -12022 12007 0
12023 12022 -12007 0
-12024 12023 12008 0
-12024 -12023 -12008 0
12024 -12023 12008 0
12024 12023 -12008 0
-12025 12024 12009 0
-12025 -12024 -12009 0
12025 -12024 12009 0
12025 12024 -12009 0
-12026 12025 12010 0
-12026 -12025 -12010 0
12026 -12025 12010 0
12026 12025 -12010 0
-12027 12026 12011 0
-12027 -12026 -12011 0
12027 -12026 12011 0
12027 12026 -12011 0
-12028 12027 12012 0
-12028 -12027 -12012 0
12028 -12027 12012 0
12028 12027 -12012 0
-12028 0
-12029 11550 0
-12029 47 0
12029 -11550 -47 0
-12030 11552 0
-12030 39 0
12030 -11552 -39 0
-12031 11554 0
-12031 44 0
12031 -11554 -44 0
-12032 11556 0
-12032 42 0
12032 -11556 -42 0
-12033 11558 0
-12033 40 0
12033 -11558 -40 0
-12034 11560 0
-12034 46 0
12034 -11560 -46 0
-12035 11562 0
-12035 44 0
12035 -11562 -44 0
-12036 11564 0
-12036 42 0
12036 -11564 -42 0
-12037 11566 0
-12037 47 0
12037 -11566 -47 0
-12038 11568 0
-12038 39 0
12038 -11568 -39 0
-12039 11570 0
-12039 46 0
12039 -11570 -46 0
-12040 11572 0
-12040 40 0
12040 -11572 -40 0
-12041 11574 0
-12041 95 0
12041 -11574 -95 0
-12042 11576 0
-12042 92 0
12042 -11576 -92 0
-12043 11578 0
-12043 88 0
12043 -11578 -88 0
-12044 11580 0
-12044 143 0
12044 -11580 -143 0
-12045 11582 0
-12045 191 0
12045 -11582 -191 0
-12046 12029 12030 0
-12046 -12029 -12030 0
12046 -12029 12030 0
12046 12029 -12030 0
-12047 12046 12031 0
-12047 -12046 -12031 0
12047 -12046 12031 0
12047 12046 -12031 0
-12048 12047 12032 0
-12048 -12047 -12032 0
12048 -12047 12032 0
12048 12047 -12032 0
-12049 12048 12033 0
-12049 -12048 -12033 0
12049 -12048 12033 0
12049 12048 -12033 0
-12050 12049 12034 0
-12050 -12049 -12034 0
12050 -12049 12034 0
12050 12049 -12034 0
-12051 12050 12035 0
-12051 -12050 -12035 0
12051 -12050 12035 0
12051 12050 -12035 0
-12052 12051 12036 0
-12052 -12051 -12036 0
12052 -12051 12036 0
12052 12051 -12036 0
-12053 12052 12037 0
-12053 -12052 -12037 0
12053 -12052 12037 0
12053 12052 -12037 0
-12054 12053 12038 0
-12054 -12053 -12038 0
12054 -12053 12038 0
12054 12053 -12038 0
-12055 12054 12039 0
-12055 -12054 -12039 0
12055 -12054 12039 0
12055 12054 -12039 0
-12056 12055 12040 0
-12056 -12055 -12040 0
12056 -12055 12040 0
12056 12055 -12040 0
-12057 12056 12041 0
-12057 -12056 -12041 0
12057 -12056 12041 0
12057 12056 -12041 0
-12058 12057 12042 0
-12058 -12057 -12042 0
12058 -12057 12042 0
12058 12057 -12042 0
-12059 12058 12043 0
-12059 -12058 -12043 0
12059 -12058 12043 0
12059 12058 -12043 0
-12060 12059 12044 0
-12060 -12059 -12044 0
12060 -12059 12044 0
12060 12059 -12044 0
-12061 12060 12045 0
-12061 -12060 -12045 0
12061 -12060 12045 0
12061 12060 -12045 0
-12061 0
-12062 11550 0
-12062 48 0
12062 -11550 -48 0
-12063 11552 0
-12063 38 0
12063 -11552 -38 0
-12064 11554 0
-12064 43 0
12064 -11554 -43 0
-12065 11556 0
-12065 43 0
12065 -11556 -43 0
-12066 11558 0
-12066 38 0
12066 -11558 -38 0
-12067 11560 0
-12067 48 0
12067 -11560 -48 0
-12068 11562 0
-12068 48 0
12068 -11562 -48 0
-12069 11564 0
-12069 38 0
12069 -11564 -38 0
-12070 11566 0
-12070 43 0
12070 -11566 -43 0
-12071 11568 0
-12071 43 0
12071 -11568 -43 0
-12072 11570 0
-12072 38 0
12072 -11570 -38 0
-12073 11572 0
-12073 48 0
12073 -11572 -48 0
-12074 11574 0
-12074 96 0
12074 -11574 -96 0
-12075 11576 0
-12075 91 0
12075 -11576 -91 0
-12076 11578 0
-12076 86 0
12076 -11578 -86 0
-12077 11580 0
-12077 144 0
12077 -11580 -144 0
-12078 11582 0
-12078 192 0
12078 -11582 -192 0
-12079 12062 12063 0
-12079 -12062 -12063 0
12079 -12062 12063 0
12079 12062 -12063 0
-12080 12079 12064 0
-12080 -12079 -12064 0
12080 -12079 12064 0
12080 12079 -12064 0
-12081 12080 12065 0
-12081 -12080 -12065 0
12081 -12080 12065 0
12081 12080 -12065 0
-12082 12081 12066 0
-12082 -12081 -12066 0
12082 -12081 12066 0
12082 12081 -12066 0
-12083 12082 12067 0
-12083 -12082 -12067 0
12083 -12082 12067 0
12083 12082 -12067 0
-12084 12083 12068 0
-12084 -12083 -12068 0
12084 -12083 12068 0
12084 12083 -12068 0
-12085 12084 12069 0
-12085 -12084 -12069 0
12085 -12084 12069 0
12085 12084 -12069 0
-12086 12085 12070 0
-12086 -12085 -12070 0
12086 -12085 12070 0
12086 12085 -12070 0
-12087 12086 12071 0
-12087 -12086 -12071 0
12087 -12086 12071 0
12087 12086 -12071 0
-12088 12087 12072 0
-12088 -12087 -12072 0
12088 -12087 12072 0
12088 12087 -12072 0
-12089 12088 12073 0
-12089 -12088 -12073 0
12089 -12088 12073 0
12089 12088 -12073 0
-12090 12089 12074 0
-12090 -12089 -12074 0
12090 -12089 12074 0
12090 12089 -12074 0
-12091 12090 12075 0
-12091 -12090 -12075 0
12091 -12090 12075 0
12091 12090 -12075 0
-12092 12091 12076 0
-12092 -12091 -12076 0
12092 -12091 12076 0
12092 12091 -12076 0
-12093 12092 12077 0
-12093 -12092 -12077 0
12093 -12092 12077 0
12093 12092 -12077 0
-12094 12093 12078 0
-12094 -12093 -12078 0
12094 -12093 12078 0
12094 12093 -12078 0
-12094 0
-12095 8 0
-12095 30 0
12095 -8 -30 0
-12096 12095 0
-12096 33 0
12096 -12095 -33 0
-12097 16 0
-12097 32 0
12097 -16 -32 0
-12098 12097 0
-12098 33 0
12098 -12097 -33 0
-12099 12 0
-12099 31 0
12099 -12 -31 0
-12100 12099 0
-12100 33 0
12100 -12099 -33 0
-12101 56 0
-12101 78 0
12101 -56 -78 0
-12102 12101 0
-12102 81 0
12102 -12101 -81 0
-12103 60 0
-12103 79 0
12103 -60 -79 0
-12104 12103 0
-12104 81 0
12104 -12103 -81 0
-12105 104 0
-12105 126 0
12105 -104 -126 0
-12106 12105 0
-12106 129 0
12106 -12105 -129 0
-12107 152 0
-12107 174 0
12107 -152 -174 0
-12108 12107 0
-12108 177 0
12108 -12107 -177 0
-12109 12096 12098 0
-12109 -12096 -12098 0
12109 -12096 12098 0
12109 12096 -12098 0
-12110 12109 12096 0
-12110 -12109 -12096 0
12110 -12109 12096 0
12110 12109 -12096 0
-12111 12110 12098 0
-12111 -12110 -12098 0
12111 -12110 12098 0
12111 12110 -12098 0
-12112 12111 12100 0
-12112 -12111 -12100 0
12112 -12111 12100 0
12112 12111 -12100 0
-12113 12112 12100 0
-12113 -12112 -12100 0
12113 -12112 12100 0
12113 12112 -12100 0
-12114 12113 12096 0
-12114 -12113 -12096 0
12114 -12113 12096 0
12114 12113 -12096 0
-12115 12114 12098 0
-12115 -12114 -12098 0
12115 -12114 12098 0
12115 12114 -12098 0
-12116 12115 12096 0
-12116 -12115 -12096 0
12116 -12115 12096 0
12116 12115 -12096 0
-12117 12116 12098 0
-12117 -12116 -12098 0
12117 -12116 12098 0
12117 12116 -12098 0
-12118 12117 12100 0
-12118 -12117 -12100 0
12118 -12117 12100 0
12118 12117 -12100 0
-12119 12118 12100 0
-12119 -12118 -12100 0
12119 -12118 12100 0
12119 12118 -12100 0
-12120 12119 12102 0
-12120 -12119 -12102 0
12120 -12119 12102 0
12120 12119 -12102 0
-12121 12120 12102 0
-12121 -12120 -12102 0
12121 -12120 12102 0
12121 12120 -12102 0
-12122 12121 12104 0
-12122 -12121 -12104 0
12122 -12121 12104 0
12122 12121 -12104 0
-12123 12122 12106 0
-12123 -12122 -12106 0
12123 -12122 12106 0
12123 12122 -12106 0
-12124 12123 12108 0
-12124 -12123 -12108 0
12124 -12123 12108 0
12124 12123 -12108 0
-12124 0
-12125 12095 0
-12125 34 0
12125 -12095 -34 0
-12126 12097 0
-12126 36 0
12126 -12097 -36 0
-12127 12099 0
-12127 35 0
12127 -12099 -35 0
-12128 12095 0
-12128 37 0
12128 -12095 -37 0
-12129 12097 0
-12129 45 0
12129 -12097 -45 0
-12130 12099 0
-12130 41 0
12130 -12099 -41 0
-12131 12101 0
-12131 82 0
12131 -12101 -82 0
-12132 12103 0
-12132 83 0
12132 -12103 -83 0
-12133 12105 0
-12133 130 0
12133 -12105 -130 0
-12134 12107 0
-12134 178 0
12134 -12107 -178 0
-12135 12125 12126 0
-12135 -12125 -12126 0
12135 -12125 12126 0
12135 12125 -12126 0
-12136 12135 12125 0
-12136 -12135 -12125 0
12136 -12135 12125 0
12136 12135 -12125 0
-12137 12136 12126 0
-12137 -12136 -12126 0
12137 -12136 12126 0
12137 12136 -12126 0
-12138 12137 12127 0
-12138 -12137 -12127 0
12138 -12137 12127 0
12138 12137 -12127 0
-12139 12138 12127 0
-12139 -12138 -12127 0
12139 -12138 12127 0
12139 12138 -12127 0
-12140 12139 12128 0
-12140 -12139 -12128 0
12140 -12139 12128 0
12140 12139 -12128 0
-12141 12140 12129 0
-12141 -12140 -12129 0
12141 -12140 12129 0
12141 12140 -12129 0
-12142 12141 12128 0
-12142 -12141 -12128 0
12142 -12141 12128 0
12142 12141 -12128 0
-12143 12142 12129 0
-12143 -12142 -12129 0
12143 -12142 12129 0
12143 12142 -12129 0
-12144 12143 12130 0
-12144 -12143 -12130 0
12144 -12143 12130 0
12144 12143 -12130 0
-12145 12144 12130 0
-12145 -12144 -12130 0
12145 -12144 12130 0
12145 12144 -12130 0
-12146 12145 12131 0
-12146 -12145 -12131 0
12146 -12145 12131 0
12146 12145 -12131 0
-12147 12146 12131 0
-12147 -12146 -12131 0
12147 -12146 12131 0
12147 12146 -12131 0
-12148 12147 12132 0
-12148 -12147 -12132 0
12148 -12147 12132 0
12148 12147 -12132 0
-12149 12148 12133 0
-12149 -12148 -12133 0
12149 -12148 12133 0
12149 12148 -12133 0
-12150 12149 12134 0
-12150 -12149 -12134 0
12150 -12149 12134 0
12150 12149 -12134 0
-12150 0
-12151 12095 0
-12151 35 0
12151 -12095 -35 0
-12152 12097 0
-12152 35 0
12152 -12097 -35 0
-12153 12095 0
-12153 36 0
12153 -12095 -36 0
-12154 12097 0
-12154 34 0
12154 -12097 -34 0
-12155 12099 0
-12155 36 0
12155 -12099 -36 0
-12156 12099 0
-12156 34 0
12156 -12099 -34 0
-12157 12095 0
-12157 41 0
12157 -12095 -41 0
-12158 12097 0
-12158 41 0
12158 -12097 -41 0
-12159 12095 0
-12159 45 0
12159 -12095 -45 0
-12160 12097 0
-12160 37 0
12160 -12097 -37 0
-12161 12099 0
-12161 45 0
12161 -12099 -45 0
-12162 12099 0
-12162 37 0
12162 -12099 -37 0
-12163 12101 0
-12163 83 0
12163 -12101 -83 0
-12164 12101 0
-12164 84 0
12164 -12101 -84 0
-12165 12103 0
-12165 84 0
12165 -12103 -84 0
-12166 12105 0
-12166 131 0
12166 -12105 -131 0
-12167 12107 0
-12167 179 0
12167 -12107 -179 0
-12168 12151 12152 0
-12168 -12151 -12152 0
12168 -12151 12152 0
12168 12151 -12152 0
-12169 12168 12153 0
-12169 -12168 -12153 0
12169 -12168 12153 0
12169 12168 -12153 0
-12170 12169 12154 0
-12170 -12169 -12154 0
12170 -12169 12154 0
12170 12169 -12154 0
-12171 12170 12155 0
-12171 -12170 -12155 0
12171 -12170 12155 0
12171 12170 -12155 0
-12172 12171 12156 0
-12172 -12171 -12156 0
12172 -12171 12156 0
12172 12171 -12156 0
-12173 12172 12157 0
-12173 -12172 -12157 0
12173 -12172 12157 0
12173 12172 -12157 0
-12174 12173 12158 0
-12174 -12173 -12158 0
12174 -12173 12158 0
12174 12173 -12158 0
-12175 12174 12159 0
-12175 -12174 -12159 0
12175 -12174 12159 0
12175 12174 -12159 0
-12176 12175 12160 0
-12176 -12175 -12160 0
12176 -12175 12160 0
12176 12175 -12160 0
-12177 12176 12161 0
-12177 -12176 -12161 0
12177 -12176 12161 0
12177 12176 -12161 0
-12178 12177 12162 0
-12178 -12177 -12162 0
12178 -12177 12162 0
12178 12177 -12162 0
-12179 12178 12163 0
-12179 -12178 -12163 0
12179 -12178 12163 0
12179 12178 -12163 0
-12180 12179 12164 0
-12180 -12179 -12164 0
12180 -12179 12164 0
12180 12179 -12164 0
-12181 12180 12165 0
-12181 -12180 -12165 0
12181 -12180 12165 0
12181 12180 -12165 0
-12182 12181 12166 0
-12182 -12181 -12166 0
12182 -12181 12166 0
12182 12181 -12166 0
-12183 12182 12167 0
-12183 -12182 -12167 0
12183 -12182 12167 0
12183 12182 -12167 0
-12183 0
-12184 12095 0
-12184 38 0
12184 -12095 -38 0
-12185 12097 0
-12185 48 0
12185 -12097 -48 0
-12186 12099 0
-12186 43 0
12186 -12099 -43 0
-12187 12101 0
-12187 86 0
12187 -12101 -86 0
-12188 12103 0
-12188 91 0
12188 -12103 -91 0
-12189 12105 0
-12189 134 0
12189 -12105 -134 0
-12190 12107 0
-12190 182 0
12190 -12107 -182 0
-12191 12184 12185 0
-12191 -12184 -12185 0
12191 -12184 12185 0
12191 12184 -12185 0
-12192 12191 12184 0
-12192 -12191 -12184 0
12192 -12191 12184 0
12192 12191 -12184 0
-12193 12192 12185 0
-12193 -12192 -12185 0
12193 -12192 12185 0
12193 12192 -12185 0
-12194 12193 12186 0
-12194 -12193 -12186 0
12194 -12193 12186 0
12194 12193 -12186 0
-12195 12194 12186 0
-12195 -12194 -12186 0
12195 -12194 12186 0
12195 12194 -12186 0
-12196 12195 12184 0
-12196 -12195 -12184 0
12196 -12195 12184 0
12196 12195 -12184 0
-12197 12196 12185 0
-12197 -12196 -12185 0
12197 -12196 12185 0
12197 12196 -12185 0
-12198 12197 12184 0
-12198 -12197 -12184 0
12198 -12197 12184 0
12198 12197 -12184 0
-12199 12198 12185 0
-12199 -12198 -12185 0
12199 -12198 12185 0
12199 12198 -12185 0
-12200 12199 12186 0
-12200 -12199 -12186 0
12200 -12199 12186 0
12200 12199 -12186 0
-12201 12200 12186 0
-12201 -12200 -12186 0
12201 -12200 12186 0
12201 12200 -12186 0
-12202 12201 12187 0
-12202 -12201 -12187 0
12202 -12201 12187 0
12202 12201 -12187 0
-12203 12202 12187 0
-12203 -12202 -12187 0
12203 -12202 12187 0
12203 12202 -12187 0
-12204 12203 12188 0
-12204 -12203 -12188 0
12204 -12203 12188 0
12204 12203 -12188 0
-12205 12204 12189 0
-12205 -12204 -12189 0
12205 -12204 12189 0
12205 12204 -12189 0
-12206 12205 12190 0
-12206 -12205 -12190 0
12206 -12205 12190 0
12206 12205 -12190 0
-12206 0
-12207 12095 0
-12207 39 0
12207 -12095 -39 0
-12208 12097 0
-12208 47 0
12208 -12097 -47 0
-12209 12095 0
-12209 40 0
12209 -12095 -40 0
-12210 12097 0
-12210 46 0
12210 -12097 -46 0
-12211 12099 0
-12211 44 0
12211 -12099 -44 0
-12212 12099 0
-12212 42 0
12212 -12099 -42 0
-12213 12095 0
-12213 42 0
12213 -12095 -42 0
-12214 12097 0
-12214 44 0
12214 -12097 -44 0
-12215 12095 0
-12215 46 0
12215 -12095 -46 0
-12216 12097 0
-12216 40 0
12216 -12097 -40 0
-12217 12099 0
-12217 47 0
12217 -12099 -47 0
-12218 12099 0
-12218 39 0
12218 -12099 -39 0
-12219 12101 0
-12219 87 0
12219 -12101 -87 0
-12220 12101 0
-12220 88 0
12220 -12101 -88 0
-12221 12103 0
-12221 92 0
12221 -12103 -92 0
-12222 12105 0
-12222 135 0
12222 -12105 -135 0
-12223 12107 0
-12223 183 0
12223 -12107 -183 0
-12224 12207 12208 0
-12224 -12207 -12208 0
12224 -12207 12208 0
12224 12207 -12208 0
-12225 12224 12209 0
-12225 -12224 -12209 0
12225 -12224 12209 0
12225 12224 -12209 0
-12226 12225 12210 0
-12226 -12225 -12210 0
12226 -12225 12210 0
12226 12225 -12210 0
-12227 12226 12211 0
-12227 -12226 -12211 0
12227 -12226 12211 0
12227 12226 -12211 0
-12228 12227 12212 0
-12228 -12227 -12212 0
12228 -12227 12212 0
12228 12227 -12212 0
-12229 12228 12213 0
-12229 -12228 -12213 0
12229 -12228 12213 0
12229 12228 -12213 0
-12230 12229 12214 0
-12230 -12229 -12214 0
12230 -12229 12214 0
12230 12229 -12214 0
-12231 12230 12215 0
-12231 -12230 -12215 0
12231 -12230 12215 0
12231 12230 -12215 0
-12232 12231 12216 0
-12232 -12231 -12216 0
12232 -12231 12216 0
12232 12231 -12216 0
-12233 12232 12217 0
-12233 -12232 -12217 0
12233 -12232 12217 0
12233 12232 -12217 0
-12234 12233 12218 0
-12234 -12233 -12218 0
12234 -12233 12218 0
12234 12233 -12218 0
-12235 12234 12219 0
-12235 -12234 -12219 0
12235 -12234 12219 0
12235 12234 -12219 0
-12236 12235 12220 0
-12236 -12235 -12220 0
12236 -12235 12220 0
12236 12235 -12220 0
-12237 12236 12221 0
-12237 -12236 -12221 0
12237 -12236 12221 0
12237 12236 -12221 0
-12238 12237 12222 0
-12238 -12237 -12222 0
12238 -12237 12222 0
12238 12237 -12222 0
-12239 12238 12223 0
-12239 -12238 -12223 0
12239 -12238 12223 0
12239 12238 -12223 0
-12239 0
-12240 12095 0
-12240 43 0
12240 -12095 -43 0
-12241 12097 0
-12241 43 0
12241 -12097 -43 0
-12242 12095 0
-12242 48 0
12242 -12095 -48 0
-12243 12097 0
-12243 38 0
12243 -12097 -38 0
-12244 12099 0
-12244 48 0
12244 -12099 -48 0
-12245 12099 0
-12245 38 0
12245 -12099 -38 0
-12246 12101 0
-12246 91 0
12246 -12101 -91 0
-12247 12101 0
-12247 96 0
12247 -12101 -96 0
-12248 12103 0
-12248 96 0
12248 -12103 -96 0
-12249 12105 0
-12249 139 0
12249 -12105 -139 0
-12250 12107 0
-12250 187 0
12250 -12107 -187 0
-12251 12240 12241 0
-12251 -12240 -12241 0
12251 -12240 12241 0
12251 12240 -12241 0
-12252 12251 12242 0
-12252 -12251 -12242 0
12252 -12251 12242 0
12252 12251 -12242 0
-12253 12252 12243 0
-12253 -12252 -12243 0
12253 -12252 12243 0
12253 12252 -12243 0
-12254 12253 12244 0
-12254 -12253 -12244 0
12254 -12253 12244 0
12254 12253 -12244 0
-12255 12254 12245 0
-12255 -12254 -12245 0
12255 -12254 12245 0
12255 12254 -12245 0
-12256 12255 12240 0
-12256 -12255 -12240 0
12256 -12255 12240 0
12256 12255 -12240 0
-12257 12256 12241 0
-12257 -12256 -12241 0
12257 -12256 12241 0
12257 12256 -12241 0
-12258 12257 12242 0
-12258 -12257 -12242 0
12258 -12257 12242 0
12258 12257 -12242 0
-12259 12258 12243 0
-12259 -12258 -12243 0
12259 -12258 12243 0
12259 12258 -12243 0
-12260 12259 12244 0
-12260 -12259 -12244 0
12260 -12259 12244 0
12260 12259 -12244 0
-12261 12260 12245 0
-12261 -12260 -12245 0
12261 -12260 12245 0
12261 12260 -12245 0
-12262 12261 12246 0
-12262 -12261 -12246 0
12262 -12261 12246 0
12262 12261 -12246 0
-12263 12262 12247 0
-12263 -12262 -12247 0
12263 -12262 12247 0
12263 12262 -12247 0
-12264 12263 12248 0
-12264 -12263 -12248 0
12264 -12263 12248 0
12264 12263 -12248 0
-12265 12264 12249 0
-12265 -12264 -12249 0
12265 -12264 12249 0
12265 12264 -12249 0
-12266 12265 12250 0
-12266 -12265 -12250 0
12266 -12265 12250 0
12266 12265 -12250 0
-12266 0
-12267 12095 0
-12267 44 0
12267 -12095 -44 0
-12268 12097 0
-12268 42 0
12268 -12097 -42 0
-12269 12095 0
-12269 47 0
12269 -12095 -47 0
-12270 12097 0
-12270 39 0
12270 -12097 -39 0
-12271 12099 0
-12271 46 0
12271 -12099 -46 0
-12272 12099 0
-12272 40 0
12272 -12099 -40 0
-12273 12101 0
-12273 92 0
12273 -12101 -92 0
-12274 12101 0
-12274 95 0
12274 -12101 -95 0
-12275 12103 0
-12275 94 0
12275 -12103 -94 0
-12276 12105 0
-12276 140 0
12276 -12105 -140 0
-12277 12107 0
-12277 188 0
12277 -12107 -188 0
-12278 12267 12268 0
-12278 -12267 -12268 0
12278 -12267 12268 0
12278 12267 -12268 0
-12279 12278 12269 0
-12279 -12278 -12269 0
12279 -12278 12269 0
12279 12278 -12269 0
-12280 12279 12270 0
-12280 -12279 -12270 0
12280 -12279 12270 0
12280 12279 -12270 0
-12281 12280 12271 0
-12281 -12280 -12271 0
12281 -12280 12271 0
12281 12280 -12271 0
-12282 12281 12272 0
-12282 -12281 -12272 0
12282 -12281 12272 0
12282 12281 -12272 0
-12283 12282 12269 0
-12283 -12282 -12269 0
12283 -12282 12269 0
12283 12282 -12269 0
-12284 12283 12270 0
-12284 -12283 -12270 0
12284 -12283 12270 0
12284 12283 -12270 0
-12285 12284 12267 0
-12285 -12284 -12267 0
12285 -12284 12267 0
12285 12284 -12267 0
-12286 12285 12268 0
-12286 -12285 -12268 0
12286 -12285 12268 0
12286 12285 -12268 0
-12287 12286 12272 0
-12287 -12286 -12272 0
12287 -12286 12272 0
12287 12286 -12272 0
-12288 12287 12271 0
-12288 -12287 -12271 0
12288 -12287 12271 0
12288 12287 -12271 0
-12289 12288 12273 0
-12289 -12288 -12273 0
12289 -12288 12273 0
12289 12288 -12273 0
-12290 12289 12274 0
-12290 -12289 -12274 0
12290 -12289 12274 0
12290 12289 -12274 0
-12291 12290 12275 0
-12291 -12290 -12275 0
12291 -12290 12275 0
12291 12290 -12275 0
-12292 12291 12276 0
-12292 -12291 -12276 0
12292 -12291 12276 0
12292 12291 -12276 0
-12293 12292 12277 0
-12293 -12292 -12277 0
12293 -12292 12277 0
12293 12292 -12277 0
-12293 0
-12294 8 0
-12294 31 0
12294 -8 -31 0
-12295 12294 0
-12295 33 0
12295 -12294 -33 0
-12296 16 0
-12296 31 0
12296 -16 -31 0
-12297 12296 0
-12297 33 0
12297 -12296 -33 0
-12298 8 0
-12298 32 0
12298 -8 -32 0
-12299 12298 0
-12299 33 0
12299 -12298 -33 0
-12300 16 0
-12300 30 0
12300 -16 -30 0
-12301 12300 0
-12301 33 0
12301 -12300 -33 0
-12302 12 0
-12302 32 0
12302 -12 -32 0
-12303 12302 0
-12303 33 0
12303 -12302 -33 0
-12304 12 0
-12304 30 0
12304 -12 -30 0
-12305 12304 0
-12305 33 0
12305 -12304 -33 0
-12306 56 0
-12306 79 0
12306 -56 -79 0
-12307 12306 0
-12307 81 0
12307 -12306 -81 0
-12308 56 0
-12308 80 0
12308 -56 -80 0
-12309 12308 0
-12309 81 0
12309 -12308 -81 0
-12310 60 0
-12310 80 0
12310 -60 -80 0
-12311 12310 0
-12311 81 0
12311 -12310 -81 0
-12312 104 0
-12312 127 0
12312 -104 -127 0
-12313 12312 0
-12313 129 0
12313 -12312 -129 0
-12314 152 0
-12314 175 0
12314 -152 -175 0
-12315 12314 0
-12315 177 0
12315 -12314 -177 0
-12316 12295 12297 0
-12316 -12295 -12297 0
12316 -12295 12297 0
12316 12295 -12297 0
-12317 12316 12299 0
-12317 -12316 -12299 0
12317 -12316 12299 0
12317 12316 -12299 0
-12318 12317 12301 0
-12318 -12317 -12301 0
12318 -12317 12301 0
12318 12317 -12301 0
-12319 12318 12303 0
-12319 -12318 -12303 0
12319 -12318 12303 0
12319 12318 -12303 0
-12320 12319 12305 0
-12320 -12319 -12305 0
12320 -12319 12305 0
12320 12319 -12305 0
-12321 12320 12305 0
-12321 -12320 -12305 0
12321 -12320 12305 0
12321 12320 -12305 0
-12322 12321 12303 0
-12322 -12321 -12303 0
12322 -12321 12303 0
12322 12321 -12303 0
-12323 12322 12301 0
-12323 -12322 -12301 0
12323 -12322 12301 0
12323 12322 -12301 0
-12324 12323 12299 0
-12324 -12323 -12299 0
12324 -12323 12299 0
12324 12323 -12299 0
-12325 12324 12297 0
-12325 -12324 -12297 0
12325 -12324 12297 0
12325 12324 -12297 0
-12326 12325 12295 0
-12326 -12325 -12295 0
12326 -12325 12295 0
12326 12325 -12295 0
-12327 12326 12307 0
-12327 -12326 -12307 0
12327 -12326 12307 0
12327 12326 -12307 0
-12328 12327 12309 0
-12328 -12327 -12309 0
12328 -12327 12309 0
12328 12327 -12309 0
-12329 12328 12311 0
-12329 -12328 -12311 0
12329 -12328 12311 0
12329 12328 -12311 0
-12330 12329 12313 0
-12330 -12329 -12313 0
12330 -12329 12313 0
12330 12329 -12313 0
-12331 12330 12315 0
-12331 -12330 -12315 0
12331 -12330 12315 0
12331 12330 -12315 0
-12331 0
-12332 12294 0
-12332 34 0
12332 -12294 -34 0
-12333 12296 0
-12333 36 0
12333 -12296 -36 0
-12334 12298 0
-12334 34 0
12334 -12298 -34 0
-12335 12300 0
-12335 36 0
12335 -12300 -36 0
-12336 12302 0
-12336 35 0
12336 -12302 -35 0
-12337 12304 0
-12337 35 0
12337 -12304 -35 0
-12338 12304 0
-12338 37 0
12338 -12304 -37 0
-12339 12302 0
-12339 45 0
12339 -12302 -45 0
-12340 12300 0
-12340 37 0
12340 -12300 -37 0
-12341 12298 0
-12341 45 0
12341 -12298 -45 0
-12342 12296 0
-12342 41 0
12342 -12296 -41 0
-12343 12294 0
-12343 41 0
12343 -12294 -41 0
-12344 12306 0
-12344 82 0
12344 -12306 -82 0
-12345 12308 0
-12345 82 0
12345 -12308 -82 0
-12346 12310 0
-12346 83 0
12346 -12310 -83 0
-12347 12312 0
-12347 130 0
12347 -12312 -130 0
-12348 12314 0
-12348 178 0
12348 -12314 -178 0
-12349 12332 12333 0
-12349 -12332 -12333 0
12349 -12332 12333 0
12349 12332 -12333 0
-12350 12349 12334 0
-12350 -12349 -12334 0
12350 -12349 12334 0
12350 12349 -12334 0
-12351 12350 12335 0
-12351 -12350 -12335 0
12351 -12350 12335 0
12351 12350 -12335 0
-12352 12351 12336 0
-12352 -12351 -12336 0
12352 -12351 12336 0
12352 12351 -12336 0
-12353 12352 12337 0
-12353 -12352 -12337 0
12353 -12352 12337 0
12353 12352 -12337 0
-12354 12353 12338 0
-12354 -12353 -12338 0
12354 -12353 12338 0
12354 12353 -12338 0
-12355 12354 12339 0
-12355 -12354 -12339 0
12355 -12354 12339 0
12355 12354 -12339 0
-12356 12355 12340 0
-12356 -12355 -12340 0
12356 -12355 12340 0
12356 12355 -12340 0
-12357 12356 12341 0
-12357 -12356 -12341 0
12357 -12356 12341 0
12357 12356 -12341 0
-12358 12357 12342 0
-12358 -12357 -12342 0
12358 -12357 12342 0
12358 12357 -12342 0
-12359 12358 12343 0
-12359 -12358 -12343 0
12359 -12358 12343 0
12359 12358 -12343 0
-12360 12359 12344 0
-12360 -12359 -12344 0
12360 -12359 12344 0
12360 12359 -12344 0
-12361 12360 12345 0
-12361 -12360 -12345 0
12361 -12360 12345 0
12361 12360 -12345 0
-12362 12361 12346 0
-12362 -12361 -12346 0
12362 -12361 12346 0
12362 12361 -12346 0
-12363 12362 12347 0
-12363 -12362 -12347 0
12363 -12362 12347 0
12363 12362 -12347 0
-12364 12363 12348 0
-12364 -12363 -12348 0
12364 -12363 12348 0
12364 12363 -12348 0
-12364 0
-12365 12294 0
-12365 35 0
12365 -12294 -35 0
-12366 12296 0
-12366 35 0
12366 -12296 -35 0
-12367 12298 0
-12367 36 0
12367 -12298 -36 0
-12368 12300 0
-12368 34 0
12368 -12300 -34 0
-12369 12302 0
-12369 36 0
12369 -12302 -36 0
-12370 12304 0
-12370 34 0
12370 -12304 -34 0
-12371 12304 0
-12371 41 0
12371 -12304 -41 0
-12372 12302 0
-12372 41 0
12372 -12302 -41 0
-12373 12300 0
-12373 45 0
12373 -12300 -45 0
-12374 12298 0
-12374 37 0
12374 -12298 -37 0
-12375 12296 0
-12375 45 0
12375 -12296 -45 0
-12376 12294 0
-12376 37 0
12376 -12294 -37 0
-12377 12306 0
-12377 83 0
12377 -12306 -83 0
-12378 12308 0
-12378 84 0
12378 -12308 -84 0
-12379 12310 0
-12379 84 0
12379 -12310 -84 0
-12380 12312 0
-12380 131 0
12380 -12312 -131 0
-12381 12314 0
-12381 179 0
12381 -12314 -179 0
-12382 12365 12366 0
-12382 -12365 -12366 0
12382 -12365 12366 0
12382 12365 -12366 0
-12383 12382 12367 0
-12383 -12382 -12367 0
12383 -12382 12367 0
12383 12382 -12367 0
-12384 12383 12368 0
-12384 -12383 -12368 0
12384 -12383 12368 0
12384 12383 -12368 0
-12385 12384 12369 0
-12385 -12384 -12369 0
12385 -12384 12369 0
12385 12384 -12369 0
-12386 12385 12370 0
-12386 -12385 -12370 0
12386 -12385 12370 0
12386 12385 -12370 0
-12387 12386 12371 0
-12387 -12386 -12371 0
12387 -12386 12371 0
12387 12386 -12371 0
-12388 12387 12372 0
-12388 -12387 -12372 0
12388 -12387 12372 0
12388 12387 -12372 0
-12389 12388 12373 0
-12389 -12388 -12373 0
12389 -12388 12373 0
12389 12388 -12373 0
-12390 12389 12374 0
-12390 -12389 -12374 0
12390 -12389 12374 0
12390 12389 -12374 0
-12391 12390 12375 0
-12391 -12390 -12375 0
12391 -12390 12375 0
12391 12390 -12375 0
-12392 12391 12376 0
-12392 -12391 -12376 0
12392 -12391 12376 0
12392 12391 -12376 0
-12393 12392 12377 0
-12393 -12392 -12377 0
12393 -12392 12377 0
12393 12392 -12377 0
-12394 12393 12378 0
-12394 -12393 -12378 0
12394 -12393 12378 0
12394 12393 -12378 0
-12395 12394 12379 0
-12395 -12394 -12379 0
12395 -12394 12379 0
12395 12394 -12379 0
-12396 12395 12380 0
-12396 -12395 -12380 0
12396 -12395 12380 0
12396 12395 -12380 0
-12397 12396 12381 0
-12397 -12396 -12381 0
12397 -12396 12381 0
12397 12396 -12381 0
-12397 0
-12398 12294 0
-12398 36 0
12398 -12294 -36 0
-12399 12296 0
-12399 34 0
12399 -12296 -34 0
-12400 12298 0
-12400 35 0
12400 -12298 -35 0
-12401 12300 0
-12401 35 0
12401 -12300 -35 0
-12402 12302 0
-12402 34 0
12402 -12302 -34 0
-12403 12304 0
-12403 36 0
12403 -12304 -36 0
-12404 12304 0
-12404 45 0
12404 -12304 -45 0
-12405 12302 0
-12405 37 0
12405 -12302 -37 0
-12406 12300 0
-12406 41 0
12406 -12300 -41 0
-12407 12298 0
-12407 41 0
12407 -12298 -41 0
-12408 12296 0
-12408 37 0
12408 -12296 -37 0
-12409 12294 0
-12409 45 0
12409 -12294 -45 0
-12410 12306 0
-12410 84 0
12410 -12306 -84 0
-12411 12308 0
-12411 83 0
12411 -12308 -83 0
-12412 12310 0
-12412 82 0
12412 -12310 -82 0
-12413 12312 0
-12413 132 0
12413 -12312 -132 0
-12414 12314 0
-12414 180 0
12414 -12314 -180 0
-12415 12398 12399 0
-12415 -12398 -12399 0
12415 -12398 12399 0
12415 12398 -12399 0
-12416 12415 12400 0
-12416 -12415 -12400 0
12416 -12415 12400 0
12416 12415 -12400 0
-12417 12416 12401 0
-12417 -12416 -12401 0
12417 -12416 12401 0
12417 12416 -12401 0
-12418 12417 12402 0
-12418 -12417 -12402 0
12418 -12417 12402 0
12418 12417 -12402 0
-12419 12418 12403 0
-12419 -12418 -12403 0
12419 -12418 12403 0
12419 12418 -12403 0
-12420 12419 12404 0
-12420 -12419 -12404 0
12420 -12419 12404 0
12420 12419 -12404 0
-12421 12420 12405 0
-12421 -12420 -12405 0
12421 -12420 12405 0
12421 12420 -12405 0
-12422 12421 12406 0
-12422 -12421 -12406 0
12422 -12421 12406 0
12422 12421 -12406 0
-12423 12422 12407 0
-12423 -12422 -12407 0
12423 -12422 12407 0
12423 12422 -12407 0
-12424 12423 12408 0
-12424 -12423 -12408 0
12424 -12423 12408 0
12424 12423 -12408 0
-12425 12424 12409 0
-12425 -12424 -12409 0
12425 -12424 12409 0
12425 12424 -12409 0
-12426 12425 12410 0
-12426 -12425 -12410 0
12426 -12425 12410 0
12426 12425 -12410 0
-12427 12426 12411 0
-12427 -12426 -12411 0
12427 -12426 12411 0
12427 12426 -12411 0
-12428 12427 12412 0
-12428 -12427 -12412 0
12428 -12427 12412 0
12428 12427 -12412 0
-12429 12428 12413 0
-12429 -12428 -12413 0
12429 -12428 12413 0
12429 12428 -12413 0
-12430 12429 12414 0
-12430 -12429 -12414 0
12430 -12429 12414 0
12430 12429 -12414 0
-12430 0
-12431 12294 0
-12431 38 0
12431 -12294 -38 0
-12432 12296 0
-12432 48 0
12432 -12296 -48 0
-12433 12298 0
-12433 38 0
12433 -12298 -38 0
-12434 12300 0
-12434 48 0
12434 -12300 -48 0
-12435 12302 0
-12435 43 0
12435 -12302 -43 0
-12436 12304 0
-12436 43 0
12436 -12304 -43 0
-12437 12304 0
-12437 38 0
12437 -12304 -38 0
-12438 12302 0
-12438 48 0
12438 -12302 -48 0
-12439 12300 0
-12439 38 0
12439 -12300 -38 0
-12440 12298 0
-12440 48 0
12440 -12298 -48 0
-12441 12296 0
-12441 43 0
12441 -12296 -43 0
-12442 12294 0
-12442 43 0
12442 -12294 -43 0
-12443 12306 0
-12443 86 0
12443 -12306 -86 0
-12444 12308 0
-12444 86 0
12444 -12308 -86 0
-12445 12310 0
-12445 91 0
12445 -12310 -91 0
-12446 12312 0
-12446 134 0
12446 -12312 -134 0
-12447 12314 0
-12447 182 0
12447 -12314 -182 0
-12448 12431 12432 0
-12448 -12431 -12432 0
12448 -12431 12432 0
12448 12431 -12432 0
-12449 12448 12433 0
-12449 -12448 -12433 0
12449 -12448 12433 0
12449 12448 -12433 0
-12450 12449 12434 0
-12450 -12449 -12434 0
12450 -12449 12434 0
12450 12449 -12434 0
-12451 12450 12435 0
-12451 -12450 -12435 0
12451 -12450 12435 0
12451 12450 -12435 0
-12452 12451 12436 0
-12452 -12451 -12436 0
12452 -12451 12436 0
12452 12451 -12436 0
-12453 12452 12437 0
-12453 -12452 -12437 0
12453 -12452 12437 0
12453 12452 -12437 0
-12454 12453 12438 0
-12454 -12453 -12438 0
12454 -12453 12438 0
12454 12453 -12438 0
-12455 12454 12439 0
-12455 -12454 -12439 0
12455 -12454 12439 0
12455 12454 -12439 0
-12456 12455 12440 0
-12456 -12455 -12440 0
12456 -12455 12440 0
12456 12455 -12440 0
-12457 12456 12441 0
-12457 -12456 -12441 0
12457 -12456 12441 0
12457 12456 -12441 0
-12458 12457 12442 0
-12458 -12457 -12442 0
12458 -12457 12442 0
12458 12457 -12442 0
-12459 12458 12443 0
-12459 -12458 -12443 0
12459 -12458 12443 0
12459 12458 -12443 0
-12460 12459 12444 0
-12460 -12459 -12444 0
12460 -12459 12444 0
12460 12459 -12444 0
-12461 12460 12445 0
-12461 -12460 -12445 0
12461 -12460 12445 0
12461 12460 -12445 0
-12462 12461 12446 0
-12462 -12461 -12446 0
12462 -12461 12446 0
12462 12461 -12446 0
-12463 12462 12447 0
-12463 -12462 -12447 0
12463 -12462 12447 0
12463 12462 -12447 0
-12463 0
-12464 12294 0
-12464 39 0
12464 -12294 -39 0
-12465 12296 0
-12465 47 0
12465 -12296 -47 0
-12466 12298 0
-12466 40 0
12466 -12298 -40 0
-12467 12300 0
-12467 46 0
12467 -12300 -46 0
-12468 12302 0
-12468 44 0
12468 -12302 -44 0
-12469 12304 0
-12469 42 0
12469 -12304 -42 0
-12470 12306 0
-12470 87 0
12470 -12306 -87 0
-12471 12308 0
-12471 88 0
12471 -12308 -88 0
-12472 12310 0
-12472 92 0
12472 -12310 -92 0
-12473 12312 0
-12473 135 0
12473 -12312 -135 0
-12474 12314 0
-12474 183 0
12474 -12314 -183 0
-12475 12464 12465 0
-12475 -12464 -12465 0
12475 -12464 12465 0
12475 12464 -12465 0
-12476 12475 12466 0
-12476 -12475 -12466 0
12476 -12475 12466 0
12476 12475 -12466 0
-12477 12476 12467 0
-12477 -12476 -12467 0
12477 -12476 12467 0
12477 12476 -12467 0
-12478 12477 12468 0
-12478 -12477 -12468 0
12478 -12477 12468 0
12478 12477 -12468 0
-12479 12478 12469 0
-12479 -12478 -12469 0
12479 -12478 12469 0
12479 12478 -12469 0
-12480 12479 12469 0
-12480 -12479 -12469 0
12480 -12479 12469 0
12480 12479 -12469 0
-12481 12480 12468 0
-12481 -12480 -12468 0
12481 -12480 12468 0
12481 12480 -12468 0
-12482 12481 12467 0
-12482 -12481 -12467 0
12482 -12481 12467 0
12482 12481 -12467 0
-12483 12482 12466 0
-12483 -12482 -12466 0
12483 -12482 12466 0
12483 12482 -12466 0
-12484 12483 12465 0
-12484 -12483 -12465 0
12484 -12483 12465 0
12484 12483 -12465 0
-12485 12484 12464 0
-12485 -12484 -12464 0
12485 -12484 12464 0
12485 12484 -12464 0
-12486 12485 12470 0
-12486 -12485 -12470 0
12486 -12485 12470 0
12486 12485 -12470 0
-12487 12486 12471 0
-12487 -12486 -12471 0
12487 -12486 12471 0
12487 12486 -12471 0
-12488 12487 12472 0
-12488 -12487 -12472 0
12488 -12487 12472 0
12488 12487 -12472 0
-12489 12488 12473 0
-12489 -12488 -12473 0
12489 -12488 12473 0
12489 12488 -12473 0
-12490 12489 12474 0
-12490 -12489 -12474 0
12490 -12489 12474 0
12490 12489 -12474 0
-12490 0
-12491 12294 0
-12491 40 0
12491 -12294 -40 0
-12492 12296 0
-12492 46 0
12492 -12296 -46 0
-12493 12298 0
-12493 39 0
12493 -12298 -39 0
-12494 12300 0
-12494 47 0
12494 -12300 -47 0
-12495 12302 0
-12495 42 0
12495 -12302 -42 0
-12496 12304 0
-12496 44 0
12496 -12304 -44 0
-12497 12304 0
-12497 46 0
12497 -12304 -46 0
-12498 12302 0
-12498 40 0
12498 -12302 -40 0
-12499 12300 0
-12499 42 0
12499 -12300 -42 0
-12500 12298 0
-12500 44 0
12500 -12298 -44 0
-12501 12296 0
-12501 39 0
12501 -12296 -39 0
-12502 12294 0
-12502 47 0
12502 -12294 -47 0
-12503 12306 0
-12503 88 0
12503 -12306 -88 0
-12504 12308 0
-12504 87 0
12504 -12308 -87 0
-12505 12310 0
-12505 90 0
12505 -12310 -90 0
-12506 12312 0
-12506 136 0
12506 -12312 -136 0
-12507 12314 0
-12507 184 0
12507 -12314 -184 0
-12508 12491 12492 0
-12508 -12491 -12492 0
12508 -12491 12492 0
12508 12491 -12492 0
-12509 12508 12493 0
-12509 -12508 -12493 0
12509 -12508 12493 0
12509 12508 -12493 0
-12510 12509 12494 0
-12510 -12509 -12494 0
12510 -12509 12494 0
12510 12509 -12494 0
-12511 12510 12495 0
-12511 -12510 -12495 0
12511 -12510 12495 0
12511 12510 -12495 0
-12512 12511 12496 0
-12512 -12511 -12496 0
12512 -12511 12496 0
12512 12511 -12496 0
-12513 12512 12497 0
-12513 -12512 -12497 0
12513 -12512 12497 0
12513 12512 -12497 0
-12514 12513 12498 0
-12514 -12513 -12498 0
12514 -12513 12498 0
12514 12513 -12498 0
-12515 12514 12499 0
-12515 -12514 -12499 0
12515 -12514 12499 0
12515 12514 -12499 0
-12516 12515 12500 0
-12516 -12515 -12500 0
12516 -12515 12500 0
12516 12515 -12500 0
-12517 12516 12501 0
-12517 -12516 -12501 0
12517 -12516 12501 0
12517 12516 -12501 0
-12518 12517 12502 0
-12518 -12517 -12502 0
12518 -12517 12502 0
12518 12517 -12502 0
-12519 12518 12503 0
-12519 -12518 -12503 0
12519 -12518 12503 0
12519 12518 -12503 0
-12520 12519 12504 0
-12520 -12519 -12504 0
12520 -12519 12504 0
12520 12519 -12504 0
-12521 12520 12505 0
-12521 -12520 -12505 0
12521 -12520 12505 0
12521 12520 -12505 0
-12522 12521 12506 0
-12522 -12521 -12506 0
12522 -12521 12506 0
12522 12521 -12506 0
-12523 12522 12507 0
-12523 -12522 -12507 0
12523 -12522 12507 0
12523 12522 -12507 0
-12523 0
-12524 12294 0
-12524 42 0
12524 -12294 -42 0
-12525 12296 0
-12525 44 0
12525 -12296 -44 0
-12526 12298 0
-12526 46 0
12526 -12298 -46 0
-12527 12300 0
-12527 40 0
12527 -12300 -40 0
-12528 12302 0
-12528 47 0
12528 -12302 -47 0
-12529 12304 0
-12529 39 0
12529 -12304 -39 0
-12530 12306 0
-12530 90 0
12530 -12306 -90 0
-12531 12308 0
-12531 94 0
12531 -12308 -94 0
-12532 12310 0
-12532 95 0
12532 -12310 -95 0
-12533 12312 0
-12533 138 0
12533 -12312 -138 0
-12534 12314 0
-12534 186 0
12534 -12314 -186 0
-12535 12524 12525 0
-12535 -12524 -12525 0
12535 -12524 12525 0
12535 12524 -12525 0
-12536 12535 12526 0
-12536 -12535 -12526 0
12536 -12535 12526 0
12536 12535 -12526 0
-12537 12536 12527 0
-12537 -12536 -12527 0
12537 -12536 12527 0
12537 12536 -12527 0
-12538 12537 12528 0
-12538 -12537 -12528 0
12538 -12537 12528 0
12538 12537 -12528 0
-12539 12538 12529 0
-12539 -12538 -12529 0
12539 -12538 12529 0
12539 12538 -12529 0
-12540 12539 12529 0
-12540 -12539 -12529 0
12540 -12539 12529 0
12540 12539 -12529 0
-12541 12540 12528 0
-12541 -12540 -12528 0
12541 -12540 12528 0
12541 12540 -12528 0
-12542 12541 12527 0
-12542 -12541 -12527 0
12542 -12541 12527 0
12542 12541 -12527 0
-12543 12542 12526 0
-12543 -12542 -12526 0
12543 -12542 12526 0
12543 12542 -12526 0
-12544 12543 12525 0
-12544 -12543 -12525 0
12544 -12543 12525 0
12544 12543 -12525 0
-12545 12544 12524 0
-12545 -12544 -12524 0
12545 -12544 12524 0
12545 12544 -12524 0
-12546 12545 12530 0
-12546 -12545 -12530 0
12546 -12545 12530 0
12546 12545 -12530 0
-12547 12546 12531 0
-12547 -12546 -12531 0
12547 -12546 12531 0
12547 12546 -12531 0
-12548 12547 12532 0
-12548 -12547 -12532 0
12548 -12547 12532 0
12548 12547 -12532 0
-12549 12548 12533 0
-12549 -12548 -12533 0
12549 -12548 12533 0
12549 12548 -12533 0
-12550 12549 12534 0
-12550 -12549 -12534 0
12550 -12549 12534 0
12550 12549 -12534 0
-12550 0
-12551 12294 0
-12551 44 0
12551 -12294 -44 0
-12552 12296 0
-12552 42 0
12552 -12296 -42 0
-12553 12298 0
-12553 47 0
12553 -12298 -47 0
-12554 12300 0
-12554 39 0
12554 -12300 -39 0
-12555 12302 0
-12555 46 0
12555 -12302 -46 0
-12556 12304 0
-12556 40 0
12556 -12304 -40 0
-12557 12304 0
-12557 47 0
12557 -12304 -47 0
-12558 12302 0
-12558 39 0
12558 -12302 -39 0
-12559 12300 0
-12559 44 0
12559 -12300 -44 0
-12560 12298 0
-12560 42 0
12560 -12298 -42 0
-12561 12296 0
-12561 40 0
12561 -12296 -40 0
-12562 12294 0
-12562 46 0
12562 -12294 -46 0
-12563 12306 0
-12563 92 0
12563 -12306 -92 0
-12564 12308 0
-12564 95 0
12564 -12308 -95 0
-12565 12310 0
-12565 94 0
12565 -12310 -94 0
-12566 12312 0
-12566 140 0
12566 -12312 -140 0
-12567 12314 0
-12567 188 0
12567 -12314 -188 0
-12568 12551 12552 0
-12568 -12551 -12552 0
12568 -12551 12552 0
12568 12551 -12552 0
-12569 12568 12553 0
-12569 -12568 -12553 0
12569 -12568 12553 0
12569 12568 -12553 0
-12570 12569 12554 0
-12570 -12569 -12554 0
12570 -12569 12554 0
12570 12569 -12554 0
-12571 12570 12555 0
-12571 -12570 -12555 0
12571 -12570 12555 0
12571 12570 -12555 0
-12572 12571 12556 0
-12572 -12571 -12556 0
12572 -12571 12556 0
12572 12571 -12556 0
-12573 12572 12557 0
-12573 -12572 -12557 0
12573 -12572 12557 0
12573 12572 -12557 0
-12574 12573 12558 0
-12574 -12573 -12558 0
12574 -12573 12558 0
12574 12573 -12558 0
-12575 12574 12559 0
-12575 -12574 -12559 0
12575 -12574 12559 0
12575 12574 -12559 0
-12576 12575 12560 0
-12576 -12575 -12560 0
12576 -12575 12560 0
12576 12575 -12560 0
-12577 12576 12561 0
-12577 -12576 -12561 0
12577 -12576 12561 0
12577 12576 -12561 0
-12578 12577 12562 0
-12578 -12577 -12562 0
12578 -12577 12562 0
12578 12577 -12562 0
-12579 12578 12563 0
-12579 -12578 -12563 0
12579 -12578 12563 0
12579 12578 -12563 0
-12580 12579 12564 0
-12580 -12579 -12564 0
12580 -12579 12564 0
12580 12579 -12564 0
-12581 12580 12565 0
-12581 -12580 -12565 0
12581 -12580 12565 0
12581 12580 -12565 0
-12582 12581 12566 0
-12582 -12581 -12566 0
12582 -12581 12566 0
12582 12581 -12566 0
-12583 12582 12567 0
-12583 -12582 -12567 0
12583 -12582 12567 0
12583 12582 -12567 0
-12583 0
-12584 12294 0
-12584 48 0
12584 -12294 -48 0
-12585 12296 0
-12585 38 0
12585 -12296 -38 0
-12586 12298 0
-12586 43 0
12586 -12298 -43 0
-12587 12300 0
-12587 43 0
12587 -12300 -43 0
-12588 12302 0
-12588 38 0
12588 -12302 -38 0
-12589 12304 0
-12589 48 0
12589 -12304 -48 0
-12590 12306 0
-12590 96 0
12590 -12306 -96 0
-12591 12308 0
-12591 91 0
12591 -12308 -91 0
-12592 12310 0
-12592 86 0
12592 -12310 -86 0
-12593 12312 0
-12593 144 0
12593 -12312 -144 0
-12594 12314 0
-12594 192 0
12594 -12314 -192 0
-12595 12584 12585 0
-12595 -12584 -12585 0
12595 -12584 12585 0
12595 12584 -12585 0
-12596 12595 12586 0
-12596 -12595 -12586 0
12596 -12595 12586 0
12596 12595 -12586 0
-12597 12596 12587 0
-12597 -12596 -12587 0
12597 -12596 12587 0
12597 12596 -12587 0
-12598 12597 12588 0
-12598 -12597 -12588 0
12598 -12597 12588 0
12598 12597 -12588 0
-12599 12598 12589 0
-12599 -12598 -12589 0
12599 -12598 12589 0
12599 12598 -12589 0
-12600 12599 12589 0
-12600 -12599 -12589 0
12600 -12599 12589 0
12600 12599 -12589 0
-12601 12600 12588 0
-12601 -12600 -12588 0
12601 -12600 12588 0
12601 12600 -12588 0
-12602 12601 12587 0
-12602 -12601 -12587 0
12602 -12601 12587 0
12602 12601 -12587 0
-12603 12602 12586 0
-12603 -12602 -12586 0
12603 -12602 12586 0
12603 12602 -12586 0
-12604 12603 12585 0
-12604 -12603 -12585 0
12604 -12603 12585 0
12604 12603 -12585 0
-12605 12604 12584 0
-12605 -12604 -12584 0
12605 -12604 12584 0
12605 12604 -12584 0
-12606 12605 12590 0
-12606 -12605 -12590 0
12606 -12605 12590 0
12606 12605 -12590 0
-12607 12606 12591 0
-12607 -12606 -12591 0
12607 -12606 12591 0
12607 12606 -12591 0
-12608 12607 12592 0
-12608 -12607 -12592 0
12608 -12607 12592 0
12608 12607 -12592 0
-12609 12608 12593 0
-12609 -12608 -12593 0
12609 -12608 12593 0
12609 12608 -12593 0
-12610 12609 12594 0
-12610 -12609 -12594 0
12610 -12609 12594 0
12610 12609 -12594 0
-12610 0
