p cnf 12618 45461
1 2 3 4 5 6 7 8 9 10 11 12 13 14 15 16 0
17 18 19 20 21 22 23 24 25 26 27 28 29 30 31 32 0
33 34 35 36 37 38 39 40 41 42 43 44 45 46 47 48 0
-50 51 0
50 -51 0
-51 50 0
51 -50 0
-53 61 0
53 -61 0
-54 63 0
54 -63 0
-55 62 0
55 -62 0
-56 64 0
56 -64 0
-58 59 0
58 -59 0
-59 58 0
59 -58 0
-61 53 0
61 -53 0
-62 55 0
62 -55 0
-63 54 0
63 -54 0
-64 56 0
64 -56 0
-66 68 0
66 -68 0
-68 66 0
68 -66 0
-69 73 0
69 -73 0
-70 76 0
70 -76 0
-71 75 0
71 -75 0
-72 74 0
72 -74 0
-73 69 0
73 -69 0
-74 72 0
74 -72 0
-75 71 0
75 -71 0
-76 70 0
76 -70 0
-78 80 0
78 -80 0
-80 78 0
80 -78 0
-82 84 0
82 -84 0
-84 82 0
84 -82 0
-85 93 0
85 -93 0
-86 96 0
86 -96 0
-87 95 0
87 -95 0
-88 94 0
88 -94 0
-90 92 0
90 -92 0
-92 90 0
92 -90 0
-93 85 0
93 -85 0
-94 88 0
94 -88 0
-95 87 0
95 -87 0
-96 86 0
96 -86 0
-49 50 0
49 -50 0
-50 49 0
50 -49 0
-53 54 0
53 -54 0
-54 53 0
54 -53 0
-57 62 0
57 -62 0
-58 61 0
58 -61 0
-59 63 0
59 -63 0
-60 64 0
60 -64 0
-61 58 0
61 -58 0
-62 57 0
62 -57 0
-63 59 0
63 -59 0
-64 60 0
64 -60 0
-65 69 0
65 -69 0
-66 70 0
66 -70 0
-67 72 0
67 -72 0
-68 71 0
68 -71 0
-69 65 0
69 -65 0
-70 66 0
70 -66 0
-71 68 0
71 -68 0
-72 67 0
72 -67 0
-75 76 0
75 -76 0
-76 75 0
76 -75 0
-79 80 0
79 -80 0
-80 79 0
80 -79 0
-83 84 0
83 -84 0
-84 83 0
84 -83 0
-87 88 0
87 -88 0
-88 87 0
88 -87 0
-89 93 0
89 -93 0
-90 94 0
90 -94 0
-91 96 0
91 -96 0
-92 95 0
92 -95 0
-93 89 0
93 -89 0
-94 90 0
94 -90 0
-95 92 0
95 -92 0
-96 91 0
96 -91 0
-49 51 0
49 -51 0
-50 49 0
50 -49 0
-51 50 0
51 -50 0
-53 63 0
53 -63 0
-54 61 0
54 -61 0
-55 62 0
55 -62 0
-56 64 0
56 -64 0
-57 55 0
57 -55 0
-58 53 0
58 -53 0
-59 54 0
59 -54 0
-60 56 0
60 -56 0
-61 59 0
61 -59 0
-62 57 0
62 -57 0
-63 58 0
63 -58 0
-64 60 0
64 -60 0
-65 73 0
65 -73 0
-66 76 0
66 -76 0
-67 74 0
67 -74 0
-68 75 0
68 -75 0
-69 65 0
69 -65 0
-70 68 0
70 -68 0
-71 66 0
71 -66 0
-72 67 0
72 -67 0
-73 69 0
73 -69 0
-74 72 0
74 -72 0
-75 70 0
75 -70 0
-76 71 0
76 -71 0
-78 80 0
78 -80 0
-79 78 0
79 -78 0
-80 79 0
80 -79 0
-82 84 0
82 -84 0
-83 82 0
83 -82 0
-84 83 0
84 -83 0
-85 93 0
85 -93 0
-86 96 0
86 -96 0
-87 94 0
87 -94 0
-88 95 0
88 -95 0
-89 85 0
89 -85 0
-90 88 0
90 -88 0
-91 86 0
91 -86 0
-92 87 0
92 -87 0
-93 89 0
93 -89 0
-94 92 0
94 -92 0
-95 90 0
95 -90 0
-96 91 0
96 -91 0
-49 51 0
49 -51 0
-51 49 0
51 -49 0
-53 59 0
53 -59 0
-54 58 0
54 -58 0
-55 57 0
55 -57 0
-56 60 0
56 -60 0
-57 55 0
57 -55 0
-58 54 0
58 -54 0
-59 53 0
59 -53 0
-60 56 0
60 -56 0
-61 63 0
61 -63 0
-63 61 0
63 -61 0
-65 73 0
65 -73 0
-66 75 0
66 -75 0
-67 74 0
67 -74 0
-68 76 0
68 -76 0
-70 71 0
70 -71 0
-71 70 0
71 -70 0
-73 65 0
73 -65 0
-74 67 0
74 -67 0
-75 66 0
75 -66 0
-76 68 0
76 -68 0
-78 79 0
78 -79 0
-79 78 0
79 -78 0
-82 83 0
82 -83 0
-83 82 0
83 -82 0
-85 89 0
85 -89 0
-86 91 0
86 -91 0
-87 90 0
87 -90 0
-88 92 0
88 -92 0
-89 85 0
89 -85 0
-90 87 0
90 -87 0
-91 86 0
91 -86 0
-92 88 0
92 -88 0
-94 95 0
94 -95 0
-95 94 0
95 -94 0
-49 50 0
49 -50 0
-50 51 0
50 -51 0
-51 49 0
51 -49 0
-53 58 0
53 -58 0
-54 59 0
54 -59 0
-55 57 0
55 -57 0
-56 60 0
56 -60 0
-57 62 0
57 -62 0
-58 63 0
58 -63 0
-59 61 0
59 -61 0
-60 64 0
60 -64 0
-61 54 0
61 -54 0
-62 55 0
62 -55 0
-63 53 0
63 -53 0
-64 56 0
64 -56 0
-65 69 0
65 -69 0
-66 71 0
66 -71 0
-67 72 0
67 -72 0
-68 70 0
68 -70 0
-69 73 0
69 -73 0
-70 75 0
70 -75 0
-71 76 0
71 -76 0
-72 74 0
72 -74 0
-73 65 0
73 -65 0
-74 67 0
74 -67 0
-75 68 0
75 -68 0
-76 66 0
76 -66 0
-78 79 0
78 -79 0
-79 80 0
79 -80 0
-80 78 0
80 -78 0
-82 83 0
82 -83 0
-83 84 0
83 -84 0
-84 82 0
84 -82 0
-85 89 0
85 -89 0
-86 91 0
86 -91 0
-87 92 0
87 -92 0
-88 90 0
88 -90 0
-89 93 0
89 -93 0
-90 95 0
90 -95 0
-91 96 0
91 -96 0
-92 94 0
92 -94 0
-93 85 0
93 -85 0
-94 87 0
94 -87 0
-95 88 0
95 -88 0
-96 86 0
96 -86 0
49 50 51 52 53 54 55 56 57 58 59 60 61 62 63 64 0
65 66 67 68 69 70 71 72 73 74 75 76 77 78 79 80 0
81 82 83 84 85 86 87 88 89 90 91 92 93 94 95 96 0
-98 99 0
98 -99 0
-99 98 0
99 -98 0
-101 109 0
101 -109 0
-102 111 0
102 -111 0
-103 110 0
103 -110 0
-104 112 0
104 -112 0
-106 107 0
106 -107 0
-107 106 0
107 -106 0
-109 101 0
109 -101 0
-110 103 0
110 -103 0
-111 102 0
111 -102 0
-112 104 0
112 -104 0
-114 116 0
114 -116 0
-116 114 0
116 -114 0
-117 121 0
117 -121 0
-118 124 0
118 -124 0
-119 123 0
119 -123 0
-120 122 0
120 -122 0
-121 117 0
121 -117 0
-122 120 0
122 -120 0
-123 119 0
123 -119 0
-124 118 0
124 -118 0
-126 128 0
126 -128 0
-128 126 0
128 -126 0
-130 132 0
130 -132 0
-132 130 0
132 -130 0
-133 141 0
133 -141 0
-134 144 0
134 -144 0
-135 143 0
135 -143 0
-136 142 0
136 -142 0
-138 140 0
138 -140 0
-140 138 0
140 -138 0
-141 133 0
141 -133 0
-142 136 0
142 -136 0
-143 135 0
143 -135 0
-144 134 0
144 -134 0
-97 98 0
97 -98 0
-98 97 0
98 -97 0
-101 102 0
101 -102 0
-102 101 0
102 -101 0
-105 110 0
105 -110 0
-106 109 0
106 -109 0
-107 111 0
107 -111 0
-108 112 0
108 -112 0
-109 106 0
109 -106 0
-110 105 0
110 -105 0
-111 107 0
111 -107 0
-112 108 0
112 -108 0
-113 117 0
113 -117 0
-114 118 0
114 -118 0
-115 120 0
115 -120 0
-116 119 0
116 -119 0
-117 113 0
117 -113 0
-118 114 0
118 -114 0
-119 116 0
119 -116 0
-120 115 0
120 -115 0
-123 124 0
123 -124 0
-124 123 0
124 -123 0
-127 128 0
127 -128 0
-128 127 0
128 -127 0
-131 132 0
131 -132 0
-132 131 0
132 -131 0
-135 136 0
135 -136 0
-136 135 0
136 -135 0
-137 141 0
137 -141 0
-138 142 0
138 -142 0
-139 144 0
139 -144 0
-140 143 0
140 -143 0
-141 137 0
141 -137 0
-142 138 0
142 -138 0
-143 140 0
143 -140 0
-144 139 0
144 -139 0
-97 99 0
97 -99 0
-98 97 0
98 -97 0
-99 98 0
99 -98 0
-101 111 0
101 -111 0
-102 109 0
102 -109 0
-103 110 0
103 -110 0
-104 112 0
104 -112 0
-105 103 0
105 -103 0
-106 101 0
106 -101 0
-107 102 0
107 -102 0
-108 104 0
108 -104 0
-109 107 0
109 -107 0
-110 105 0
110 -105 0
-111 106 0
111 -106 0
-112 108 0
112 -108 0
-113 121 0
113 -121 0
-114 124 0
114 -124 0
-115 122 0
115 -122 0
-116 123 0
116 -123 0
-117 113 0
117 -113 0
-118 116 0
118 -116 0
-119 114 0
119 -114 0
-120 115 0
120 -115 0
-121 117 0
121 -117 0
-122 120 0
122 -120 0
-123 118 0
123 -118 0
-124 119 0
124 -119 0
-126 128 0
126 -128 0
-127 126 0
127 -126 0
-128 127 0
128 -127 0
-130 132 0
130 -132 0
-131 130 0
131 -130 0
-132 131 0
132 -131 0
-133 141 0
133 -141 0
-134 144 0
134 -144 0
-135 142 0
135 -142 0
-136 143 0
136 -143 0
-137 133 0
137 -133 0
-138 136 0
138 -136 0
-139 134 0
139 -134 0
-140 135 0
140 -135 0
-141 137 0
141 -137 0
-142 140 0
142 -140 0
-143 138 0
143 -138 0
-144 139 0
144 -139 0
-97 99 0
97 -99 0
-99 97 0
99 -97 0
-101 107 0
101 -107 0
-102 106 0
102 -106 0
-103 105 0
103 -105 0
-104 108 0
104 -108 0
-105 103 0
105 -103 0
-106 102 0
106 -102 0
-107 101 0
107 -101 0
-108 104 0
108 -104 0
-109 111 0
109 -111 0
-111 109 0
111 -109 0
-113 121 0
113 -121 0
-114 123 0
114 -123 0
-115 122 0
115 -122 0
-116 124 0
116 -124 0
-118 119 0
118 -119 0
-119 118 0
119 -118 0
-121 113 0
121 -113 0
-122 115 0
122 -115 0
-123 114 0
123 -114 0
-124 116 0
124 -116 0
-126 127 0
126 -127 0
-127 126 0
127 -126 0
-130 131 0
130 -131 0
-131 130 0
131 -130 0
-133 137 0
133 -137 0
-134 139 0
134 -139 0
-135 138 0
135 -138 0
-136 140 0
136 -140 0
-137 133 0
137 -133 0
-138 135 0
138 -135 0
-139 134 0
139 -134 0
-140 136 0
140 -136 0
-142 143 0
142 -143 0
-143 142 0
143 -142 0
-97 98 0
97 -98 0
-98 99 0
98 -99 0
-99 97 0
99 -97 0
-101 106 0
101 -106 0
-102 107 0
102 -107 0
-103 105 0
103 -105 0
-104 108 0
104 -108 0
-105 110 0
105 -110 0
-106 111 0
106 -111 0
-107 109 0
107 -109 0
-108 112 0
108 -112 0
-109 102 0
109 -102 0
-110 103 0
110 -103 0
-111 101 0
111 -101 0
-112 104 0
112 -104 0
-113 117 0
113 -117 0
-114 119 0
114 -119 0
-115 120 0
115 -120 0
-116 118 0
116 -118 0
-117 121 0
117 -121 0
-118 123 0
118 -123 0
-119 124 0
119 -124 0
-120 122 0
120 -122 0
-121 113 0
121 -113 0
-122 115 0
122 -115 0
-123 116 0
123 -116 0
-124 114 0
124 -114 0
-126 127 0
126 -127 0
-127 128 0
127 -128 0
-128 126 0
128 -126 0
-130 131 0
130 -131 0
-131 132 0
131 -132 0
-132 130 0
132 -130 0
-133 137 0
133 -137 0
-134 139 0
134 -139 0
-135 140 0
135 -140 0
-136 138 0
136 -138 0
-137 141 0
137 -141 0
-138 143 0
138 -143 0
-139 144 0
139 -144 0
-140 142 0
140 -142 0
-141 133 0
141 -133 0
-142 135 0
142 -135 0
-143 136 0
143 -136 0
-144 134 0
144 -134 0
97 98 99 100 101 102 103 104 105 106 107 108 109 110 111 112 0
113 114 115 116 117 118 119 120 121 122 123 124 125 126 127 128 0
129 130 131 132 133 134 135 136 137 138 139 140 141 142 143 144 0
-145 161 0
145 -161 0
-146 169 0
146 -169 0
-147 165 0
147 -165 0
-148 173 0
148 -173 0
-149 164 0
149 -164 0
-150 172 0
150 -172 0
-151 168 0
151 -168 0
-152 176 0
152 -176 0
-153 163 0
153 -163 0
-154 171 0
154 -171 0
-155 167 0
155 -167 0
-156 175 0
156 -175 0
-157 162 0
157 -162 0
-158 170 0
158 -170 0
-159 166 0
159 -166 0
-160 174 0
160 -174 0
-161 145 0
161 -145 0
-162 157 0
162 -157 0
-163 153 0
163 -153 0
-164 149 0
164 -149 0
-165 147 0
165 -147 0
-166 159 0
166 -159 0
-167 155 0
167 -155 0
-168 151 0
168 -151 0
-169 146 0
169 -146 0
-170 158 0
170 -158 0
-171 154 0
171 -154 0
-172 150 0
172 -150 0
-173 148 0
173 -148 0
-174 160 0
174 -160 0
-175 156 0
175 -156 0
-176 152 0
176 -152 0
-178 189 0
178 -189 0
-179 185 0
179 -185 0
-180 181 0
180 -181 0
-181 180 0
181 -180 0
-182 192 0
182 -192 0
-183 188 0
183 -188 0
-185 179 0
185 -179 0
-186 191 0
186 -191 0
-188 183 0
188 -183 0
-189 178 0
189 -178 0
-191 186 0
191 -186 0
-192 182 0
192 -182 0
-145 161 0
145 -161 0
-146 165 0
146 -165 0
-147 169 0
147 -169 0
-148 173 0
148 -173 0
-149 162 0
149 -162 0
-150 166 0
150 -166 0
-151 170 0
151 -170 0
-152 174 0
152 -174 0
-153 163 0
153 -163 0
-154 167 0
154 -167 0
-155 171 0
155 -171 0
-156 175 0
156 -175 0
-157 164 0
157 -164 0
-158 168 0
158 -168 0
-159 172 0
159 -172 0
-160 176 0
160 -176 0
-161 145 0
161 -145 0
-162 149 0
162 -149 0
-163 153 0
163 -153 0
-164 157 0
164 -157 0
-165 146 0
165 -146 0
-166 150 0
166 -150 0
-167 154 0
167 -154 0
-168 158 0
168 -158 0
-169 147 0
169 -147 0
-170 151 0
170 -151 0
-171 155 0
171 -155 0
-172 159 0
172 -159 0
-173 148 0
173 -148 0
-174 152 0
174 -152 0
-175 156 0
175 -156 0
-176 160 0
176 -160 0
-178 181 0
178 -181 0
-179 185 0
179 -185 0
-180 189 0
180 -189 0
-181 178 0
181 -178 0
-183 186 0
183 -186 0
-184 190 0
184 -190 0
-185 179 0
185 -179 0
-186 183 0
186 -183 0
-188 191 0
188 -191 0
-189 180 0
189 -180 0
-190 184 0
190 -184 0
-191 188 0
191 -188 0
-145 165 0
145 -165 0
-146 161 0
146 -161 0
-147 169 0
147 -169 0
-148 173 0
148 -173 0
-149 166 0
149 -166 0
-150 162 0
150 -162 0
-151 170 0
151 -170 0
-152 174 0
152 -174 0
-153 168 0
153 -168 0
-154 164 0
154 -164 0
-155 172 0
155 -172 0
-156 176 0
156 -176 0
-157 167 0
157 -167 0
-158 163 0
158 -163 0
-159 171 0
159 -171 0
-160 175 0
160 -175 0
-161 146 0
161 -146 0
-162 150 0
162 -150 0
-163 158 0
163 -158 0
-164 154 0
164 -154 0
-165 145 0
165 -145 0
-166 149 0
166 -149 0
-167 157 0
167 -157 0
-168 153 0
168 -153 0
-169 147 0
169 -147 0
-170 151 0
170 -151 0
-171 159 0
171 -159 0
-172 155 0
172 -155 0
-173 148 0
173 -148 0
-174 152 0
174 -152 0
-175 160 0
175 -160 0
-176 156 0
176 -156 0
-178 181 0
178 -181 0
-179 189 0
179 -189 0
-180 185 0
180 -185 0
-181 178 0
181 -178 0
-183 190 0
183 -190 0
-184 186 0
184 -186 0
-185 180 0
185 -180 0
-186 184 0
186 -184 0
-187 192 0
187 -192 0
-189 179 0
189 -179 0
-190 183 0
190 -183 0
-192 187 0
192 -187 0
-146 147 0
146 -147 0
-147 146 0
147 -146 0
-149 157 0
149 -157 0
-150 159 0
150 -159 0
-151 158 0
151 -158 0
-152 160 0
152 -160 0
-154 155 0
154 -155 0
-155 154 0
155 -154 0
-157 149 0
157 -149 0
-158 151 0
158 -151 0
-159 150 0
159 -150 0
-160 152 0
160 -152 0
-162 164 0
162 -164 0
-164 162 0
164 -162 0
-165 169 0
165 -169 0
-166 172 0
166 -172 0
-167 171 0
167 -171 0
-168 170 0
168 -170 0
-169 165 0
169 -165 0
-170 168 0
170 -168 0
-171 167 0
171 -167 0
-172 166 0
172 -166 0
-174 176 0
174 -176 0
-176 174 0
176 -174 0
-178 180 0
178 -180 0
-180 178 0
180 -178 0
-181 189 0
181 -189 0
-182 192 0
182 -192 0
-183 191 0
183 -191 0
-184 190 0
184 -190 0
-186 188 0
186 -188 0
-188 186 0
188 -186 0
-189 181 0
189 -181 0
-190 184 0
190 -184 0
-191 183 0
191 -183 0
-192 182 0
192 -182 0
-145 169 0
145 -169 0
-146 165 0
146 -165 0
-147 161 0
147 -161 0
-148 173 0
148 -173 0
-149 171 0
149 -171 0
-150 167 0
150 -167 0
-151 163 0
151 -163 0
-152 175 0
152 -175 0
-153 170 0
153 -170 0
-154 166 0
154 -166 0
-155 162 0
155 -162 0
-156 174 0
156 -174 0
-157 172 0
157 -172 0
-158 168 0
158 -168 0
-159 164 0
159 -164 0
-160 176 0
160 -176 0
-161 147 0
161 -147 0
-162 155 0
162 -155 0
-163 151 0
163 -151 0
-164 159 0
164 -159 0
-165 146 0
165 -146 0
-166 154 0
166 -154 0
-167 150 0
167 -150 0
-168 158 0
168 -158 0
-169 145 0
169 -145 0
-170 153 0
170 -153 0
-171 149 0
171 -149 0
-172 157 0
172 -157 0
-173 148 0
173 -148 0
-174 156 0
174 -156 0
-175 152 0
175 -152 0
-176 160 0
176 -160 0
-178 185 0
178 -185 0
-179 181 0
179 -181 0
-180 189 0
180 -189 0
-181 179 0
181 -179 0
-182 187 0
182 -187 0
-184 191 0
184 -191 0
-185 178 0
185 -178 0
-187 182 0
187 -182 0
-188 190 0
188 -190 0
-189 180 0
189 -180 0
-190 188 0
190 -188 0
-191 184 0
191 -184 0
-145 146 0
145 -146 0
-146 145 0
146 -145 0
-149 150 0
149 -150 0
-150 149 0
150 -149 0
-153 158 0
153 -158 0
-154 157 0
154 -157 0
-155 159 0
155 -159 0
-156 160 0
156 -160 0
-157 154 0
157 -154 0
-158 153 0
158 -153 0
-159 155 0
159 -155 0
-160 156 0
160 -156 0
-161 165 0
161 -165 0
-162 166 0
162 -166 0
-163 168 0
163 -168 0
-164 167 0
164 -167 0
-165 161 0
165 -161 0
-166 162 0
166 -162 0
-167 164 0
167 -164 0
-168 163 0
168 -163 0
-171 172 0
171 -172 0
-172 171 0
172 -171 0
-175 176 0
175 -176 0
-176 175 0
176 -175 0
-179 180 0
179 -180 0
-180 179 0
180 -179 0
-183 184 0
183 -184 0
-184 183 0
184 -183 0
-185 189 0
185 -189 0
-186 190 0
186 -190 0
-187 192 0
187 -192 0
-188 191 0
188 -191 0
-189 185 0
189 -185 0
-190 186 0
190 -186 0
-191 188 0
191 -188 0
-192 187 0
192 -187 0
-145 147 0
145 -147 0
-146 145 0
146 -145 0
-147 146 0
147 -146 0
-149 159 0
149 -159 0
-150 157 0
150 -157 0
-151 158 0
151 -158 0
-152 160 0
152 -160 0
-153 151 0
153 -151 0
-154 149 0
154 -149 0
-155 150 0
155 -150 0
-156 152 0
156 -152 0
-157 155 0
157 -155 0
-158 153 0
158 -153 0
-159 154 0
159 -154 0
-160 156 0
160 -156 0
-161 169 0
161 -169 0
-162 172 0
162 -172 0
-163 170 0
163 -170 0
-164 171 0
164 -171 0
-165 161 0
165 -161 0
-166 164 0
166 -164 0
-167 162 0
167 -162 0
-168 163 0
168 -163 0
-169 165 0
169 -165 0
-170 168 0
170 -168 0
-171 166 0
171 -166 0
-172 167 0
172 -167 0
-174 176 0
174 -176 0
-175 174 0
175 -174 0
-176 175 0
176 -175 0
-178 180 0
178 -180 0
-179 178 0
179 -178 0
-180 179 0
180 -179 0
-181 189 0
181 -189 0
-182 192 0
182 -192 0
-183 190 0
183 -190 0
-184 191 0
184 -191 0
-185 181 0
185 -181 0
-186 184 0
186 -184 0
-187 182 0
187 -182 0
-188 183 0
188 -183 0
-189 185 0
189 -185 0
-190 188 0
190 -188 0
-191 186 0
191 -186 0
-192 187 0
192 -187 0
-145 169 0
145 -169 0
-146 161 0
146 -161 0
-147 165 0
147 -165 0
-148 173 0
148 -173 0
-149 172 0
149 -172 0
-150 164 0
150 -164 0
-151 168 0
151 -168 0
-152 176 0
152 -176 0
-153 170 0
153 -170 0
-154 162 0
154 -162 0
-155 166 0
155 -166 0
-156 174 0
156 -174 0
-157 171 0
157 -171 0
-158 163 0
158 -163 0
-159 167 0
159 -167 0
-160 175 0
160 -175 0
-161 147 0
161 -147 0
-162 159 0
162 -159 0
-163 151 0
163 -151 0
-164 155 0
164 -155 0
-165 145 0
165 -145 0
-166 157 0
166 -157 0
-167 149 0
167 -149 0
-168 153 0
168 -153 0
-169 146 0
169 -146 0
-170 158 0
170 -158 0
-171 150 0
171 -150 0
-172 154 0
172 -154 0
-173 148 0
173 -148 0
-174 160 0
174 -160 0
-175 152 0
175 -152 0
-176 156 0
176 -156 0
-178 189 0
178 -189 0
-179 181 0
179 -181 0
-180 185 0
180 -185 0
-181 180 0
181 -180 0
-182 192 0
182 -192 0
-183 184 0
183 -184 0
-184 188 0
184 -188 0
-185 178 0
185 -178 0
-186 190 0
186 -190 0
-187 182 0
187 -182 0
-188 186 0
188 -186 0
-189 179 0
189 -179 0
-190 191 0
190 -191 0
-191 183 0
191 -183 0
-192 187 0
192 -187 0
-145 165 0
145 -165 0
-146 169 0
146 -169 0
-147 161 0
147 -161 0
-148 173 0
148 -173 0
-149 167 0
149 -167 0
-150 171 0
150 -171 0
-151 163 0
151 -163 0
-152 175 0
152 -175 0
-153 168 0
153 -168 0
-154 172 0
154 -172 0
-155 164 0
155 -164 0
-156 176 0
156 -176 0
-157 166 0
157 -166 0
-158 170 0
158 -170 0
-159 162 0
159 -162 0
-160 174 0
160 -174 0
-161 146 0
161 -146 0
-162 154 0
162 -154 0
-163 158 0
163 -158 0
-164 150 0
164 -150 0
-165 147 0
165 -147 0
-166 155 0
166 -155 0
-167 159 0
167 -159 0
-168 151 0
168 -151 0
-169 145 0
169 -145 0
-170 153 0
170 -153 0
-171 157 0
171 -157 0
-172 149 0
172 -149 0
-173 148 0
173 -148 0
-174 156 0
174 -156 0
-175 160 0
175 -160 0
-176 152 0
176 -152 0
-178 185 0
178 -185 0
-179 189 0
179 -189 0
-180 181 0
180 -181 0
-181 179 0
181 -179 0
-182 187 0
182 -187 0
-183 191 0
183 -191 0
-184 183 0
184 -183 0
-185 180 0
185 -180 0
-186 188 0
186 -188 0
-187 192 0
187 -192 0
-188 184 0
188 -184 0
-189 178 0
189 -178 0
-190 186 0
190 -186 0
-191 190 0
191 -190 0
-192 182 0
192 -182 0
-145 147 0
145 -147 0
-147 145 0
147 -145 0
-149 155 0
149 -155 0
-150 154 0
150 -154 0
-151 153 0
151 -153 0
-152 156 0
152 -156 0
-153 151 0
153 -151 0
-154 150 0
154 -150 0
-155 149 0
155 -149 0
-156 152 0
156 -152 0
-157 159 0
157 -159 0
-159 157 0
159 -157 0
-161 169 0
161 -169 0
-162 171 0
162 -171 0
-163 170 0
163 -170 0
-164 172 0
164 -172 0
-166 167 0
166 -167 0
-167 166 0
167 -166 0
-169 161 0
169 -161 0
-170 163 0
170 -163 0
-171 162 0
171 -162 0
-172 164 0
172 -164 0
-174 175 0
174 -175 0
-175 174 0
175 -174 0
-178 179 0
178 -179 0
-179 178 0
179 -178 0
-181 185 0
181 -185 0
-182 187 0
182 -187 0
-183 186 0
183 -186 0
-184 188 0
184 -188 0
-185 181 0
185 -181 0
-186 183 0
186 -183 0
-187 182 0
187 -182 0
-188 184 0
188 -184 0
-190 191 0
190 -191 0
-191 190 0
191 -190 0
-145 146 0
145 -146 0
-146 147 0
146 -147 0
-147 145 0
147 -145 0
-149 154 0
149 -154 0
-150 155 0
150 -155 0
-151 153 0
151 -153 0
-152 156 0
152 -156 0
-153 158 0
153 -158 0
-154 159 0
154 -159 0
-155 157 0
155 -157 0
-156 160 0
156 -160 0
-157 150 0
157 -150 0
-158 151 0
158 -151 0
-159 149 0
159 -149 0
-160 152 0
160 -152 0
-161 165 0
161 -165 0
-162 167 0
162 -167 0
-163 168 0
163 -168 0
-164 166 0
164 -166 0
-165 169 0
165 -169 0
-166 171 0
166 -171 0
-167 172 0
167 -172 0
-168 170 0
168 -170 0
-169 161 0
169 -161 0
-170 163 0
170 -163 0
-171 164 0
171 -164 0
-172 162 0
172 -162 0
-174 175 0
174 -175 0
-175 176 0
175 -176 0
-176 174 0
176 -174 0
-178 179 0
178 -179 0
-179 180 0
179 -180 0
-180 178 0
180 -178 0
-181 185 0
181 -185 0
-182 187 0
182 -187 0
-183 188 0
183 -188 0
-184 186 0
184 -186 0
-185 189 0
185 -189 0
-186 191 0
186 -191 0
-187 192 0
187 -192 0
-188 190 0
188 -190 0
-189 181 0
189 -181 0
-190 183 0
190 -183 0
-191 184 0
191 -184 0
-192 182 0
192 -182 0
145 146 147 148 149 150 151 152 153 154 155 156 157 158 159 160 0
161 162 163 164 165 166 167 168 169 170 171 172 173 174 175 176 0
177 178 179 180 181 182 183 184 185 186 187 188 189 190 191 192 0
-193 1 0
-193 17 0
193 -1 -17 0
-194 193 0
-194 33 0
194 -193 -33 0
-195 2 0
-195 21 0
195 -2 -21 0
-196 195 0
-196 33 0
196 -195 -33 0
-197 3 0
-197 25 0
197 -3 -25 0
-198 197 0
-198 33 0
198 -197 -33 0
-199 49 0
-199 65 0
199 -49 -65 0
-200 199 0
-200 81 0
200 -199 -81 0
-201 97 0
-201 113 0
201 -97 -113 0
-202 201 0
-202 129 0
202 -201 -129 0
-203 145 0
-203 161 0
203 -145 -161 0
-204 203 0
-204 177 0
204 -203 -177 0
-205 194 194 0
-205 -194 -194 0
205 -194 194 0
205 194 -194 0
-206 205 196 0
-206 -205 -196 0
206 -205 196 0
206 205 -196 0
-207 206 198 0
-207 -206 -198 0
207 -206 198 0
207 206 -198 0
-208 207 196 0
-208 -207 -196 0
208 -207 196 0
208 207 -196 0
-209 208 198 0
-209 -208 -198 0
209 -208 198 0
209 208 -198 0
-210 209 194 0
-210 -209 -194 0
210 -209 194 0
210 209 -194 0
-211 210 194 0
-211 -210 -194 0
211 -210 194 0
211 210 -194 0
-212 211 196 0
-212 -211 -196 0
212 -211 196 0
212 211 -196 0
-213 212 198 0
-213 -212 -198 0
213 -212 198 0
213 212 -198 0
-214 213 196 0
-214 -213 -196 0
214 -213 196 0
214 213 -196 0
-215 214 198 0
-215 -214 -198 0
215 -214 198 0
215 214 -198 0
-216 215 200 0
-216 -215 -200 0
216 -215 200 0
216 215 -200 0
-217 216 200 0
-217 -216 -200 0
217 -216 200 0
217 216 -200 0
-218 217 202 0
-218 -217 -202 0
218 -217 202 0
218 217 -202 0
-219 218 202 0
-219 -218 -202 0
219 -218 202 0
219 218 -202 0
-220 219 204 0
-220 -219 -204 0
220 -219 204 0
220 219 -204 0
-220 0
-221 193 0
-221 34 0
221 -193 -34 0
-222 193 0
-222 36 0
222 -193 -36 0
-223 195 0
-223 34 0
223 -195 -34 0
-224 197 0
-224 36 0
224 -197 -36 0
-225 195 0
-225 35 0
225 -195 -35 0
-226 197 0
-226 35 0
226 -197 -35 0
-227 193 0
-227 37 0
227 -193 -37 0
-228 193 0
-228 45 0
228 -193 -45 0
-229 195 0
-229 37 0
229 -195 -37 0
-230 197 0
-230 45 0
230 -197 -45 0
-231 195 0
-231 41 0
231 -195 -41 0
-232 197 0
-232 41 0
232 -197 -41 0
-233 199 0
-233 82 0
233 -199 -82 0
-234 199 0
-234 85 0
234 -199 -85 0
-235 201 0
-235 130 0
235 -201 -130 0
-236 201 0
-236 133 0
236 -201 -133 0
-237 203 0
-237 178 0
237 -203 -178 0
-238 221 222 0
-238 -221 -222 0
238 -221 222 0
238 221 -222 0
-239 238 223 0
-239 -238 -223 0
239 -238 223 0
239 238 -223 0
-240 239 224 0
-240 -239 -224 0
240 -239 224 0
240 239 -224 0
-241 240 225 0
-241 -240 -225 0
241 -240 225 0
241 240 -225 0
-242 241 226 0
-242 -241 -226 0
242 -241 226 0
242 241 -226 0
-243 242 227 0
-243 -242 -227 0
243 -242 227 0
243 242 -227 0
-244 243 228 0
-244 -243 -228 0
244 -243 228 0
244 243 -228 0
-245 244 229 0
-245 -244 -229 0
245 -244 229 0
245 244 -229 0
-246 245 230 0
-246 -245 -230 0
246 -245 230 0
246 245 -230 0
-247 246 231 0
-247 -246 -231 0
247 -246 231 0
247 246 -231 0
-248 247 232 0
-248 -247 -232 0
248 -247 232 0
248 247 -232 0
-249 248 233 0
-249 -248 -233 0
249 -248 233 0
249 248 -233 0
-250 249 234 0
-250 -249 -234 0
250 -249 234 0
250 249 -234 0
-251 250 235 0
-251 -250 -235 0
251 -250 235 0
251 250 -235 0
-252 251 236 0
-252 -251 -236 0
252 -251 236 0
252 251 -236 0
-253 252 237 0
-253 -252 -237 0
253 -252 237 0
253 252 -237 0
-253 0
-254 193 0
-254 35 0
254 -193 -35 0
-255 195 0
-255 36 0
255 -195 -36 0
-256 197 0
-256 34 0
256 -197 -34 0
-257 193 0
-257 41 0
257 -193 -41 0
-258 195 0
-258 45 0
258 -195 -45 0
-259 197 0
-259 37 0
259 -197 -37 0
-260 199 0
-260 83 0
260 -199 -83 0
-261 199 0
-261 89 0
261 -199 -89 0
-262 201 0
-262 131 0
262 -201 -131 0
-263 201 0
-263 137 0
263 -201 -137 0
-264 203 0
-264 179 0
264 -203 -179 0
-265 254 254 0
-265 -254 -254 0
265 -254 254 0
265 254 -254 0
-266 265 255 0
-266 -265 -255 0
266 -265 255 0
266 265 -255 0
-267 266 256 0
-267 -266 -256 0
267 -266 256 0
267 266 -256 0
-268 267 255 0
-268 -267 -255 0
268 -267 255 0
268 267 -255 0
-269 268 256 0
-269 -268 -256 0
269 -268 256 0
269 268 -256 0
-270 269 257 0
-270 -269 -257 0
270 -269 257 0
270 269 -257 0
-271 270 257 0
-271 -270 -257 0
271 -270 257 0
271 270 -257 0
-272 271 258 0
-272 -271 -258 0
272 -271 258 0
272 271 -258 0
-273 272 259 0
-273 -272 -259 0
273 -272 259 0
273 272 -259 0
-274 273 258 0
-274 -273 -258 0
274 -273 258 0
274 273 -258 0
-275 274 259 0
-275 -274 -259 0
275 -274 259 0
275 274 -259 0
-276 275 260 0
-276 -275 -260 0
276 -275 260 0
276 275 -260 0
-277 276 261 0
-277 -276 -261 0
277 -276 261 0
277 276 -261 0
-278 277 262 0
-278 -277 -262 0
278 -277 262 0
278 277 -262 0
-279 278 263 0
-279 -278 -263 0
279 -278 263 0
279 278 -263 0
-280 279 264 0
-280 -279 -264 0
280 -279 264 0
280 279 -264 0
280 0
-281 193 0
-281 38 0
281 -193 -38 0
-282 193 0
-282 48 0
282 -193 -48 0
-283 195 0
-283 38 0
283 -195 -38 0
-284 197 0
-284 48 0
284 -197 -48 0
-285 195 0
-285 43 0
285 -195 -43 0
-286 197 0
-286 43 0
286 -197 -43 0
-287 199 0
-287 86 0
287 -199 -86 0
-288 201 0
-288 134 0
288 -201 -134 0
-289 203 0
-289 182 0
289 -203 -182 0
-290 281 282 0
-290 -281 -282 0
290 -281 282 0
290 281 -282 0
-291 290 283 0
-291 -290 -283 0
291 -290 283 0
291 290 -283 0
-292 291 284 0
-292 -291 -284 0
292 -291 284 0
292 291 -284 0
-293 292 285 0
-293 -292 -285 0
293 -292 285 0
293 292 -285 0
-294 293 286 0
-294 -293 -286 0
294 -293 286 0
294 293 -286 0
-295 294 281 0
-295 -294 -281 0
295 -294 281 0
295 294 -281 0
-296 295 282 0
-296 -295 -282 0
296 -295 282 0
296 295 -282 0
-297 296 283 0
-297 -296 -283 0
297 -296 283 0
297 296 -283 0
-298 297 284 0
-298 -297 -284 0
298 -297 284 0
298 297 -284 0
-299 298 285 0
-299 -298 -285 0
299 -298 285 0
299 298 -285 0
-300 299 286 0
-300 -299 -286 0
300 -299 286 0
300 299 -286 0
-301 300 287 0
-301 -300 -287 0
301 -300 287 0
301 300 -287 0
-302 301 287 0
-302 -301 -287 0
302 -301 287 0
302 301 -287 0
-303 302 288 0
-303 -302 -288 0
303 -302 288 0
303 302 -288 0
-304 303 288 0
-304 -303 -288 0
304 -303 288 0
304 303 -288 0
-305 304 289 0
-305 -304 -289 0
305 -304 289 0
305 304 -289 0
-305 0
-306 193 0
-306 39 0
306 -193 -39 0
-307 193 0
-307 47 0
307 -193 -47 0
-308 195 0
-308 40 0
308 -195 -40 0
-309 197 0
-309 46 0
309 -197 -46 0
-310 195 0
-310 44 0
310 -195 -44 0
-311 197 0
-311 42 0
311 -197 -42 0
-312 193 0
-312 42 0
312 -193 -42 0
-313 193 0
-313 44 0
313 -193 -44 0
-314 195 0
-314 46 0
314 -195 -46 0
-315 197 0
-315 40 0
315 -197 -40 0
-316 195 0
-316 47 0
316 -195 -47 0
-317 197 0
-317 39 0
317 -197 -39 0
-318 199 0
-318 87 0
318 -199 -87 0
-319 199 0
-319 90 0
319 -199 -90 0
-320 201 0
-320 135 0
320 -201 -135 0
-321 201 0
-321 138 0
321 -201 -138 0
-322 203 0
-322 183 0
322 -203 -183 0
-323 306 307 0
-323 -306 -307 0
323 -306 307 0
323 306 -307 0
-324 323 308 0
-324 -323 -308 0
324 -323 308 0
324 323 -308 0
-325 324 309 0
-325 -324 -309 0
325 -324 309 0
325 324 -309 0
-326 325 310 0
-326 -325 -310 0
326 -325 310 0
326 325 -310 0
-327 326 311 0
-327 -326 -311 0
327 -326 311 0
327 326 -311 0
-328 327 312 0
-328 -327 -312 0
328 -327 312 0
328 327 -312 0
-329 328 313 0
-329 -328 -313 0
329 -328 313 0
329 328 -313 0
-330 329 314 0
-330 -329 -314 0
330 -329 314 0
330 329 -314 0
-331 330 315 0
-331 -330 -315 0
331 -330 315 0
331 330 -315 0
-332 331 316 0
-332 -331 -316 0
332 -331 316 0
332 331 -316 0
-333 332 317 0
-333 -332 -317 0
333 -332 317 0
333 332 -317 0
-334 333 318 0
-334 -333 -318 0
334 -333 318 0
334 333 -318 0
-335 334 319 0
-335 -334 -319 0
335 -334 319 0
335 334 -319 0
-336 335 320 0
-336 -335 -320 0
336 -335 320 0
336 335 -320 0
-337 336 321 0
-337 -336 -321 0
337 -336 321 0
337 336 -321 0
-338 337 322 0
-338 -337 -322 0
338 -337 322 0
338 337 -322 0
-338 0
-339 193 0
-339 40 0
339 -193 -40 0
-340 193 0
-340 46 0
340 -193 -46 0
-341 195 0
-341 39 0
341 -195 -39 0
-342 197 0
-342 47 0
342 -197 -47 0
-343 195 0
-343 42 0
343 -195 -42 0
-344 197 0
-344 44 0
344 -197 -44 0
-345 199 0
-345 88 0
345 -199 -88 0
-346 199 0
-346 94 0
346 -199 -94 0
-347 201 0
-347 136 0
347 -201 -136 0
-348 201 0
-348 142 0
348 -201 -142 0
-349 203 0
-349 184 0
349 -203 -184 0
-350 339 340 0
-350 -339 -340 0
350 -339 340 0
350 339 -340 0
-351 350 341 0
-351 -350 -341 0
351 -350 341 0
351 350 -341 0
-352 351 342 0
-352 -351 -342 0
352 -351 342 0
352 351 -342 0
-353 352 343 0
-353 -352 -343 0
353 -352 343 0
353 352 -343 0
-354 353 344 0
-354 -353 -344 0
354 -353 344 0
354 353 -344 0
-355 354 340 0
-355 -354 -340 0
355 -354 340 0
355 354 -340 0
-356 355 339 0
-356 -355 -339 0
356 -355 339 0
356 355 -339 0
-357 356 343 0
-357 -356 -343 0
357 -356 343 0
357 356 -343 0
-358 357 344 0
-358 -357 -344 0
358 -357 344 0
358 357 -344 0
-359 358 341 0
-359 -358 -341 0
359 -358 341 0
359 358 -341 0
-360 359 342 0
-360 -359 -342 0
360 -359 342 0
360 359 -342 0
-361 360 345 0
-361 -360 -345 0
361 -360 345 0
361 360 -345 0
-362 361 346 0
-362 -361 -346 0
362 -361 346 0
362 361 -346 0
-363 362 347 0
-363 -362 -347 0
363 -362 347 0
363 362 -347 0
-364 363 348 0
-364 -363 -348 0
364 -363 348 0
364 363 -348 0
-365 364 349 0
-365 -364 -349 0
365 -364 349 0
365 364 -349 0
-365 0
-366 193 0
-366 43 0
366 -193 -43 0
-367 195 0
-367 48 0
367 -195 -48 0
-368 197 0
-368 38 0
368 -197 -38 0
-369 199 0
-369 91 0
369 -199 -91 0
-370 201 0
-370 139 0
370 -201 -139 0
-371 203 0
-371 187 0
371 -203 -187 0
-372 366 366 0
-372 -366 -366 0
372 -366 366 0
372 366 -366 0
-373 372 367 0
-373 -372 -367 0
373 -372 367 0
373 372 -367 0
-374 373 368 0
-374 -373 -368 0
374 -373 368 0
374 373 -368 0
-375 374 367 0
-375 -374 -367 0
375 -374 367 0
375 374 -367 0
-376 375 368 0
-376 -375 -368 0
376 -375 368 0
376 375 -368 0
-377 376 366 0
-377 -376 -366 0
377 -376 366 0
377 376 -366 0
-378 377 366 0
-378 -377 -366 0
378 -377 366 0
378 377 -366 0
-379 378 367 0
-379 -378 -367 0
379 -378 367 0
379 378 -367 0
-380 379 368 0
-380 -379 -368 0
380 -379 368 0
380 379 -368 0
-381 380 367 0
-381 -380 -367 0
381 -380 367 0
381 380 -367 0
-382 381 368 0
-382 -381 -368 0
382 -381 368 0
382 381 -368 0
-383 382 369 0
-383 -382 -369 0
383 -382 369 0
383 382 -369 0
-384 383 369 0
-384 -383 -369 0
384 -383 369 0
384 383 -369 0
-385 384 370 0
-385 -384 -370 0
385 -384 370 0
385 384 -370 0
-386 385 370 0
-386 -385 -370 0
386 -385 370 0
386 385 -370 0
-387 386 371 0
-387 -386 -371 0
387 -386 371 0
387 386 -371 0
-387 0
-388 1 0
-388 18 0
388 -1 -18 0
-389 388 0
-389 33 0
389 -388 -33 0
-390 1 0
-390 20 0
390 -1 -20 0
-391 390 0
-391 33 0
391 -390 -33 0
-392 2 0
-392 22 0
392 -2 -22 0
-393 392 0
-393 33 0
393 -392 -33 0
-394 3 0
-394 28 0
394 -3 -28 0
-395 394 0
-395 33 0
395 -394 -33 0
-396 2 0
-396 23 0
396 -2 -23 0
-397 396 0
-397 33 0
397 -396 -33 0
-398 3 0
-398 27 0
398 -3 -27 0
-399 398 0
-399 33 0
399 -398 -33 0
-400 17 0
-400 5 0
400 -17 -5 0
-401 400 0
-401 33 0
401 -400 -33 0
-402 17 0
-402 13 0
402 -17 -13 0
-403 402 0
-403 33 0
403 -402 -33 0
-404 21 0
-404 6 0
404 -21 -6 0
-405 404 0
-405 33 0
405 -404 -33 0
-406 25 0
-406 15 0
406 -25 -15 0
-407 406 0
-407 33 0
407 -406 -33 0
-408 21 0
-408 10 0
408 -21 -10 0
-409 408 0
-409 33 0
409 -408 -33 0
-410 25 0
-410 11 0
410 -25 -11 0
-411 410 0
-411 33 0
411 -410 -33 0
-412 49 0
-412 66 0
412 -49 -66 0
-413 412 0
-413 81 0
413 -412 -81 0
-414 65 0
-414 53 0
414 -65 -53 0
-415 414 0
-415 81 0
415 -414 -81 0
-416 97 0
-416 114 0
416 -97 -114 0
-417 416 0
-417 129 0
417 -416 -129 0
-418 113 0
-418 101 0
418 -113 -101 0
-419 418 0
-419 129 0
419 -418 -129 0
-420 145 0
-420 162 0
420 -145 -162 0
-421 420 0
-421 177 0
421 -420 -177 0
-422 389 391 0
-422 -389 -391 0
422 -389 391 0
422 389 -391 0
-423 422 393 0
-423 -422 -393 0
423 -422 393 0
423 422 -393 0
-424 423 395 0
-424 -423 -395 0
424 -423 395 0
424 423 -395 0
-425 424 397 0
-425 -424 -397 0
425 -424 397 0
425 424 -397 0
-426 425 399 0
-426 -425 -399 0
426 -425 399 0
426 425 -399 0
-427 426 401 0
-427 -426 -401 0
427 -426 401 0
427 426 -401 0
-428 427 403 0
-428 -427 -403 0
428 -427 403 0
428 427 -403 0
-429 428 405 0
-429 -428 -405 0
429 -428 405 0
429 428 -405 0
-430 429 407 0
-430 -429 -407 0
430 -429 407 0
430 429 -407 0
-431 430 409 0
-431 -430 -409 0
431 -430 409 0
431 430 -409 0
-432 431 411 0
-432 -431 -411 0
432 -431 411 0
432 431 -411 0
-433 432 413 0
-433 -432 -413 0
433 -432 413 0
433 432 -413 0
-434 433 415 0
-434 -433 -415 0
434 -433 415 0
434 433 -415 0
-435 434 417 0
-435 -434 -417 0
435 -434 417 0
435 434 -417 0
-436 435 419 0
-436 -435 -419 0
436 -435 419 0
436 435 -419 0
-437 436 421 0
-437 -436 -421 0
437 -436 421 0
437 436 -421 0
-437 0
-438 388 0
-438 34 0
438 -388 -34 0
-439 390 0
-439 36 0
439 -390 -36 0
-440 392 0
-440 34 0
440 -392 -34 0
-441 394 0
-441 36 0
441 -394 -36 0
-442 396 0
-442 35 0
442 -396 -35 0
-443 398 0
-443 35 0
443 -398 -35 0
-444 400 0
-444 37 0
444 -400 -37 0
-445 402 0
-445 45 0
445 -402 -45 0
-446 404 0
-446 37 0
446 -404 -37 0
-447 406 0
-447 45 0
447 -406 -45 0
-448 408 0
-448 41 0
448 -408 -41 0
-449 410 0
-449 41 0
449 -410 -41 0
-450 412 0
-450 82 0
450 -412 -82 0
-451 414 0
-451 85 0
451 -414 -85 0
-452 416 0
-452 130 0
452 -416 -130 0
-453 418 0
-453 133 0
453 -418 -133 0
-454 420 0
-454 178 0
454 -420 -178 0
-455 438 439 0
-455 -438 -439 0
455 -438 439 0
455 438 -439 0
-456 455 440 0
-456 -455 -440 0
456 -455 440 0
456 455 -440 0
-457 456 441 0
-457 -456 -441 0
457 -456 441 0
457 456 -441 0
-458 457 442 0
-458 -457 -442 0
458 -457 442 0
458 457 -442 0
-459 458 443 0
-459 -458 -443 0
459 -458 443 0
459 458 -443 0
-460 459 444 0
-460 -459 -444 0
460 -459 444 0
460 459 -444 0
-461 460 445 0
-461 -460 -445 0
461 -460 445 0
461 460 -445 0
-462 461 446 0
-462 -461 -446 0
462 -461 446 0
462 461 -446 0
-463 462 447 0
-463 -462 -447 0
463 -462 447 0
463 462 -447 0
-464 463 448 0
-464 -463 -448 0
464 -463 448 0
464 463 -448 0
-465 464 449 0
-465 -464 -449 0
465 -464 449 0
465 464 -449 0
-466 465 450 0
-466 -465 -450 0
466 -465 450 0
466 465 -450 0
-467 466 451 0
-467 -466 -451 0
467 -466 451 0
467 466 -451 0
-468 467 452 0
-468 -467 -452 0
468 -467 452 0
468 467 -452 0
-469 468 453 0
-469 -468 -453 0
469 -468 453 0
469 468 -453 0
-470 469 454 0
-470 -469 -454 0
470 -469 454 0
470 469 -454 0
-470 0
-471 388 0
-471 35 0
471 -388 -35 0
-472 390 0
-472 35 0
472 -390 -35 0
-473 392 0
-473 36 0
473 -392 -36 0
-474 394 0
-474 34 0
474 -394 -34 0
-475 396 0
-475 36 0
475 -396 -36 0
-476 398 0
-476 34 0
476 -398 -34 0
-477 400 0
-477 41 0
477 -400 -41 0
-478 402 0
-478 41 0
478 -402 -41 0
-479 404 0
-479 45 0
479 -404 -45 0
-480 406 0
-480 37 0
480 -406 -37 0
-481 408 0
-481 45 0
481 -408 -45 0
-482 410 0
-482 37 0
482 -410 -37 0
-483 412 0
-483 83 0
483 -412 -83 0
-484 414 0
-484 89 0
484 -414 -89 0
-485 416 0
-485 131 0
485 -416 -131 0
-486 418 0
-486 137 0
486 -418 -137 0
-487 420 0
-487 179 0
487 -420 -179 0
-488 471 472 0
-488 -471 -472 0
488 -471 472 0
488 471 -472 0
-489 488 473 0
-489 -488 -473 0
489 -488 473 0
489 488 -473 0
-490 489 474 0
-490 -489 -474 0
490 -489 474 0
490 489 -474 0
-491 490 475 0
-491 -490 -475 0
491 -490 475 0
491 490 -475 0
-492 491 476 0
-492 -491 -476 0
492 -491 476 0
492 491 -476 0
-493 492 477 0
-493 -492 -477 0
493 -492 477 0
493 492 -477 0
-494 493 478 0
-494 -493 -478 0
494 -493 478 0
494 493 -478 0
-495 494 479 0
-495 -494 -479 0
495 -494 479 0
495 494 -479 0
-496 495 480 0
-496 -495 -480 0
496 -495 480 0
496 495 -480 0
-497 496 481 0
-497 -496 -481 0
497 -496 481 0
497 496 -481 0
-498 497 482 0
-498 -497 -482 0
498 -497 482 0
498 497 -482 0
-499 498 483 0
-499 -498 -483 0
499 -498 483 0
499 498 -483 0
-500 499 484 0
-500 -499 -484 0
500 -499 484 0
500 499 -484 0
-501 500 485 0
-501 -500 -485 0
501 -500 485 0
501 500 -485 0
-502 501 486 0
-502 -501 -486 0
502 -501 486 0
502 501 -486 0
-503 502 487 0
-503 -502 -487 0
503 -502 487 0
503 502 -487 0
503 0
-504 388 0
-504 36 0
504 -388 -36 0
-505 390 0
-505 34 0
505 -390 -34 0
-506 392 0
-506 35 0
506 -392 -35 0
-507 394 0
-507 35 0
507 -394 -35 0
-508 396 0
-508 34 0
508 -396 -34 0
-509 398 0
-509 36 0
509 -398 -36 0
-510 400 0
-510 45 0
510 -400 -45 0
-511 402 0
-511 37 0
511 -402 -37 0
-512 404 0
-512 41 0
512 -404 -41 0
-513 406 0
-513 41 0
513 -406 -41 0
-514 408 0
-514 37 0
514 -408 -37 0
-515 410 0
-515 45 0
515 -410 -45 0
-516 412 0
-516 84 0
516 -412 -84 0
-517 414 0
-517 93 0
517 -414 -93 0
-518 416 0
-518 132 0
518 -416 -132 0
-519 418 0
-519 141 0
519 -418 -141 0
-520 420 0
-520 180 0
520 -420 -180 0
-521 504 505 0
-521 -504 -505 0
521 -504 505 0
521 504 -505 0
-522 521 506 0
-522 -521 -506 0
522 -521 506 0
522 521 -506 0
-523 522 507 0
-523 -522 -507 0
523 -522 507 0
523 522 -507 0
-524 523 508 0
-524 -523 -508 0
524 -523 508 0
524 523 -508 0
-525 524 509 0
-525 -524 -509 0
525 -524 509 0
525 524 -509 0
-526 525 510 0
-526 -525 -510 0
526 -525 510 0
526 525 -510 0
-527 526 511 0
-527 -526 -511 0
527 -526 511 0
527 526 -511 0
-528 527 512 0
-528 -527 -512 0
528 -527 512 0
528 527 -512 0
-529 528 513 0
-529 -528 -513 0
529 -528 513 0
529 528 -513 0
-530 529 514 0
-530 -529 -514 0
530 -529 514 0
530 529 -514 0
-531 530 515 0
-531 -530 -515 0
531 -530 515 0
531 530 -515 0
-532 531 516 0
-532 -531 -516 0
532 -531 516 0
532 531 -516 0
-533 532 517 0
-533 -532 -517 0
533 -532 517 0
533 532 -517 0
-534 533 518 0
-534 -533 -518 0
534 -533 518 0
534 533 -518 0
-535 534 519 0
-535 -534 -519 0
535 -534 519 0
535 534 -519 0
-536 535 520 0
-536 -535 -520 0
536 -535 520 0
536 535 -520 0
-536 0
-537 388 0
-537 37 0
537 -388 -37 0
-538 390 0
-538 45 0
538 -390 -45 0
-539 392 0
-539 37 0
539 -392 -37 0
-540 394 0
-540 45 0
540 -394 -45 0
-541 396 0
-541 41 0
541 -396 -41 0
-542 398 0
-542 41 0
542 -398 -41 0
-543 400 0
-543 34 0
543 -400 -34 0
-544 402 0
-544 36 0
544 -402 -36 0
-545 404 0
-545 34 0
545 -404 -34 0
-546 406 0
-546 36 0
546 -406 -36 0
-547 408 0
-547 35 0
547 -408 -35 0
-548 410 0
-548 35 0
548 -410 -35 0
-549 412 0
-549 85 0
549 -412 -85 0
-550 414 0
-550 82 0
550 -414 -82 0
-551 416 0
-551 133 0
551 -416 -133 0
-552 418 0
-552 130 0
552 -418 -130 0
-553 420 0
-553 181 0
553 -420 -181 0
-554 537 538 0
-554 -537 -538 0
554 -537 538 0
554 537 -538 0
-555 554 539 0
-555 -554 -539 0
555 -554 539 0
555 554 -539 0
-556 555 540 0
-556 -555 -540 0
556 -555 540 0
556 555 -540 0
-557 556 541 0
-557 -556 -541 0
557 -556 541 0
557 556 -541 0
-558 557 542 0
-558 -557 -542 0
558 -557 542 0
558 557 -542 0
-559 558 543 0
-559 -558 -543 0
559 -558 543 0
559 558 -543 0
-560 559 544 0
-560 -559 -544 0
560 -559 544 0
560 559 -544 0
-561 560 545 0
-561 -560 -545 0
561 -560 545 0
561 560 -545 0
-562 561 546 0
-562 -561 -546 0
562 -561 546 0
562 561 -546 0
-563 562 547 0
-563 -562 -547 0
563 -562 547 0
563 562 -547 0
-564 563 548 0
-564 -563 -548 0
564 -563 548 0
564 563 -548 0
-565 564 549 0
-565 -564 -549 0
565 -564 549 0
565 564 -549 0
-566 565 550 0
-566 -565 -550 0
566 -565 550 0
566 565 -550 0
-567 566 551 0
-567 -566 -551 0
567 -566 551 0
567 566 -551 0
-568 567 552 0
-568 -567 -552 0
568 -567 552 0
568 567 -552 0
-569 568 553 0
-569 -568 -553 0
569 -568 553 0
569 568 -553 0
-569 0
-570 388 0
-570 38 0
570 -388 -38 0
-571 390 0
-571 48 0
571 -390 -48 0
-572 392 0
-572 38 0
572 -392 -38 0
-573 394 0
-573 48 0
573 -394 -48 0
-574 396 0
-574 43 0
574 -396 -43 0
-575 398 0
-575 43 0
575 -398 -43 0
-576 400 0
-576 38 0
576 -400 -38 0
-577 402 0
-577 48 0
577 -402 -48 0
-578 404 0
-578 38 0
578 -404 -38 0
-579 406 0
-579 48 0
579 -406 -48 0
-580 408 0
-580 43 0
580 -408 -43 0
-581 410 0
-581 43 0
581 -410 -43 0
-582 412 0
-582 86 0
582 -412 -86 0
-583 414 0
-583 86 0
583 -414 -86 0
-584 416 0
-584 134 0
584 -416 -134 0
-585 418 0
-585 134 0
585 -418 -134 0
-586 420 0
-586 182 0
586 -420 -182 0
-587 570 571 0
-587 -570 -571 0
587 -570 571 0
587 570 -571 0
-588 587 572 0
-588 -587 -572 0
588 -587 572 0
588 587 -572 0
-589 588 573 0
-589 -588 -573 0
589 -588 573 0
589 588 -573 0
-590 589 574 0
-590 -589 -574 0
590 -589 574 0
590 589 -574 0
-591 590 575 0
-591 -590 -575 0
591 -590 575 0
591 590 -575 0
-592 591 576 0
-592 -591 -576 0
592 -591 576 0
592 591 -576 0
-593 592 577 0
-593 -592 -577 0
593 -592 577 0
593 592 -577 0
-594 593 578 0
-594 -593 -578 0
594 -593 578 0
594 593 -578 0
-595 594 579 0
-595 -594 -579 0
595 -594 579 0
595 594 -579 0
-596 595 580 0
-596 -595 -580 0
596 -595 580 0
596 595 -580 0
-597 596 581 0
-597 -596 -581 0
597 -596 581 0
597 596 -581 0
-598 597 582 0
-598 -597 -582 0
598 -597 582 0
598 597 -582 0
-599 598 583 0
-599 -598 -583 0
599 -598 583 0
599 598 -583 0
-600 599 584 0
-600 -599 -584 0
600 -599 584 0
600 599 -584 0
-601 600 585 0
-601 -600 -585 0
601 -600 585 0
601 600 -585 0
-602 601 586 0
-602 -601 -586 0
602 -601 586 0
602 601 -586 0
-602 0
-603 388 0
-603 39 0
603 -388 -39 0
-604 390 0
-604 47 0
604 -390 -47 0
-605 392 0
-605 40 0
605 -392 -40 0
-606 394 0
-606 46 0
606 -394 -46 0
-607 396 0
-607 44 0
607 -396 -44 0
-608 398 0
-608 42 0
608 -398 -42 0
-609 400 0
-609 42 0
609 -400 -42 0
-610 402 0
-610 44 0
610 -402 -44 0
-611 404 0
-611 46 0
611 -404 -46 0
-612 406 0
-612 40 0
612 -406 -40 0
-613 408 0
-613 47 0
613 -408 -47 0
-614 410 0
-614 39 0
614 -410 -39 0
-615 412 0
-615 87 0
615 -412 -87 0
-616 414 0
-616 90 0
616 -414 -90 0
-617 416 0
-617 135 0
617 -416 -135 0
-618 418 0
-618 138 0
618 -418 -138 0
-619 420 0
-619 183 0
619 -420 -183 0
-620 603 604 0
-620 -603 -604 0
620 -603 604 0
620 603 -604 0
-621 620 605 0
-621 -620 -605 0
621 -620 605 0
621 620 -605 0
-622 621 606 0
-622 -621 -606 0
622 -621 606 0
622 621 -606 0
-623 622 607 0
-623 -622 -607 0
623 -622 607 0
623 622 -607 0
-624 623 608 0
-624 -623 -608 0
624 -623 608 0
624 623 -608 0
-625 624 609 0
-625 -624 -609 0
625 -624 609 0
625 624 -609 0
-626 625 610 0
-626 -625 -610 0
626 -625 610 0
626 625 -610 0
-627 626 611 0
-627 -626 -611 0
627 -626 611 0
627 626 -611 0
-628 627 612 0
-628 -627 -612 0
628 -627 612 0
628 627 -612 0
-629 628 613 0
-629 -628 -613 0
629 -628 613 0
629 628 -613 0
-630 629 614 0
-630 -629 -614 0
630 -629 614 0
630 629 -614 0
-631 630 615 0
-631 -630 -615 0
631 -630 615 0
631 630 -615 0
-632 631 616 0
-632 -631 -616 0
632 -631 616 0
632 631 -616 0
-633 632 617 0
-633 -632 -617 0
633 -632 617 0
633 632 -617 0
-634 633 618 0
-634 -633 -618 0
634 -633 618 0
634 633 -618 0
-635 634 619 0
-635 -634 -619 0
635 -634 619 0
635 634 -619 0
-635 0
-636 388 0
-636 40 0
636 -388 -40 0
-637 390 0
-637 46 0
637 -390 -46 0
-638 392 0
-638 39 0
638 -392 -39 0
-639 394 0
-639 47 0
639 -394 -47 0
-640 396 0
-640 42 0
640 -396 -42 0
-641 398 0
-641 44 0
641 -398 -44 0
-642 400 0
-642 46 0
642 -400 -46 0
-643 402 0
-643 40 0
643 -402 -40 0
-644 404 0
-644 42 0
644 -404 -42 0
-645 406 0
-645 44 0
645 -406 -44 0
-646 408 0
-646 39 0
646 -408 -39 0
-647 410 0
-647 47 0
647 -410 -47 0
-648 412 0
-648 88 0
648 -412 -88 0
-649 414 0
-649 94 0
649 -414 -94 0
-650 416 0
-650 136 0
650 -416 -136 0
-651 418 0
-651 142 0
651 -418 -142 0
-652 420 0
-652 184 0
652 -420 -184 0
-653 636 637 0
-653 -636 -637 0
653 -636 637 0
653 636 -637 0
-654 653 638 0
-654 -653 -638 0
654 -653 638 0
654 653 -638 0
-655 654 639 0
-655 -654 -639 0
655 -654 639 0
655 654 -639 0
-656 655 640 0
-656 -655 -640 0
656 -655 640 0
656 655 -640 0
-657 656 641 0
-657 -656 -641 0
657 -656 641 0
657 656 -641 0
-658 657 642 0
-658 -657 -642 0
658 -657 642 0
658 657 -642 0
-659 658 643 0
-659 -658 -643 0
659 -658 643 0
659 658 -643 0
-660 659 644 0
-660 -659 -644 0
660 -659 644 0
660 659 -644 0
-661 660 645 0
-661 -660 -645 0
661 -660 645 0
661 660 -645 0
-662 661 646 0
-662 -661 -646 0
662 -661 646 0
662 661 -646 0
-663 662 647 0
-663 -662 -647 0
663 -662 647 0
663 662 -647 0
-664 663 648 0
-664 -663 -648 0
664 -663 648 0
664 663 -648 0
-665 664 649 0
-665 -664 -649 0
665 -664 649 0
665 664 -649 0
-666 665 650 0
-666 -665 -650 0
666 -665 650 0
666 665 -650 0
-667 666 651 0
-667 -666 -651 0
667 -666 651 0
667 666 -651 0
-668 667 652 0
-668 -667 -652 0
668 -667 652 0
668 667 -652 0
-668 0
-669 388 0
-669 41 0
669 -388 -41 0
-670 390 0
-670 41 0
670 -390 -41 0
-671 392 0
-671 45 0
671 -392 -45 0
-672 394 0
-672 37 0
672 -394 -37 0
-673 396 0
-673 45 0
673 -396 -45 0
-674 398 0
-674 37 0
674 -398 -37 0
-675 400 0
-675 35 0
675 -400 -35 0
-676 402 0
-676 35 0
676 -402 -35 0
-677 404 0
-677 36 0
677 -404 -36 0
-678 406 0
-678 34 0
678 -406 -34 0
-679 408 0
-679 36 0
679 -408 -36 0
-680 410 0
-680 34 0
680 -410 -34 0
-681 412 0
-681 89 0
681 -412 -89 0
-682 414 0
-682 83 0
682 -414 -83 0
-683 416 0
-683 137 0
683 -416 -137 0
-684 418 0
-684 131 0
684 -418 -131 0
-685 420 0
-685 185 0
685 -420 -185 0
-686 669 670 0
-686 -669 -670 0
686 -669 670 0
686 669 -670 0
-687 686 671 0
-687 -686 -671 0
687 -686 671 0
687 686 -671 0
-688 687 672 0
-688 -687 -672 0
688 -687 672 0
688 687 -672 0
-689 688 673 0
-689 -688 -673 0
689 -688 673 0
689 688 -673 0
-690 689 674 0
-690 -689 -674 0
690 -689 674 0
690 689 -674 0
-691 690 675 0
-691 -690 -675 0
691 -690 675 0
691 690 -675 0
-692 691 676 0
-692 -691 -676 0
692 -691 676 0
692 691 -676 0
-693 692 677 0
-693 -692 -677 0
693 -692 677 0
693 692 -677 0
-694 693 678 0
-694 -693 -678 0
694 -693 678 0
694 693 -678 0
-695 694 679 0
-695 -694 -679 0
695 -694 679 0
695 694 -679 0
-696 695 680 0
-696 -695 -680 0
696 -695 680 0
696 695 -680 0
-697 696 681 0
-697 -696 -681 0
697 -696 681 0
697 696 -681 0
-698 697 682 0
-698 -697 -682 0
698 -697 682 0
698 697 -682 0
-699 698 683 0
-699 -698 -683 0
699 -698 683 0
699 698 -683 0
-700 699 684 0
-700 -699 -684 0
700 -699 684 0
700 699 -684 0
-701 700 685 0
-701 -700 -685 0
701 -700 685 0
701 700 -685 0
-701 0
-702 388 0
-702 42 0
702 -388 -42 0
-703 390 0
-703 44 0
703 -390 -44 0
-704 392 0
-704 46 0
704 -392 -46 0
-705 394 0
-705 40 0
705 -394 -40 0
-706 396 0
-706 47 0
706 -396 -47 0
-707 398 0
-707 39 0
707 -398 -39 0
-708 400 0
-708 39 0
708 -400 -39 0
-709 402 0
-709 47 0
709 -402 -47 0
-710 404 0
-710 40 0
710 -404 -40 0
-711 406 0
-711 46 0
711 -406 -46 0
-712 408 0
-712 44 0
712 -408 -44 0
-713 410 0
-713 42 0
713 -410 -42 0
-714 412 0
-714 90 0
714 -412 -90 0
-715 414 0
-715 87 0
715 -414 -87 0
-716 416 0
-716 138 0
716 -416 -138 0
-717 418 0
-717 135 0
717 -418 -135 0
-718 420 0
-718 186 0
718 -420 -186 0
-719 702 703 0
-719 -702 -703 0
719 -702 703 0
719 702 -703 0
-720 719 704 0
-720 -719 -704 0
720 -719 704 0
720 719 -704 0
-721 720 705 0
-721 -720 -705 0
721 -720 705 0
721 720 -705 0
-722 721 706 0
-722 -721 -706 0
722 -721 706 0
722 721 -706 0
-723 722 707 0
-723 -722 -707 0
723 -722 707 0
723 722 -707 0
-724 723 708 0
-724 -723 -708 0
724 -723 708 0
724 723 -708 0
-725 724 709 0
-725 -724 -709 0
725 -724 709 0
725 724 -709 0
-726 725 710 0
-726 -725 -710 0
726 -725 710 0
726 725 -710 0
-727 726 711 0
-727 -726 -711 0
727 -726 711 0
727 726 -711 0
-728 727 712 0
-728 -727 -712 0
728 -727 712 0
728 727 -712 0
-729 728 713 0
-729 -728 -713 0
729 -728 713 0
729 728 -713 0
-730 729 714 0
-730 -729 -714 0
730 -729 714 0
730 729 -714 0
-731 730 715 0
-731 -730 -715 0
731 -730 715 0
731 730 -715 0
-732 731 716 0
-732 -731 -716 0
732 -731 716 0
732 731 -716 0
-733 732 717 0
-733 -732 -717 0
733 -732 717 0
733 732 -717 0
-734 733 718 0
-734 -733 -718 0
734 -733 718 0
734 733 -718 0
-734 0
-735 388 0
-735 43 0
735 -388 -43 0
-736 390 0
-736 43 0
736 -390 -43 0
-737 392 0
-737 48 0
737 -392 -48 0
-738 394 0
-738 38 0
738 -394 -38 0
-739 396 0
-739 48 0
739 -396 -48 0
-740 398 0
-740 38 0
740 -398 -38 0
-741 400 0
-741 43 0
741 -400 -43 0
-742 402 0
-742 43 0
742 -402 -43 0
-743 404 0
-743 48 0
743 -404 -48 0
-744 406 0
-744 38 0
744 -406 -38 0
-745 408 0
-745 48 0
745 -408 -48 0
-746 410 0
-746 38 0
746 -410 -38 0
-747 412 0
-747 91 0
747 -412 -91 0
-748 414 0
-748 91 0
748 -414 -91 0
-749 416 0
-749 139 0
749 -416 -139 0
-750 418 0
-750 139 0
750 -418 -139 0
-751 420 0
-751 187 0
751 -420 -187 0
-752 735 736 0
-752 -735 -736 0
752 -735 736 0
752 735 -736 0
-753 752 737 0
-753 -752 -737 0
753 -752 737 0
753 752 -737 0
-754 753 738 0
-754 -753 -738 0
754 -753 738 0
754 753 -738 0
-755 754 739 0
-755 -754 -739 0
755 -754 739 0
755 754 -739 0
-756 755 740 0
-756 -755 -740 0
756 -755 740 0
756 755 -740 0
-757 756 741 0
-757 -756 -741 0
757 -756 741 0
757 756 -741 0
-758 757 742 0
-758 -757 -742 0
758 -757 742 0
758 757 -742 0
-759 758 743 0
-759 -758 -743 0
759 -758 743 0
759 758 -743 0
-760 759 744 0
-760 -759 -744 0
760 -759 744 0
760 759 -744 0
-761 760 745 0
-761 -760 -745 0
761 -760 745 0
761 760 -745 0
-762 761 746 0
-762 -761 -746 0
762 -761 746 0
762 761 -746 0
-763 762 747 0
-763 -762 -747 0
763 -762 747 0
763 762 -747 0
-764 763 748 0
-764 -763 -748 0
764 -763 748 0
764 763 -748 0
-765 764 749 0
-765 -764 -749 0
765 -764 749 0
765 764 -749 0
-766 765 750 0
-766 -765 -750 0
766 -765 750 0
766 765 -750 0
-767 766 751 0
-767 -766 -751 0
767 -766 751 0
767 766 -751 0
-767 0
-768 388 0
-768 44 0
768 -388 -44 0
-769 390 0
-769 42 0
769 -390 -42 0
-770 392 0
-770 47 0
770 -392 -47 0
-771 394 0
-771 39 0
771 -394 -39 0
-772 396 0
-772 46 0
772 -396 -46 0
-773 398 0
-773 40 0
773 -398 -40 0
-774 400 0
-774 47 0
774 -400 -47 0
-775 402 0
-775 39 0
775 -402 -39 0
-776 404 0
-776 44 0
776 -404 -44 0
-777 406 0
-777 42 0
777 -406 -42 0
-778 408 0
-778 40 0
778 -408 -40 0
-779 410 0
-779 46 0
779 -410 -46 0
-780 412 0
-780 92 0
780 -412 -92 0
-781 414 0
-781 95 0
781 -414 -95 0
-782 416 0
-782 140 0
782 -416 -140 0
-783 418 0
-783 143 0
783 -418 -143 0
-784 420 0
-784 188 0
784 -420 -188 0
-785 768 769 0
-785 -768 -769 0
785 -768 769 0
785 768 -769 0
-786 785 770 0
-786 -785 -770 0
786 -785 770 0
786 785 -770 0
-787 786 771 0
-787 -786 -771 0
787 -786 771 0
787 786 -771 0
-788 787 772 0
-788 -787 -772 0
788 -787 772 0
788 787 -772 0
-789 788 773 0
-789 -788 -773 0
789 -788 773 0
789 788 -773 0
-790 789 774 0
-790 -789 -774 0
790 -789 774 0
790 789 -774 0
-791 790 775 0
-791 -790 -775 0
791 -790 775 0
791 790 -775 0
-792 791 776 0
-792 -791 -776 0
792 -791 776 0
792 791 -776 0
-793 792 777 0
-793 -792 -777 0
793 -792 777 0
793 792 -777 0
-794 793 778 0
-794 -793 -778 0
794 -793 778 0
794 793 -778 0
-795 794 779 0
-795 -794 -779 0
795 -794 779 0
795 794 -779 0
-796 795 780 0
-796 -795 -780 0
796 -795 780 0
796 795 -780 0
-797 796 781 0
-797 -796 -781 0
797 -796 781 0
797 796 -781 0
-798 797 782 0
-798 -797 -782 0
798 -797 782 0
798 797 -782 0
-799 798 783 0
-799 -798 -783 0
799 -798 783 0
799 798 -783 0
-800 799 784 0
-800 -799 -784 0
800 -799 784 0
800 799 -784 0
-800 0
-801 388 0
-801 45 0
801 -388 -45 0
-802 390 0
-802 37 0
802 -390 -37 0
-803 392 0
-803 41 0
803 -392 -41 0
-804 394 0
-804 41 0
804 -394 -41 0
-805 396 0
-805 37 0
805 -396 -37 0
-806 398 0
-806 45 0
806 -398 -45 0
-807 400 0
-807 36 0
807 -400 -36 0
-808 402 0
-808 34 0
808 -402 -34 0
-809 404 0
-809 35 0
809 -404 -35 0
-810 406 0
-810 35 0
810 -406 -35 0
-811 408 0
-811 34 0
811 -408 -34 0
-812 410 0
-812 36 0
812 -410 -36 0
-813 412 0
-813 93 0
813 -412 -93 0
-814 414 0
-814 84 0
814 -414 -84 0
-815 416 0
-815 141 0
815 -416 -141 0
-816 418 0
-816 132 0
816 -418 -132 0
-817 420 0
-817 189 0
817 -420 -189 0
-818 801 802 0
-818 -801 -802 0
818 -801 802 0
818 801 -802 0
-819 818 803 0
-819 -818 -803 0
819 -818 803 0
819 818 -803 0
-820 819 804 0
-820 -819 -804 0
820 -819 804 0
820 819 -804 0
-821 820 805 0
-821 -820 -805 0
821 -820 805 0
821 820 -805 0
-822 821 806 0
-822 -821 -806 0
822 -821 806 0
822 821 -806 0
-823 822 807 0
-823 -822 -807 0
823 -822 807 0
823 822 -807 0
-824 823 808 0
-824 -823 -808 0
824 -823 808 0
824 823 -808 0
-825 824 809 0
-825 -824 -809 0
825 -824 809 0
825 824 -809 0
-826 825 810 0
-826 -825 -810 0
826 -825 810 0
826 825 -810 0
-827 826 811 0
-827 -826 -811 0
827 -826 811 0
827 826 -811 0
-828 827 812 0
-828 -827 -812 0
828 -827 812 0
828 827 -812 0
-829 828 813 0
-829 -828 -813 0
829 -828 813 0
829 828 -813 0
-830 829 814 0
-830 -829 -814 0
830 -829 814 0
830 829 -814 0
-831 830 815 0
-831 -830 -815 0
831 -830 815 0
831 830 -815 0
-832 831 816 0
-832 -831 -816 0
832 -831 816 0
832 831 -816 0
-833 832 817 0
-833 -832 -817 0
833 -832 817 0
833 832 -817 0
-833 0
-834 388 0
-834 46 0
834 -388 -46 0
-835 390 0
-835 40 0
835 -390 -40 0
-836 392 0
-836 42 0
836 -392 -42 0
-837 394 0
-837 44 0
837 -394 -44 0
-838 396 0
-838 39 0
838 -396 -39 0
-839 398 0
-839 47 0
839 -398 -47 0
-840 400 0
-840 40 0
840 -400 -40 0
-841 402 0
-841 46 0
841 -402 -46 0
-842 404 0
-842 39 0
842 -404 -39 0
-843 406 0
-843 47 0
843 -406 -47 0
-844 408 0
-844 42 0
844 -408 -42 0
-845 410 0
-845 44 0
845 -410 -44 0
-846 412 0
-846 94 0
846 -412 -94 0
-847 414 0
-847 88 0
847 -414 -88 0
-848 416 0
-848 142 0
848 -416 -142 0
-849 418 0
-849 136 0
849 -418 -136 0
-850 420 0
-850 190 0
850 -420 -190 0
-851 834 835 0
-851 -834 -835 0
851 -834 835 0
851 834 -835 0
-852 851 836 0
-852 -851 -836 0
852 -851 836 0
852 851 -836 0
-853 852 837 0
-853 -852 -837 0
853 -852 837 0
853 852 -837 0
-854 853 838 0
-854 -853 -838 0
854 -853 838 0
854 853 -838 0
-855 854 839 0
-855 -854 -839 0
855 -854 839 0
855 854 -839 0
-856 855 840 0
-856 -855 -840 0
856 -855 840 0
856 855 -840 0
-857 856 841 0
-857 -856 -841 0
857 -856 841 0
857 856 -841 0
-858 857 842 0
-858 -857 -842 0
858 -857 842 0
858 857 -842 0
-859 858 843 0
-859 -858 -843 0
859 -858 843 0
859 858 -843 0
-860 859 844 0
-860 -859 -844 0
860 -859 844 0
860 859 -844 0
-861 860 845 0
-861 -860 -845 0
861 -860 845 0
861 860 -845 0
-862 861 846 0
-862 -861 -846 0
862 -861 846 0
862 861 -846 0
-863 862 847 0
-863 -862 -847 0
863 -862 847 0
863 862 -847 0
-864 863 848 0
-864 -863 -848 0
864 -863 848 0
864 863 -848 0
-865 864 849 0
-865 -864 -849 0
865 -864 849 0
865 864 -849 0
-866 865 850 0
-866 -865 -850 0
866 -865 850 0
866 865 -850 0
-866 0
-867 388 0
-867 47 0
867 -388 -47 0
-868 390 0
-868 39 0
868 -390 -39 0
-869 392 0
-869 44 0
869 -392 -44 0
-870 394 0
-870 42 0
870 -394 -42 0
-871 396 0
-871 40 0
871 -396 -40 0
-872 398 0
-872 46 0
872 -398 -46 0
-873 400 0
-873 44 0
873 -400 -44 0
-874 402 0
-874 42 0
874 -402 -42 0
-875 404 0
-875 47 0
875 -404 -47 0
-876 406 0
-876 39 0
876 -406 -39 0
-877 408 0
-877 46 0
877 -408 -46 0
-878 410 0
-878 40 0
878 -410 -40 0
-879 412 0
-879 95 0
879 -412 -95 0
-880 414 0
-880 92 0
880 -414 -92 0
-881 416 0
-881 143 0
881 -416 -143 0
-882 418 0
-882 140 0
882 -418 -140 0
-883 420 0
-883 191 0
883 -420 -191 0
-884 867 868 0
-884 -867 -868 0
884 -867 868 0
884 867 -868 0
-885 884 869 0
-885 -884 -869 0
885 -884 869 0
885 884 -869 0
-886 885 870 0
-886 -885 -870 0
886 -885 870 0
886 885 -870 0
-887 886 871 0
-887 -886 -871 0
887 -886 871 0
887 886 -871 0
-888 887 872 0
-888 -887 -872 0
888 -887 872 0
888 887 -872 0
-889 888 873 0
-889 -888 -873 0
889 -888 873 0
889 888 -873 0
-890 889 874 0
-890 -889 -874 0
890 -889 874 0
890 889 -874 0
-891 890 875 0
-891 -890 -875 0
891 -890 875 0
891 890 -875 0
-892 891 876 0
-892 -891 -876 0
892 -891 876 0
892 891 -876 0
-893 892 877 0
-893 -892 -877 0
893 -892 877 0
893 892 -877 0
-894 893 878 0
-894 -893 -878 0
894 -893 878 0
894 893 -878 0
-895 894 879 0
-895 -894 -879 0
895 -894 879 0
895 894 -879 0
-896 895 880 0
-896 -895 -880 0
896 -895 880 0
896 895 -880 0
-897 896 881 0
-897 -896 -881 0
897 -896 881 0
897 896 -881 0
-898 897 882 0
-898 -897 -882 0
898 -897 882 0
898 897 -882 0
-899 898 883 0
-899 -898 -883 0
899 -898 883 0
899 898 -883 0
-899 0
-900 388 0
-900 48 0
900 -388 -48 0
-901 390 0
-901 38 0
901 -390 -38 0
-902 392 0
-902 43 0
902 -392 -43 0
-903 394 0
-903 43 0
903 -394 -43 0
-904 396 0
-904 38 0
904 -396 -38 0
-905 398 0
-905 48 0
905 -398 -48 0
-906 400 0
-906 48 0
906 -400 -48 0
-907 402 0
-907 38 0
907 -402 -38 0
-908 404 0
-908 43 0
908 -404 -43 0
-909 406 0
-909 43 0
909 -406 -43 0
-910 408 0
-910 38 0
910 -408 -38 0
-911 410 0
-911 48 0
911 -410 -48 0
-912 412 0
-912 96 0
912 -412 -96 0
-913 414 0
-913 96 0
913 -414 -96 0
-914 416 0
-914 144 0
914 -416 -144 0
-915 418 0
-915 144 0
915 -418 -144 0
-916 420 0
-916 192 0
916 -420 -192 0
-917 900 901 0
-917 -900 -901 0
917 -900 901 0
917 900 -901 0
-918 917 902 0
-918 -917 -902 0
918 -917 902 0
918 917 -902 0
-919 918 903 0
-919 -918 -903 0
919 -918 903 0
919 918 -903 0
-920 919 904 0
-920 -919 -904 0
920 -919 904 0
920 919 -904 0
-921 920 905 0
-921 -920 -905 0
921 -920 905 0
921 920 -905 0
-922 921 906 0
-922 -921 -906 0
922 -921 906 0
922 921 -906 0
-923 922 907 0
-923 -922 -907 0
923 -922 907 0
923 922 -907 0
-924 923 908 0
-924 -923 -908 0
924 -923 908 0
924 923 -908 0
-925 924 909 0
-925 -924 -909 0
925 -924 909 0
925 924 -909 0
-926 925 910 0
-926 -925 -910 0
926 -925 910 0
926 925 -910 0
-927 926 911 0
-927 -926 -911 0
927 -926 911 0
927 926 -911 0
-928 927 912 0
-928 -927 -912 0
928 -927 912 0
928 927 -912 0
-929 928 913 0
-929 -928 -913 0
929 -928 913 0
929 928 -913 0
-930 929 914 0
-930 -929 -914 0
930 -929 914 0
930 929 -914 0
-931 930 915 0
-931 -930 -915 0
931 -930 915 0
931 930 -915 0
-932 931 916 0
-932 -931 -916 0
932 -931 916 0
932 931 -916 0
-932 0
-933 1 0
-933 19 0
933 -1 -19 0
-934 933 0
-934 33 0
934 -933 -33 0
-935 2 0
-935 24 0
935 -2 -24 0
-936 935 0
-936 33 0
936 -935 -33 0
-937 3 0
-937 26 0
937 -3 -26 0
-938 937 0
-938 33 0
938 -937 -33 0
-939 17 0
-939 9 0
939 -17 -9 0
-940 939 0
-940 33 0
940 -939 -33 0
-941 21 0
-941 14 0
941 -21 -14 0
-942 941 0
-942 33 0
942 -941 -33 0
-943 25 0
-943 7 0
943 -25 -7 0
-944 943 0
-944 33 0
944 -943 -33 0
-945 49 0
-945 67 0
945 -49 -67 0
-946 945 0
-946 81 0
946 -945 -81 0
-947 65 0
-947 57 0
947 -65 -57 0
-948 947 0
-948 81 0
948 -947 -81 0
-949 97 0
-949 115 0
949 -97 -115 0
-950 949 0
-950 129 0
950 -949 -129 0
-951 113 0
-951 105 0
951 -113 -105 0
-952 951 0
-952 129 0
952 -951 -129 0
-953 145 0
-953 163 0
953 -145 -163 0
-954 953 0
-954 177 0
954 -953 -177 0
-955 934 934 0
-955 -934 -934 0
955 -934 934 0
955 934 -934 0
-956 955 936 0
-956 -955 -936 0
956 -955 936 0
956 955 -936 0
-957 956 938 0
-957 -956 -938 0
957 -956 938 0
957 956 -938 0
-958 957 936 0
-958 -957 -936 0
958 -957 936 0
958 957 -936 0
-959 958 938 0
-959 -958 -938 0
959 -958 938 0
959 958 -938 0
-960 959 940 0
-960 -959 -940 0
960 -959 940 0
960 959 -940 0
-961 960 940 0
-961 -960 -940 0
961 -960 940 0
961 960 -940 0
-962 961 942 0
-962 -961 -942 0
962 -961 942 0
962 961 -942 0
-963 962 944 0
-963 -962 -944 0
963 -962 944 0
963 962 -944 0
-964 963 942 0
-964 -963 -942 0
964 -963 942 0
964 963 -942 0
-965 964 944 0
-965 -964 -944 0
965 -964 944 0
965 964 -944 0
-966 965 946 0
-966 -965 -946 0
966 -965 946 0
966 965 -946 0
-967 966 948 0
-967 -966 -948 0
967 -966 948 0
967 966 -948 0
-968 967 950 0
-968 -967 -950 0
968 -967 950 0
968 967 -950 0
-969 968 952 0
-969 -968 -952 0
969 -968 952 0
969 968 -952 0
-970 969 954 0
-970 -969 -954 0
970 -969 954 0
970 969 -954 0
-970 0
-971 933 0
-971 34 0
971 -933 -34 0
-972 933 0
-972 36 0
972 -933 -36 0
-973 935 0
-973 34 0
973 -935 -34 0
-974 937 0
-974 36 0
974 -937 -36 0
-975 935 0
-975 35 0
975 -935 -35 0
-976 937 0
-976 35 0
976 -937 -35 0
-977 939 0
-977 37 0
977 -939 -37 0
-978 939 0
-978 45 0
978 -939 -45 0
-979 941 0
-979 37 0
979 -941 -37 0
-980 943 0
-980 45 0
980 -943 -45 0
-981 941 0
-981 41 0
981 -941 -41 0
-982 943 0
-982 41 0
982 -943 -41 0
-983 945 0
-983 82 0
983 -945 -82 0
-984 947 0
-984 85 0
984 -947 -85 0
-985 949 0
-985 130 0
985 -949 -130 0
-986 951 0
-986 133 0
986 -951 -133 0
-987 953 0
-987 178 0
987 -953 -178 0
-988 971 972 0
-988 -971 -972 0
988 -971 972 0
988 971 -972 0
-989 988 973 0
-989 -988 -973 0
989 -988 973 0
989 988 -973 0
-990 989 974 0
-990 -989 -974 0
990 -989 974 0
990 989 -974 0
-991 990 975 0
-991 -990 -975 0
991 -990 975 0
991 990 -975 0
-992 991 976 0
-992 -991 -976 0
992 -991 976 0
992 991 -976 0
-993 992 977 0
-993 -992 -977 0
993 -992 977 0
993 992 -977 0
-994 993 978 0
-994 -993 -978 0
994 -993 978 0
994 993 -978 0
-995 994 979 0
-995 -994 -979 0
995 -994 979 0
995 994 -979 0
-996 995 980 0
-996 -995 -980 0
996 -995 980 0
996 995 -980 0
-997 996 981 0
-997 -996 -981 0
997 -996 981 0
997 996 -981 0
-998 997 982 0
-998 -997 -982 0
998 -997 982 0
998 997 -982 0
-999 998 983 0
-999 -998 -983 0
999 -998 983 0
999 998 -983 0
-1000 999 984 0
-1000 -999 -984 0
1000 -999 984 0
1000 999 -984 0
-1001 1000 985 0
-1001 -1000 -985 0
1001 -1000 985 0
1001 1000 -985 0
-1002 1001 986 0
-1002 -1001 -986 0
1002 -1001 986 0
1002 1001 -986 0
-1003 1002 987 0
-1003 -1002 -987 0
1003 -1002 987 0
1003 1002 -987 0
-1003 0
-1004 933 0
-1004 35 0
1004 -933 -35 0
-1005 935 0
-1005 36 0
1005 -935 -36 0
-1006 937 0
-1006 34 0
1006 -937 -34 0
-1007 939 0
-1007 41 0
1007 -939 -41 0
-1008 941 0
-1008 45 0
1008 -941 -45 0
-1009 943 0
-1009 37 0
1009 -943 -37 0
-1010 945 0
-1010 83 0
1010 -945 -83 0
-1011 947 0
-1011 89 0
1011 -947 -89 0
-1012 949 0
-1012 131 0
1012 -949 -131 0
-1013 951 0
-1013 137 0
1013 -951 -137 0
-1014 953 0
-1014 179 0
1014 -953 -179 0
-1015 1004 1004 0
-1015 -1004 -1004 0
1015 -1004 1004 0
1015 1004 -1004 0
-1016 1015 1005 0
-1016 -1015 -1005 0
1016 -1015 1005 0
1016 1015 -1005 0
-1017 1016 1006 0
-1017 -1016 -1006 0
1017 -1016 1006 0
1017 1016 -1006 0
-1018 1017 1005 0
-1018 -1017 -1005 0
1018 -1017 1005 0
1018 1017 -1005 0
-1019 1018 1006 0
-1019 -1018 -1006 0
1019 -1018 1006 0
1019 1018 -1006 0
-1020 1019 1007 0
-1020 -1019 -1007 0
1020 -1019 1007 0
1020 1019 -1007 0
-1021 1020 1007 0
-1021 -1020 -1007 0
1021 -1020 1007 0
1021 1020 -1007 0
-1022 1021 1008 0
-1022 -1021 -1008 0
1022 -1021 1008 0
1022 1021 -1008 0
-1023 1022 1009 0
-1023 -1022 -1009 0
1023 -1022 1009 0
1023 1022 -1009 0
-1024 1023 1008 0
-1024 -1023 -1008 0
1024 -1023 1008 0
1024 1023 -1008 0
-1025 1024 1009 0
-1025 -1024 -1009 0
1025 -1024 1009 0
1025 1024 -1009 0
-1026 1025 1010 0
-1026 -1025 -1010 0
1026 -1025 1010 0
1026 1025 -1010 0
-1027 1026 1011 0
-1027 -1026 -1011 0
1027 -1026 1011 0
1027 1026 -1011 0
-1028 1027 1012 0
-1028 -1027 -1012 0
1028 -1027 1012 0
1028 1027 -1012 0
-1029 1028 1013 0
-1029 -1028 -1013 0
1029 -1028 1013 0
1029 1028 -1013 0
-1030 1029 1014 0
-1030 -1029 -1014 0
1030 -1029 1014 0
1030 1029 -1014 0
-1030 0
-1031 933 0
-1031 37 0
1031 -933 -37 0
-1032 933 0
-1032 45 0
1032 -933 -45 0
-1033 935 0
-1033 37 0
1033 -935 -37 0
-1034 937 0
-1034 45 0
1034 -937 -45 0
-1035 935 0
-1035 41 0
1035 -935 -41 0
-1036 937 0
-1036 41 0
1036 -937 -41 0
-1037 939 0
-1037 34 0
1037 -939 -34 0
-1038 939 0
-1038 36 0
1038 -939 -36 0
-1039 941 0
-1039 34 0
1039 -941 -34 0
-1040 943 0
-1040 36 0
1040 -943 -36 0
-1041 941 0
-1041 35 0
1041 -941 -35 0
-1042 943 0
-1042 35 0
1042 -943 -35 0
-1043 945 0
-1043 85 0
1043 -945 -85 0
-1044 947 0
-1044 82 0
1044 -947 -82 0
-1045 949 0
-1045 133 0
1045 -949 -133 0
-1046 951 0
-1046 130 0
1046 -951 -130 0
-1047 953 0
-1047 181 0
1047 -953 -181 0
-1048 1031 1032 0
-1048 -1031 -1032 0
1048 -1031 1032 0
1048 1031 -1032 0
-1049 1048 1033 0
-1049 -1048 -1033 0
1049 -1048 1033 0
1049 1048 -1033 0
-1050 1049 1034 0
-1050 -1049 -1034 0
1050 -1049 1034 0
1050 1049 -1034 0
-1051 1050 1035 0
-1051 -1050 -1035 0
1051 -1050 1035 0
1051 1050 -1035 0
-1052 1051 1036 0
-1052 -1051 -1036 0
1052 -1051 1036 0
1052 1051 -1036 0
-1053 1052 1037 0
-1053 -1052 -1037 0
1053 -1052 1037 0
1053 1052 -1037 0
-1054 1053 1038 0
-1054 -1053 -1038 0
1054 -1053 1038 0
1054 1053 -1038 0
-1055 1054 1039 0
-1055 -1054 -1039 0
1055 -1054 1039 0
1055 1054 -1039 0
-1056 1055 1040 0
-1056 -1055 -1040 0
1056 -1055 1040 0
1056 1055 -1040 0
-1057 1056 1041 0
-1057 -1056 -1041 0
1057 -1056 1041 0
1057 1056 -1041 0
-1058 1057 1042 0
-1058 -1057 -1042 0
1058 -1057 1042 0
1058 1057 -1042 0
-1059 1058 1043 0
-1059 -1058 -1043 0
1059 -1058 1043 0
1059 1058 -1043 0
-1060 1059 1044 0
-1060 -1059 -1044 0
1060 -1059 1044 0
1060 1059 -1044 0
-1061 1060 1045 0
-1061 -1060 -1045 0
1061 -1060 1045 0
1061 1060 -1045 0
-1062 1061 1046 0
-1062 -1061 -1046 0
1062 -1061 1046 0
1062 1061 -1046 0
-1063 1062 1047 0
-1063 -1062 -1047 0
1063 -1062 1047 0
1063 1062 -1047 0
-1063 0
-1064 933 0
-1064 38 0
1064 -933 -38 0
-1065 933 0
-1065 48 0
1065 -933 -48 0
-1066 935 0
-1066 38 0
1066 -935 -38 0
-1067 937 0
-1067 48 0
1067 -937 -48 0
-1068 935 0
-1068 43 0
1068 -935 -43 0
-1069 937 0
-1069 43 0
1069 -937 -43 0
-1070 939 0
-1070 38 0
1070 -939 -38 0
-1071 939 0
-1071 48 0
1071 -939 -48 0
-1072 941 0
-1072 38 0
1072 -941 -38 0
-1073 943 0
-1073 48 0
1073 -943 -48 0
-1074 941 0
-1074 43 0
1074 -941 -43 0
-1075 943 0
-1075 43 0
1075 -943 -43 0
-1076 945 0
-1076 86 0
1076 -945 -86 0
-1077 947 0
-1077 86 0
1077 -947 -86 0
-1078 949 0
-1078 134 0
1078 -949 -134 0
-1079 951 0
-1079 134 0
1079 -951 -134 0
-1080 953 0
-1080 182 0
1080 -953 -182 0
-1081 1064 1065 0
-1081 -1064 -1065 0
1081 -1064 1065 0
1081 1064 -1065 0
-1082 1081 1066 0
-1082 -1081 -1066 0
1082 -1081 1066 0
1082 1081 -1066 0
-1083 1082 1067 0
-1083 -1082 -1067 0
1083 -1082 1067 0
1083 1082 -1067 0
-1084 1083 1068 0
-1084 -1083 -1068 0
1084 -1083 1068 0
1084 1083 -1068 0
-1085 1084 1069 0
-1085 -1084 -1069 0
1085 -1084 1069 0
1085 1084 -1069 0
-1086 1085 1070 0
-1086 -1085 -1070 0
1086 -1085 1070 0
1086 1085 -1070 0
-1087 1086 1071 0
-1087 -1086 -1071 0
1087 -1086 1071 0
1087 1086 -1071 0
-1088 1087 1072 0
-1088 -1087 -1072 0
1088 -1087 1072 0
1088 1087 -1072 0
-1089 1088 1073 0
-1089 -1088 -1073 0
1089 -1088 1073 0
1089 1088 -1073 0
-1090 1089 1074 0
-1090 -1089 -1074 0
1090 -1089 1074 0
1090 1089 -1074 0
-1091 1090 1075 0
-1091 -1090 -1075 0
1091 -1090 1075 0
1091 1090 -1075 0
-1092 1091 1076 0
-1092 -1091 -1076 0
1092 -1091 1076 0
1092 1091 -1076 0
-1093 1092 1077 0
-1093 -1092 -1077 0
1093 -1092 1077 0
1093 1092 -1077 0
-1094 1093 1078 0
-1094 -1093 -1078 0
1094 -1093 1078 0
1094 1093 -1078 0
-1095 1094 1079 0
-1095 -1094 -1079 0
1095 -1094 1079 0
1095 1094 -1079 0
-1096 1095 1080 0
-1096 -1095 -1080 0
1096 -1095 1080 0
1096 1095 -1080 0
-1096 0
-1097 933 0
-1097 39 0
1097 -933 -39 0
-1098 933 0
-1098 47 0
1098 -933 -47 0
-1099 935 0
-1099 40 0
1099 -935 -40 0
-1100 937 0
-1100 46 0
1100 -937 -46 0
-1101 935 0
-1101 44 0
1101 -935 -44 0
-1102 937 0
-1102 42 0
1102 -937 -42 0
-1103 939 0
-1103 42 0
1103 -939 -42 0
-1104 939 0
-1104 44 0
1104 -939 -44 0
-1105 941 0
-1105 46 0
1105 -941 -46 0
-1106 943 0
-1106 40 0
1106 -943 -40 0
-1107 941 0
-1107 47 0
1107 -941 -47 0
-1108 943 0
-1108 39 0
1108 -943 -39 0
-1109 945 0
-1109 87 0
1109 -945 -87 0
-1110 947 0
-1110 90 0
1110 -947 -90 0
-1111 949 0
-1111 135 0
1111 -949 -135 0
-1112 951 0
-1112 138 0
1112 -951 -138 0
-1113 953 0
-1113 183 0
1113 -953 -183 0
-1114 1097 1098 0
-1114 -1097 -1098 0
1114 -1097 1098 0
1114 1097 -1098 0
-1115 1114 1099 0
-1115 -1114 -1099 0
1115 -1114 1099 0
1115 1114 -1099 0
-1116 1115 1100 0
-1116 -1115 -1100 0
1116 -1115 1100 0
1116 1115 -1100 0
-1117 1116 1101 0
-1117 -1116 -1101 0
1117 -1116 1101 0
1117 1116 -1101 0
-1118 1117 1102 0
-1118 -1117 -1102 0
1118 -1117 1102 0
1118 1117 -1102 0
-1119 1118 1103 0
-1119 -1118 -1103 0
1119 -1118 1103 0
1119 1118 -1103 0
-1120 1119 1104 0
-1120 -1119 -1104 0
1120 -1119 1104 0
1120 1119 -1104 0
-1121 1120 1105 0
-1121 -1120 -1105 0
1121 -1120 1105 0
1121 1120 -1105 0
-1122 1121 1106 0
-1122 -1121 -1106 0
1122 -1121 1106 0
1122 1121 -1106 0
-1123 1122 1107 0
-1123 -1122 -1107 0
1123 -1122 1107 0
1123 1122 -1107 0
-1124 1123 1108 0
-1124 -1123 -1108 0
1124 -1123 1108 0
1124 1123 -1108 0
-1125 1124 1109 0
-1125 -1124 -1109 0
1125 -1124 1109 0
1125 1124 -1109 0
-1126 1125 1110 0
-1126 -1125 -1110 0
1126 -1125 1110 0
1126 1125 -1110 0
-1127 1126 1111 0
-1127 -1126 -1111 0
1127 -1126 1111 0
1127 1126 -1111 0
-1128 1127 1112 0
-1128 -1127 -1112 0
1128 -1127 1112 0
1128 1127 -1112 0
-1129 1128 1113 0
-1129 -1128 -1113 0
1129 -1128 1113 0
1129 1128 -1113 0
-1129 0
-1130 933 0
-1130 40 0
1130 -933 -40 0
-1131 933 0
-1131 46 0
1131 -933 -46 0
-1132 935 0
-1132 39 0
1132 -935 -39 0
-1133 937 0
-1133 47 0
1133 -937 -47 0
-1134 935 0
-1134 42 0
1134 -935 -42 0
-1135 937 0
-1135 44 0
1135 -937 -44 0
-1136 939 0
-1136 46 0
1136 -939 -46 0
-1137 939 0
-1137 40 0
1137 -939 -40 0
-1138 941 0
-1138 42 0
1138 -941 -42 0
-1139 943 0
-1139 44 0
1139 -943 -44 0
-1140 941 0
-1140 39 0
1140 -941 -39 0
-1141 943 0
-1141 47 0
1141 -943 -47 0
-1142 945 0
-1142 88 0
1142 -945 -88 0
-1143 947 0
-1143 94 0
1143 -947 -94 0
-1144 949 0
-1144 136 0
1144 -949 -136 0
-1145 951 0
-1145 142 0
1145 -951 -142 0
-1146 953 0
-1146 184 0
1146 -953 -184 0
-1147 1130 1131 0
-1147 -1130 -1131 0
1147 -1130 1131 0
1147 1130 -1131 0
-1148 1147 1132 0
-1148 -1147 -1132 0
1148 -1147 1132 0
1148 1147 -1132 0
-1149 1148 1133 0
-1149 -1148 -1133 0
1149 -1148 1133 0
1149 1148 -1133 0
-1150 1149 1134 0
-1150 -1149 -1134 0
1150 -1149 1134 0
1150 1149 -1134 0
-1151 1150 1135 0
-1151 -1150 -1135 0
1151 -1150 1135 0
1151 1150 -1135 0
-1152 1151 1136 0
-1152 -1151 -1136 0
1152 -1151 1136 0
1152 1151 -1136 0
-1153 1152 1137 0
-1153 -1152 -1137 0
1153 -1152 1137 0
1153 1152 -1137 0
-1154 1153 1138 0
-1154 -1153 -1138 0
1154 -1153 1138 0
1154 1153 -1138 0
-1155 1154 1139 0
-1155 -1154 -1139 0
1155 -1154 1139 0
1155 1154 -1139 0
-1156 1155 1140 0
-1156 -1155 -1140 0
1156 -1155 1140 0
1156 1155 -1140 0
-1157 1156 1141 0
-1157 -1156 -1141 0
1157 -1156 1141 0
1157 1156 -1141 0
-1158 1157 1142 0
-1158 -1157 -1142 0
1158 -1157 1142 0
1158 1157 -1142 0
-1159 1158 1143 0
-1159 -1158 -1143 0
1159 -1158 1143 0
1159 1158 -1143 0
-1160 1159 1144 0
-1160 -1159 -1144 0
1160 -1159 1144 0
1160 1159 -1144 0
-1161 1160 1145 0
-1161 -1160 -1145 0
1161 -1160 1145 0
1161 1160 -1145 0
-1162 1161 1146 0
-1162 -1161 -1146 0
1162 -1161 1146 0
1162 1161 -1146 0
-1162 0
-1163 933 0
-1163 41 0
1163 -933 -41 0
-1164 935 0
-1164 45 0
1164 -935 -45 0
-1165 937 0
-1165 37 0
1165 -937 -37 0
-1166 939 0
-1166 35 0
1166 -939 -35 0
-1167 941 0
-1167 36 0
1167 -941 -36 0
-1168 943 0
-1168 34 0
1168 -943 -34 0
-1169 945 0
-1169 89 0
1169 -945 -89 0
-1170 947 0
-1170 83 0
1170 -947 -83 0
-1171 949 0
-1171 137 0
1171 -949 -137 0
-1172 951 0
-1172 131 0
1172 -951 -131 0
-1173 953 0
-1173 185 0
1173 -953 -185 0
-1174 1163 1163 0
-1174 -1163 -1163 0
1174 -1163 1163 0
1174 1163 -1163 0
-1175 1174 1164 0
-1175 -1174 -1164 0
1175 -1174 1164 0
1175 1174 -1164 0
-1176 1175 1165 0
-1176 -1175 -1165 0
1176 -1175 1165 0
1176 1175 -1165 0
-1177 1176 1164 0
-1177 -1176 -1164 0
1177 -1176 1164 0
1177 1176 -1164 0
-1178 1177 1165 0
-1178 -1177 -1165 0
1178 -1177 1165 0
1178 1177 -1165 0
-1179 1178 1166 0
-1179 -1178 -1166 0
1179 -1178 1166 0
1179 1178 -1166 0
-1180 1179 1166 0
-1180 -1179 -1166 0
1180 -1179 1166 0
1180 1179 -1166 0
-1181 1180 1167 0
-1181 -1180 -1167 0
1181 -1180 1167 0
1181 1180 -1167 0
-1182 1181 1168 0
-1182 -1181 -1168 0
1182 -1181 1168 0
1182 1181 -1168 0
-1183 1182 1167 0
-1183 -1182 -1167 0
1183 -1182 1167 0
1183 1182 -1167 0
-1184 1183 1168 0
-1184 -1183 -1168 0
1184 -1183 1168 0
1184 1183 -1168 0
-1185 1184 1169 0
-1185 -1184 -1169 0
1185 -1184 1169 0
1185 1184 -1169 0
-1186 1185 1170 0
-1186 -1185 -1170 0
1186 -1185 1170 0
1186 1185 -1170 0
-1187 1186 1171 0
-1187 -1186 -1171 0
1187 -1186 1171 0
1187 1186 -1171 0
-1188 1187 1172 0
-1188 -1187 -1172 0
1188 -1187 1172 0
1188 1187 -1172 0
-1189 1188 1173 0
-1189 -1188 -1173 0
1189 -1188 1173 0
1189 1188 -1173 0
1189 0
-1190 933 0
-1190 42 0
1190 -933 -42 0
-1191 933 0
-1191 44 0
1191 -933 -44 0
-1192 935 0
-1192 46 0
1192 -935 -46 0
-1193 937 0
-1193 40 0
1193 -937 -40 0
-1194 935 0
-1194 47 0
1194 -935 -47 0
-1195 937 0
-1195 39 0
1195 -937 -39 0
-1196 939 0
-1196 39 0
1196 -939 -39 0
-1197 939 0
-1197 47 0
1197 -939 -47 0
-1198 941 0
-1198 40 0
1198 -941 -40 0
-1199 943 0
-1199 46 0
1199 -943 -46 0
-1200 941 0
-1200 44 0
1200 -941 -44 0
-1201 943 0
-1201 42 0
1201 -943 -42 0
-1202 945 0
-1202 90 0
1202 -945 -90 0
-1203 947 0
-1203 87 0
1203 -947 -87 0
-1204 949 0
-1204 138 0
1204 -949 -138 0
-1205 951 0
-1205 135 0
1205 -951 -135 0
-1206 953 0
-1206 186 0
1206 -953 -186 0
-1207 1190 1191 0
-1207 -1190 -1191 0
1207 -1190 1191 0
1207 1190 -1191 0
-1208 1207 1192 0
-1208 -1207 -1192 0
1208 -1207 1192 0
1208 1207 -1192 0
-1209 1208 1193 0
-1209 -1208 -1193 0
1209 -1208 1193 0
1209 1208 -1193 0
-1210 1209 1194 0
-1210 -1209 -1194 0
1210 -1209 1194 0
1210 1209 -1194 0
-1211 1210 1195 0
-1211 -1210 -1195 0
1211 -1210 1195 0
1211 1210 -1195 0
-1212 1211 1196 0
-1212 -1211 -1196 0
1212 -1211 1196 0
1212 1211 -1196 0
-1213 1212 1197 0
-1213 -1212 -1197 0
1213 -1212 1197 0
1213 1212 -1197 0
-1214 1213 1198 0
-1214 -1213 -1198 0
1214 -1213 1198 0
1214 1213 -1198 0
-1215 1214 1199 0
-1215 -1214 -1199 0
1215 -1214 1199 0
1215 1214 -1199 0
-1216 1215 1200 0
-1216 -1215 -1200 0
1216 -1215 1200 0
1216 1215 -1200 0
-1217 1216 1201 0
-1217 -1216 -1201 0
1217 -1216 1201 0
1217 1216 -1201 0
-1218 1217 1202 0
-1218 -1217 -1202 0
1218 -1217 1202 0
1218 1217 -1202 0
-1219 1218 1203 0
-1219 -1218 -1203 0
1219 -1218 1203 0
1219 1218 -1203 0
-1220 1219 1204 0
-1220 -1219 -1204 0
1220 -1219 1204 0
1220 1219 -1204 0
-1221 1220 1205 0
-1221 -1220 -1205 0
1221 -1220 1205 0
1221 1220 -1205 0
-1222 1221 1206 0
-1222 -1221 -1206 0
1222 -1221 1206 0
1222 1221 -1206 0
-1222 0
-1223 933 0
-1223 43 0
1223 -933 -43 0
-1224 935 0
-1224 48 0
1224 -935 -48 0
-1225 937 0
-1225 38 0
1225 -937 -38 0
-1226 939 0
-1226 43 0
1226 -939 -43 0
-1227 941 0
-1227 48 0
1227 -941 -48 0
-1228 943 0
-1228 38 0
1228 -943 -38 0
-1229 945 0
-1229 91 0
1229 -945 -91 0
-1230 947 0
-1230 91 0
1230 -947 -91 0
-1231 949 0
-1231 139 0
1231 -949 -139 0
-1232 951 0
-1232 139 0
1232 -951 -139 0
-1233 953 0
-1233 187 0
1233 -953 -187 0
-1234 1223 1223 0
-1234 -1223 -1223 0
1234 -1223 1223 0
1234 1223 -1223 0
-1235 1234 1224 0
-1235 -1234 -1224 0
1235 -1234 1224 0
1235 1234 -1224 0
-1236 1235 1225 0
-1236 -1235 -1225 0
1236 -1235 1225 0
1236 1235 -1225 0
-1237 1236 1224 0
-1237 -1236 -1224 0
1237 -1236 1224 0
1237 1236 -1224 0
-1238 1237 1225 0
-1238 -1237 -1225 0
1238 -1237 1225 0
1238 1237 -1225 0
-1239 1238 1226 0
-1239 -1238 -1226 0
1239 -1238 1226 0
1239 1238 -1226 0
-1240 1239 1226 0
-1240 -1239 -1226 0
1240 -1239 1226 0
1240 1239 -1226 0
-1241 1240 1227 0
-1241 -1240 -1227 0
1241 -1240 1227 0
1241 1240 -1227 0
-1242 1241 1228 0
-1242 -1241 -1228 0
1242 -1241 1228 0
1242 1241 -1228 0
-1243 1242 1227 0
-1243 -1242 -1227 0
1243 -1242 1227 0
1243 1242 -1227 0
-1244 1243 1228 0
-1244 -1243 -1228 0
1244 -1243 1228 0
1244 1243 -1228 0
-1245 1244 1229 0
-1245 -1244 -1229 0
1245 -1244 1229 0
1245 1244 -1229 0
-1246 1245 1230 0
-1246 -1245 -1230 0
1246 -1245 1230 0
1246 1245 -1230 0
-1247 1246 1231 0
-1247 -1246 -1231 0
1247 -1246 1231 0
1247 1246 -1231 0
-1248 1247 1232 0
-1248 -1247 -1232 0
1248 -1247 1232 0
1248 1247 -1232 0
-1249 1248 1233 0
-1249 -1248 -1233 0
1249 -1248 1233 0
1249 1248 -1233 0
-1249 0
-1250 1 0
-1250 21 0
1250 -1 -21 0
-1251 1250 0
-1251 33 0
1251 -1250 -33 0
-1252 1 0
-1252 25 0
1252 -1 -25 0
-1253 1252 0
-1253 33 0
1253 -1252 -33 0
-1254 2 0
-1254 17 0
1254 -2 -17 0
-1255 1254 0
-1255 33 0
1255 -1254 -33 0
-1256 3 0
-1256 17 0
1256 -3 -17 0
-1257 1256 0
-1257 33 0
1257 -1256 -33 0
-1258 2 0
-1258 25 0
1258 -2 -25 0
-1259 1258 0
-1259 33 0
1259 -1258 -33 0
-1260 3 0
-1260 21 0
1260 -3 -21 0
-1261 1260 0
-1261 33 0
1261 -1260 -33 0
-1262 49 0
-1262 69 0
1262 -49 -69 0
-1263 1262 0
-1263 81 0
1263 -1262 -81 0
-1264 65 0
-1264 50 0
1264 -65 -50 0
-1265 1264 0
-1265 81 0
1265 -1264 -81 0
-1266 97 0
-1266 117 0
1266 -97 -117 0
-1267 1266 0
-1267 129 0
1267 -1266 -129 0
-1268 113 0
-1268 98 0
1268 -113 -98 0
-1269 1268 0
-1269 129 0
1269 -1268 -129 0
-1270 145 0
-1270 165 0
1270 -145 -165 0
-1271 1270 0
-1271 177 0
1271 -1270 -177 0
-1272 1251 1253 0
-1272 -1251 -1253 0
1272 -1251 1253 0
1272 1251 -1253 0
-1273 1272 1255 0
-1273 -1272 -1255 0
1273 -1272 1255 0
1273 1272 -1255 0
-1274 1273 1257 0
-1274 -1273 -1257 0
1274 -1273 1257 0
1274 1273 -1257 0
-1275 1274 1259 0
-1275 -1274 -1259 0
1275 -1274 1259 0
1275 1274 -1259 0
-1276 1275 1261 0
-1276 -1275 -1261 0
1276 -1275 1261 0
1276 1275 -1261 0
-1277 1276 1255 0
-1277 -1276 -1255 0
1277 -1276 1255 0
1277 1276 -1255 0
-1278 1277 1257 0
-1278 -1277 -1257 0
1278 -1277 1257 0
1278 1277 -1257 0
-1279 1278 1251 0
-1279 -1278 -1251 0
1279 -1278 1251 0
1279 1278 -1251 0
-1280 1279 1253 0
-1280 -1279 -1253 0
1280 -1279 1253 0
1280 1279 -1253 0
-1281 1280 1261 0
-1281 -1280 -1261 0
1281 -1280 1261 0
1281 1280 -1261 0
-1282 1281 1259 0
-1282 -1281 -1259 0
1282 -1281 1259 0
1282 1281 -1259 0
-1283 1282 1263 0
-1283 -1282 -1263 0
1283 -1282 1263 0
1283 1282 -1263 0
-1284 1283 1265 0
-1284 -1283 -1265 0
1284 -1283 1265 0
1284 1283 -1265 0
-1285 1284 1267 0
-1285 -1284 -1267 0
1285 -1284 1267 0
1285 1284 -1267 0
-1286 1285 1269 0
-1286 -1285 -1269 0
1286 -1285 1269 0
1286 1285 -1269 0
-1287 1286 1271 0
-1287 -1286 -1271 0
1287 -1286 1271 0
1287 1286 -1271 0
-1287 0
-1288 1250 0
-1288 34 0
1288 -1250 -34 0
-1289 1252 0
-1289 36 0
1289 -1252 -36 0
-1290 1254 0
-1290 34 0
1290 -1254 -34 0
-1291 1256 0
-1291 36 0
1291 -1256 -36 0
-1292 1258 0
-1292 35 0
1292 -1258 -35 0
-1293 1260 0
-1293 35 0
1293 -1260 -35 0
-1294 1254 0
-1294 37 0
1294 -1254 -37 0
-1295 1256 0
-1295 45 0
1295 -1256 -45 0
-1296 1250 0
-1296 37 0
1296 -1250 -37 0
-1297 1252 0
-1297 45 0
1297 -1252 -45 0
-1298 1260 0
-1298 41 0
1298 -1260 -41 0
-1299 1258 0
-1299 41 0
1299 -1258 -41 0
-1300 1262 0
-1300 82 0
1300 -1262 -82 0
-1301 1264 0
-1301 85 0
1301 -1264 -85 0
-1302 1266 0
-1302 130 0
1302 -1266 -130 0
-1303 1268 0
-1303 133 0
1303 -1268 -133 0
-1304 1270 0
-1304 178 0
1304 -1270 -178 0
-1305 1288 1289 0
-1305 -1288 -1289 0
1305 -1288 1289 0
1305 1288 -1289 0
-1306 1305 1290 0
-1306 -1305 -1290 0
1306 -1305 1290 0
1306 1305 -1290 0
-1307 1306 1291 0
-1307 -1306 -1291 0
1307 -1306 1291 0
1307 1306 -1291 0
-1308 1307 1292 0
-1308 -1307 -1292 0
1308 -1307 1292 0
1308 1307 -1292 0
-1309 1308 1293 0
-1309 -1308 -1293 0
1309 -1308 1293 0
1309 1308 -1293 0
-1310 1309 1294 0
-1310 -1309 -1294 0
1310 -1309 1294 0
1310 1309 -1294 0
-1311 1310 1295 0
-1311 -1310 -1295 0
1311 -1310 1295 0
1311 1310 -1295 0
-1312 1311 1296 0
-1312 -1311 -1296 0
1312 -1311 1296 0
1312 1311 -1296 0
-1313 1312 1297 0
-1313 -1312 -1297 0
1313 -1312 1297 0
1313 1312 -1297 0
-1314 1313 1298 0
-1314 -1313 -1298 0
1314 -1313 1298 0
1314 1313 -1298 0
-1315 1314 1299 0
-1315 -1314 -1299 0
1315 -1314 1299 0
1315 1314 -1299 0
-1316 1315 1300 0
-1316 -1315 -1300 0
1316 -1315 1300 0
1316 1315 -1300 0
-1317 1316 1301 0
-1317 -1316 -1301 0
1317 -1316 1301 0
1317 1316 -1301 0
-1318 1317 1302 0
-1318 -1317 -1302 0
1318 -1317 1302 0
1318 1317 -1302 0
-1319 1318 1303 0
-1319 -1318 -1303 0
1319 -1318 1303 0
1319 1318 -1303 0
-1320 1319 1304 0
-1320 -1319 -1304 0
1320 -1319 1304 0
1320 1319 -1304 0
-1320 0
-1321 1250 0
-1321 35 0
1321 -1250 -35 0
-1322 1252 0
-1322 35 0
1322 -1252 -35 0
-1323 1254 0
-1323 36 0
1323 -1254 -36 0
-1324 1256 0
-1324 34 0
1324 -1256 -34 0
-1325 1258 0
-1325 36 0
1325 -1258 -36 0
-1326 1260 0
-1326 34 0
1326 -1260 -34 0
-1327 1254 0
-1327 41 0
1327 -1254 -41 0
-1328 1256 0
-1328 41 0
1328 -1256 -41 0
-1329 1250 0
-1329 45 0
1329 -1250 -45 0
-1330 1252 0
-1330 37 0
1330 -1252 -37 0
-1331 1260 0
-1331 45 0
1331 -1260 -45 0
-1332 1258 0
-1332 37 0
1332 -1258 -37 0
-1333 1262 0
-1333 83 0
1333 -1262 -83 0
-1334 1264 0
-1334 89 0
1334 -1264 -89 0
-1335 1266 0
-1335 131 0
1335 -1266 -131 0
-1336 1268 0
-1336 137 0
1336 -1268 -137 0
-1337 1270 0
-1337 179 0
1337 -1270 -179 0
-1338 1321 1322 0
-1338 -1321 -1322 0
1338 -1321 1322 0
1338 1321 -1322 0
-1339 1338 1323 0
-1339 -1338 -1323 0
1339 -1338 1323 0
1339 1338 -1323 0
-1340 1339 1324 0
-1340 -1339 -1324 0
1340 -1339 1324 0
1340 1339 -1324 0
-1341 1340 1325 0
-1341 -1340 -1325 0
1341 -1340 1325 0
1341 1340 -1325 0
-1342 1341 1326 0
-1342 -1341 -1326 0
1342 -1341 1326 0
1342 1341 -1326 0
-1343 1342 1327 0
-1343 -1342 -1327 0
1343 -1342 1327 0
1343 1342 -1327 0
-1344 1343 1328 0
-1344 -1343 -1328 0
1344 -1343 1328 0
1344 1343 -1328 0
-1345 1344 1329 0
-1345 -1344 -1329 0
1345 -1344 1329 0
1345 1344 -1329 0
-1346 1345 1330 0
-1346 -1345 -1330 0
1346 -1345 1330 0
1346 1345 -1330 0
-1347 1346 1331 0
-1347 -1346 -1331 0
1347 -1346 1331 0
1347 1346 -1331 0
-1348 1347 1332 0
-1348 -1347 -1332 0
1348 -1347 1332 0
1348 1347 -1332 0
-1349 1348 1333 0
-1349 -1348 -1333 0
1349 -1348 1333 0
1349 1348 -1333 0
-1350 1349 1334 0
-1350 -1349 -1334 0
1350 -1349 1334 0
1350 1349 -1334 0
-1351 1350 1335 0
-1351 -1350 -1335 0
1351 -1350 1335 0
1351 1350 -1335 0
-1352 1351 1336 0
-1352 -1351 -1336 0
1352 -1351 1336 0
1352 1351 -1336 0
-1353 1352 1337 0
-1353 -1352 -1337 0
1353 -1352 1337 0
1353 1352 -1337 0
1353 0
-1354 1250 0
-1354 36 0
1354 -1250 -36 0
-1355 1252 0
-1355 34 0
1355 -1252 -34 0
-1356 1254 0
-1356 35 0
1356 -1254 -35 0
-1357 1256 0
-1357 35 0
1357 -1256 -35 0
-1358 1258 0
-1358 34 0
1358 -1258 -34 0
-1359 1260 0
-1359 36 0
1359 -1260 -36 0
-1360 1254 0
-1360 45 0
1360 -1254 -45 0
-1361 1256 0
-1361 37 0
1361 -1256 -37 0
-1362 1250 0
-1362 41 0
1362 -1250 -41 0
-1363 1252 0
-1363 41 0
1363 -1252 -41 0
-1364 1260 0
-1364 37 0
1364 -1260 -37 0
-1365 1258 0
-1365 45 0
1365 -1258 -45 0
-1366 1262 0
-1366 84 0
1366 -1262 -84 0
-1367 1264 0
-1367 93 0
1367 -1264 -93 0
-1368 1266 0
-1368 132 0
1368 -1266 -132 0
-1369 1268 0
-1369 141 0
1369 -1268 -141 0
-1370 1270 0
-1370 180 0
1370 -1270 -180 0
-1371 1354 1355 0
-1371 -1354 -1355 0
1371 -1354 1355 0
1371 1354 -1355 0
-1372 1371 1356 0
-1372 -1371 -1356 0
1372 -1371 1356 0
1372 1371 -1356 0
-1373 1372 1357 0
-1373 -1372 -1357 0
1373 -1372 1357 0
1373 1372 -1357 0
-1374 1373 1358 0
-1374 -1373 -1358 0
1374 -1373 1358 0
1374 1373 -1358 0
-1375 1374 1359 0
-1375 -1374 -1359 0
1375 -1374 1359 0
1375 1374 -1359 0
-1376 1375 1360 0
-1376 -1375 -1360 0
1376 -1375 1360 0
1376 1375 -1360 0
-1377 1376 1361 0
-1377 -1376 -1361 0
1377 -1376 1361 0
1377 1376 -1361 0
-1378 1377 1362 0
-1378 -1377 -1362 0
1378 -1377 1362 0
1378 1377 -1362 0
-1379 1378 1363 0
-1379 -1378 -1363 0
1379 -1378 1363 0
1379 1378 -1363 0
-1380 1379 1364 0
-1380 -1379 -1364 0
1380 -1379 1364 0
1380 1379 -1364 0
-1381 1380 1365 0
-1381 -1380 -1365 0
1381 -1380 1365 0
1381 1380 -1365 0
-1382 1381 1366 0
-1382 -1381 -1366 0
1382 -1381 1366 0
1382 1381 -1366 0
-1383 1382 1367 0
-1383 -1382 -1367 0
1383 -1382 1367 0
1383 1382 -1367 0
-1384 1383 1368 0
-1384 -1383 -1368 0
1384 -1383 1368 0
1384 1383 -1368 0
-1385 1384 1369 0
-1385 -1384 -1369 0
1385 -1384 1369 0
1385 1384 -1369 0
-1386 1385 1370 0
-1386 -1385 -1370 0
1386 -1385 1370 0
1386 1385 -1370 0
-1386 0
-1387 1250 0
-1387 38 0
1387 -1250 -38 0
-1388 1252 0
-1388 48 0
1388 -1252 -48 0
-1389 1254 0
-1389 38 0
1389 -1254 -38 0
-1390 1256 0
-1390 48 0
1390 -1256 -48 0
-1391 1258 0
-1391 43 0
1391 -1258 -43 0
-1392 1260 0
-1392 43 0
1392 -1260 -43 0
-1393 1262 0
-1393 86 0
1393 -1262 -86 0
-1394 1264 0
-1394 86 0
1394 -1264 -86 0
-1395 1266 0
-1395 134 0
1395 -1266 -134 0
-1396 1268 0
-1396 134 0
1396 -1268 -134 0
-1397 1270 0
-1397 182 0
1397 -1270 -182 0
-1398 1387 1388 0
-1398 -1387 -1388 0
1398 -1387 1388 0
1398 1387 -1388 0
-1399 1398 1389 0
-1399 -1398 -1389 0
1399 -1398 1389 0
1399 1398 -1389 0
-1400 1399 1390 0
-1400 -1399 -1390 0
1400 -1399 1390 0
1400 1399 -1390 0
-1401 1400 1391 0
-1401 -1400 -1391 0
1401 -1400 1391 0
1401 1400 -1391 0
-1402 1401 1392 0
-1402 -1401 -1392 0
1402 -1401 1392 0
1402 1401 -1392 0
-1403 1402 1389 0
-1403 -1402 -1389 0
1403 -1402 1389 0
1403 1402 -1389 0
-1404 1403 1390 0
-1404 -1403 -1390 0
1404 -1403 1390 0
1404 1403 -1390 0
-1405 1404 1387 0
-1405 -1404 -1387 0
1405 -1404 1387 0
1405 1404 -1387 0
-1406 1405 1388 0
-1406 -1405 -1388 0
1406 -1405 1388 0
1406 1405 -1388 0
-1407 1406 1392 0
-1407 -1406 -1392 0
1407 -1406 1392 0
1407 1406 -1392 0
-1408 1407 1391 0
-1408 -1407 -1391 0
1408 -1407 1391 0
1408 1407 -1391 0
-1409 1408 1393 0
-1409 -1408 -1393 0
1409 -1408 1393 0
1409 1408 -1393 0
-1410 1409 1394 0
-1410 -1409 -1394 0
1410 -1409 1394 0
1410 1409 -1394 0
-1411 1410 1395 0
-1411 -1410 -1395 0
1411 -1410 1395 0
1411 1410 -1395 0
-1412 1411 1396 0
-1412 -1411 -1396 0
1412 -1411 1396 0
1412 1411 -1396 0
-1413 1412 1397 0
-1413 -1412 -1397 0
1413 -1412 1397 0
1413 1412 -1397 0
-1413 0
-1414 1250 0
-1414 39 0
1414 -1250 -39 0
-1415 1252 0
-1415 47 0
1415 -1252 -47 0
-1416 1254 0
-1416 40 0
1416 -1254 -40 0
-1417 1256 0
-1417 46 0
1417 -1256 -46 0
-1418 1258 0
-1418 44 0
1418 -1258 -44 0
-1419 1260 0
-1419 42 0
1419 -1260 -42 0
-1420 1254 0
-1420 42 0
1420 -1254 -42 0
-1421 1256 0
-1421 44 0
1421 -1256 -44 0
-1422 1250 0
-1422 46 0
1422 -1250 -46 0
-1423 1252 0
-1423 40 0
1423 -1252 -40 0
-1424 1260 0
-1424 47 0
1424 -1260 -47 0
-1425 1258 0
-1425 39 0
1425 -1258 -39 0
-1426 1262 0
-1426 87 0
1426 -1262 -87 0
-1427 1264 0
-1427 90 0
1427 -1264 -90 0
-1428 1266 0
-1428 135 0
1428 -1266 -135 0
-1429 1268 0
-1429 138 0
1429 -1268 -138 0
-1430 1270 0
-1430 183 0
1430 -1270 -183 0
-1431 1414 1415 0
-1431 -1414 -1415 0
1431 -1414 1415 0
1431 1414 -1415 0
-1432 1431 1416 0
-1432 -1431 -1416 0
1432 -1431 1416 0
1432 1431 -1416 0
-1433 1432 1417 0
-1433 -1432 -1417 0
1433 -1432 1417 0
1433 1432 -1417 0
-1434 1433 1418 0
-1434 -1433 -1418 0
1434 -1433 1418 0
1434 1433 -1418 0
-1435 1434 1419 0
-1435 -1434 -1419 0
1435 -1434 1419 0
1435 1434 -1419 0
-1436 1435 1420 0
-1436 -1435 -1420 0
1436 -1435 1420 0
1436 1435 -1420 0
-1437 1436 1421 0
-1437 -1436 -1421 0
1437 -1436 1421 0
1437 1436 -1421 0
-1438 1437 1422 0
-1438 -1437 -1422 0
1438 -1437 1422 0
1438 1437 -1422 0
-1439 1438 1423 0
-1439 -1438 -1423 0
1439 -1438 1423 0
1439 1438 -1423 0
-1440 1439 1424 0
-1440 -1439 -1424 0
1440 -1439 1424 0
1440 1439 -1424 0
-1441 1440 1425 0
-1441 -1440 -1425 0
1441 -1440 1425 0
1441 1440 -1425 0
-1442 1441 1426 0
-1442 -1441 -1426 0
1442 -1441 1426 0
1442 1441 -1426 0
-1443 1442 1427 0
-1443 -1442 -1427 0
1443 -1442 1427 0
1443 1442 -1427 0
-1444 1443 1428 0
-1444 -1443 -1428 0
1444 -1443 1428 0
1444 1443 -1428 0
-1445 1444 1429 0
-1445 -1444 -1429 0
1445 -1444 1429 0
1445 1444 -1429 0
-1446 1445 1430 0
-1446 -1445 -1430 0
1446 -1445 1430 0
1446 1445 -1430 0
-1446 0
-1447 1250 0
-1447 40 0
1447 -1250 -40 0
-1448 1252 0
-1448 46 0
1448 -1252 -46 0
-1449 1254 0
-1449 39 0
1449 -1254 -39 0
-1450 1256 0
-1450 47 0
1450 -1256 -47 0
-1451 1258 0
-1451 42 0
1451 -1258 -42 0
-1452 1260 0
-1452 44 0
1452 -1260 -44 0
-1453 1254 0
-1453 46 0
1453 -1254 -46 0
-1454 1256 0
-1454 40 0
1454 -1256 -40 0
-1455 1250 0
-1455 42 0
1455 -1250 -42 0
-1456 1252 0
-1456 44 0
1456 -1252 -44 0
-1457 1260 0
-1457 39 0
1457 -1260 -39 0
-1458 1258 0
-1458 47 0
1458 -1258 -47 0
-1459 1262 0
-1459 88 0
1459 -1262 -88 0
-1460 1264 0
-1460 94 0
1460 -1264 -94 0
-1461 1266 0
-1461 136 0
1461 -1266 -136 0
-1462 1268 0
-1462 142 0
1462 -1268 -142 0
-1463 1270 0
-1463 184 0
1463 -1270 -184 0
-1464 1447 1448 0
-1464 -1447 -1448 0
1464 -1447 1448 0
1464 1447 -1448 0
-1465 1464 1449 0
-1465 -1464 -1449 0
1465 -1464 1449 0
1465 1464 -1449 0
-1466 1465 1450 0
-1466 -1465 -1450 0
1466 -1465 1450 0
1466 1465 -1450 0
-1467 1466 1451 0
-1467 -1466 -1451 0
1467 -1466 1451 0
1467 1466 -1451 0
-1468 1467 1452 0
-1468 -1467 -1452 0
1468 -1467 1452 0
1468 1467 -1452 0
-1469 1468 1453 0
-1469 -1468 -1453 0
1469 -1468 1453 0
1469 1468 -1453 0
-1470 1469 1454 0
-1470 -1469 -1454 0
1470 -1469 1454 0
1470 1469 -1454 0
-1471 1470 1455 0
-1471 -1470 -1455 0
1471 -1470 1455 0
1471 1470 -1455 0
-1472 1471 1456 0
-1472 -1471 -1456 0
1472 -1471 1456 0
1472 1471 -1456 0
-1473 1472 1457 0
-1473 -1472 -1457 0
1473 -1472 1457 0
1473 1472 -1457 0
-1474 1473 1458 0
-1474 -1473 -1458 0
1474 -1473 1458 0
1474 1473 -1458 0
-1475 1474 1459 0
-1475 -1474 -1459 0
1475 -1474 1459 0
1475 1474 -1459 0
-1476 1475 1460 0
-1476 -1475 -1460 0
1476 -1475 1460 0
1476 1475 -1460 0
-1477 1476 1461 0
-1477 -1476 -1461 0
1477 -1476 1461 0
1477 1476 -1461 0
-1478 1477 1462 0
-1478 -1477 -1462 0
1478 -1477 1462 0
1478 1477 -1462 0
-1479 1478 1463 0
-1479 -1478 -1463 0
1479 -1478 1463 0
1479 1478 -1463 0
-1479 0
-1480 1250 0
-1480 43 0
1480 -1250 -43 0
-1481 1252 0
-1481 43 0
1481 -1252 -43 0
-1482 1254 0
-1482 48 0
1482 -1254 -48 0
-1483 1256 0
-1483 38 0
1483 -1256 -38 0
-1484 1258 0
-1484 48 0
1484 -1258 -48 0
-1485 1260 0
-1485 38 0
1485 -1260 -38 0
-1486 1254 0
-1486 43 0
1486 -1254 -43 0
-1487 1256 0
-1487 43 0
1487 -1256 -43 0
-1488 1250 0
-1488 48 0
1488 -1250 -48 0
-1489 1252 0
-1489 38 0
1489 -1252 -38 0
-1490 1260 0
-1490 48 0
1490 -1260 -48 0
-1491 1258 0
-1491 38 0
1491 -1258 -38 0
-1492 1262 0
-1492 91 0
1492 -1262 -91 0
-1493 1264 0
-1493 91 0
1493 -1264 -91 0
-1494 1266 0
-1494 139 0
1494 -1266 -139 0
-1495 1268 0
-1495 139 0
1495 -1268 -139 0
-1496 1270 0
-1496 187 0
1496 -1270 -187 0
-1497 1480 1481 0
-1497 -1480 -1481 0
1497 -1480 1481 0
1497 1480 -1481 0
-1498 1497 1482 0
-1498 -1497 -1482 0
1498 -1497 1482 0
1498 1497 -1482 0
-1499 1498 1483 0
-1499 -1498 -1483 0
1499 -1498 1483 0
1499 1498 -1483 0
-1500 1499 1484 0
-1500 -1499 -1484 0
1500 -1499 1484 0
1500 1499 -1484 0
-1501 1500 1485 0
-1501 -1500 -1485 0
1501 -1500 1485 0
1501 1500 -1485 0
-1502 1501 1486 0
-1502 -1501 -1486 0
1502 -1501 1486 0
1502 1501 -1486 0
-1503 1502 1487 0
-1503 -1502 -1487 0
1503 -1502 1487 0
1503 1502 -1487 0
-1504 1503 1488 0
-1504 -1503 -1488 0
1504 -1503 1488 0
1504 1503 -1488 0
-1505 1504 1489 0
-1505 -1504 -1489 0
1505 -1504 1489 0
1505 1504 -1489 0
-1506 1505 1490 0
-1506 -1505 -1490 0
1506 -1505 1490 0
1506 1505 -1490 0
-1507 1506 1491 0
-1507 -1506 -1491 0
1507 -1506 1491 0
1507 1506 -1491 0
-1508 1507 1492 0
-1508 -1507 -1492 0
1508 -1507 1492 0
1508 1507 -1492 0
-1509 1508 1493 0
-1509 -1508 -1493 0
1509 -1508 1493 0
1509 1508 -1493 0
-1510 1509 1494 0
-1510 -1509 -1494 0
1510 -1509 1494 0
1510 1509 -1494 0
-1511 1510 1495 0
-1511 -1510 -1495 0
1511 -1510 1495 0
1511 1510 -1495 0
-1512 1511 1496 0
-1512 -1511 -1496 0
1512 -1511 1496 0
1512 1511 -1496 0
-1512 0
-1513 1250 0
-1513 44 0
1513 -1250 -44 0
-1514 1252 0
-1514 42 0
1514 -1252 -42 0
-1515 1254 0
-1515 47 0
1515 -1254 -47 0
-1516 1256 0
-1516 39 0
1516 -1256 -39 0
-1517 1258 0
-1517 46 0
1517 -1258 -46 0
-1518 1260 0
-1518 40 0
1518 -1260 -40 0
-1519 1262 0
-1519 92 0
1519 -1262 -92 0
-1520 1264 0
-1520 95 0
1520 -1264 -95 0
-1521 1266 0
-1521 140 0
1521 -1266 -140 0
-1522 1268 0
-1522 143 0
1522 -1268 -143 0
-1523 1270 0
-1523 188 0
1523 -1270 -188 0
-1524 1513 1514 0
-1524 -1513 -1514 0
1524 -1513 1514 0
1524 1513 -1514 0
-1525 1524 1515 0
-1525 -1524 -1515 0
1525 -1524 1515 0
1525 1524 -1515 0
-1526 1525 1516 0
-1526 -1525 -1516 0
1526 -1525 1516 0
1526 1525 -1516 0
-1527 1526 1517 0
-1527 -1526 -1517 0
1527 -1526 1517 0
1527 1526 -1517 0
-1528 1527 1518 0
-1528 -1527 -1518 0
1528 -1527 1518 0
1528 1527 -1518 0
-1529 1528 1515 0
-1529 -1528 -1515 0
1529 -1528 1515 0
1529 1528 -1515 0
-1530 1529 1516 0
-1530 -1529 -1516 0
1530 -1529 1516 0
1530 1529 -1516 0
-1531 1530 1513 0
-1531 -1530 -1513 0
1531 -1530 1513 0
1531 1530 -1513 0
-1532 1531 1514 0
-1532 -1531 -1514 0
1532 -1531 1514 0
1532 1531 -1514 0
-1533 1532 1518 0
-1533 -1532 -1518 0
1533 -1532 1518 0
1533 1532 -1518 0
-1534 1533 1517 0
-1534 -1533 -1517 0
1534 -1533 1517 0
1534 1533 -1517 0
-1535 1534 1519 0
-1535 -1534 -1519 0
1535 -1534 1519 0
1535 1534 -1519 0
-1536 1535 1520 0
-1536 -1535 -1520 0
1536 -1535 1520 0
1536 1535 -1520 0
-1537 1536 1521 0
-1537 -1536 -1521 0
1537 -1536 1521 0
1537 1536 -1521 0
-1538 1537 1522 0
-1538 -1537 -1522 0
1538 -1537 1522 0
1538 1537 -1522 0
-1539 1538 1523 0
-1539 -1538 -1523 0
1539 -1538 1523 0
1539 1538 -1523 0
-1539 0
-1540 1250 0
-1540 47 0
1540 -1250 -47 0
-1541 1252 0
-1541 39 0
1541 -1252 -39 0
-1542 1254 0
-1542 44 0
1542 -1254 -44 0
-1543 1256 0
-1543 42 0
1543 -1256 -42 0
-1544 1258 0
-1544 40 0
1544 -1258 -40 0
-1545 1260 0
-1545 46 0
1545 -1260 -46 0
-1546 1262 0
-1546 95 0
1546 -1262 -95 0
-1547 1264 0
-1547 92 0
1547 -1264 -92 0
-1548 1266 0
-1548 143 0
1548 -1266 -143 0
-1549 1268 0
-1549 140 0
1549 -1268 -140 0
-1550 1270 0
-1550 191 0
1550 -1270 -191 0
-1551 1540 1541 0
-1551 -1540 -1541 0
1551 -1540 1541 0
1551 1540 -1541 0
-1552 1551 1542 0
-1552 -1551 -1542 0
1552 -1551 1542 0
1552 1551 -1542 0
-1553 1552 1543 0
-1553 -1552 -1543 0
1553 -1552 1543 0
1553 1552 -1543 0
-1554 1553 1544 0
-1554 -1553 -1544 0
1554 -1553 1544 0
1554 1553 -1544 0
-1555 1554 1545 0
-1555 -1554 -1545 0
1555 -1554 1545 0
1555 1554 -1545 0
-1556 1555 1542 0
-1556 -1555 -1542 0
1556 -1555 1542 0
1556 1555 -1542 0
-1557 1556 1543 0
-1557 -1556 -1543 0
1557 -1556 1543 0
1557 1556 -1543 0
-1558 1557 1540 0
-1558 -1557 -1540 0
1558 -1557 1540 0
1558 1557 -1540 0
-1559 1558 1541 0
-1559 -1558 -1541 0
1559 -1558 1541 0
1559 1558 -1541 0
-1560 1559 1545 0
-1560 -1559 -1545 0
1560 -1559 1545 0
1560 1559 -1545 0
-1561 1560 1544 0
-1561 -1560 -1544 0
1561 -1560 1544 0
1561 1560 -1544 0
-1562 1561 1546 0
-1562 -1561 -1546 0
1562 -1561 1546 0
1562 1561 -1546 0
-1563 1562 1547 0
-1563 -1562 -1547 0
1563 -1562 1547 0
1563 1562 -1547 0
-1564 1563 1548 0
-1564 -1563 -1548 0
1564 -1563 1548 0
1564 1563 -1548 0
-1565 1564 1549 0
-1565 -1564 -1549 0
1565 -1564 1549 0
1565 1564 -1549 0
-1566 1565 1550 0
-1566 -1565 -1550 0
1566 -1565 1550 0
1566 1565 -1550 0
-1566 0
-1567 1 0
-1567 22 0
1567 -1 -22 0
-1568 1567 0
-1568 33 0
1568 -1567 -33 0
-1569 1 0
-1569 28 0
1569 -1 -28 0
-1570 1569 0
-1570 33 0
1570 -1569 -33 0
-1571 2 0
-1571 18 0
1571 -2 -18 0
-1572 1571 0
-1572 33 0
1572 -1571 -33 0
-1573 3 0
-1573 20 0
1573 -3 -20 0
-1574 1573 0
-1574 33 0
1574 -1573 -33 0
-1575 2 0
-1575 27 0
1575 -2 -27 0
-1576 1575 0
-1576 33 0
1576 -1575 -33 0
-1577 3 0
-1577 23 0
1577 -3 -23 0
-1578 1577 0
-1578 33 0
1578 -1577 -33 0
-1579 17 0
-1579 6 0
1579 -17 -6 0
-1580 1579 0
-1580 33 0
1580 -1579 -33 0
-1581 17 0
-1581 15 0
1581 -17 -15 0
-1582 1581 0
-1582 33 0
1582 -1581 -33 0
-1583 21 0
-1583 5 0
1583 -21 -5 0
-1584 1583 0
-1584 33 0
1584 -1583 -33 0
-1585 25 0
-1585 13 0
1585 -25 -13 0
-1586 1585 0
-1586 33 0
1586 -1585 -33 0
-1587 21 0
-1587 11 0
1587 -21 -11 0
-1588 1587 0
-1588 33 0
1588 -1587 -33 0
-1589 25 0
-1589 10 0
1589 -25 -10 0
-1590 1589 0
-1590 33 0
1590 -1589 -33 0
-1591 49 0
-1591 70 0
1591 -49 -70 0
-1592 1591 0
-1592 81 0
1592 -1591 -81 0
-1593 65 0
-1593 54 0
1593 -65 -54 0
-1594 1593 0
-1594 81 0
1594 -1593 -81 0
-1595 97 0
-1595 118 0
1595 -97 -118 0
-1596 1595 0
-1596 129 0
1596 -1595 -129 0
-1597 113 0
-1597 102 0
1597 -113 -102 0
-1598 1597 0
-1598 129 0
1598 -1597 -129 0
-1599 145 0
-1599 166 0
1599 -145 -166 0
-1600 1599 0
-1600 177 0
1600 -1599 -177 0
-1601 1568 1570 0
-1601 -1568 -1570 0
1601 -1568 1570 0
1601 1568 -1570 0
-1602 1601 1572 0
-1602 -1601 -1572 0
1602 -1601 1572 0
1602 1601 -1572 0
-1603 1602 1574 0
-1603 -1602 -1574 0
1603 -1602 1574 0
1603 1602 -1574 0
-1604 1603 1576 0
-1604 -1603 -1576 0
1604 -1603 1576 0
1604 1603 -1576 0
-1605 1604 1578 0
-1605 -1604 -1578 0
1605 -1604 1578 0
1605 1604 -1578 0
-1606 1605 1580 0
-1606 -1605 -1580 0
1606 -1605 1580 0
1606 1605 -1580 0
-1607 1606 1582 0
-1607 -1606 -1582 0
1607 -1606 1582 0
1607 1606 -1582 0
-1608 1607 1584 0
-1608 -1607 -1584 0
1608 -1607 1584 0
1608 1607 -1584 0
-1609 1608 1586 0
-1609 -1608 -1586 0
1609 -1608 1586 0
1609 1608 -1586 0
-1610 1609 1588 0
-1610 -1609 -1588 0
1610 -1609 1588 0
1610 1609 -1588 0
-1611 1610 1590 0
-1611 -1610 -1590 0
1611 -1610 1590 0
1611 1610 -1590 0
-1612 1611 1592 0
-1612 -1611 -1592 0
1612 -1611 1592 0
1612 1611 -1592 0
-1613 1612 1594 0
-1613 -1612 -1594 0
1613 -1612 1594 0
1613 1612 -1594 0
-1614 1613 1596 0
-1614 -1613 -1596 0
1614 -1613 1596 0
1614 1613 -1596 0
-1615 1614 1598 0
-1615 -1614 -1598 0
1615 -1614 1598 0
1615 1614 -1598 0
-1616 1615 1600 0
-1616 -1615 -1600 0
1616 -1615 1600 0
1616 1615 -1600 0
-1616 0
-1617 1567 0
-1617 34 0
1617 -1567 -34 0
-1618 1569 0
-1618 36 0
1618 -1569 -36 0
-1619 1571 0
-1619 34 0
1619 -1571 -34 0
-1620 1573 0
-1620 36 0
1620 -1573 -36 0
-1621 1575 0
-1621 35 0
1621 -1575 -35 0
-1622 1577 0
-1622 35 0
1622 -1577 -35 0
-1623 1579 0
-1623 37 0
1623 -1579 -37 0
-1624 1581 0
-1624 45 0
1624 -1581 -45 0
-1625 1583 0
-1625 37 0
1625 -1583 -37 0
-1626 1585 0
-1626 45 0
1626 -1585 -45 0
-1627 1587 0
-1627 41 0
1627 -1587 -41 0
-1628 1589 0
-1628 41 0
1628 -1589 -41 0
-1629 1591 0
-1629 82 0
1629 -1591 -82 0
-1630 1593 0
-1630 85 0
1630 -1593 -85 0
-1631 1595 0
-1631 130 0
1631 -1595 -130 0
-1632 1597 0
-1632 133 0
1632 -1597 -133 0
-1633 1599 0
-1633 178 0
1633 -1599 -178 0
-1634 1617 1618 0
-1634 -1617 -1618 0
1634 -1617 1618 0
1634 1617 -1618 0
-1635 1634 1619 0
-1635 -1634 -1619 0
1635 -1634 1619 0
1635 1634 -1619 0
-1636 1635 1620 0
-1636 -1635 -1620 0
1636 -1635 1620 0
1636 1635 -1620 0
-1637 1636 1621 0
-1637 -1636 -1621 0
1637 -1636 1621 0
1637 1636 -1621 0
-1638 1637 1622 0
-1638 -1637 -1622 0
1638 -1637 1622 0
1638 1637 -1622 0
-1639 1638 1623 0
-1639 -1638 -1623 0
1639 -1638 1623 0
1639 1638 -1623 0
-1640 1639 1624 0
-1640 -1639 -1624 0
1640 -1639 1624 0
1640 1639 -1624 0
-1641 1640 1625 0
-1641 -1640 -1625 0
1641 -1640 1625 0
1641 1640 -1625 0
-1642 1641 1626 0
-1642 -1641 -1626 0
1642 -1641 1626 0
1642 1641 -1626 0
-1643 1642 1627 0
-1643 -1642 -1627 0
1643 -1642 1627 0
1643 1642 -1627 0
-1644 1643 1628 0
-1644 -1643 -1628 0
1644 -1643 1628 0
1644 1643 -1628 0
-1645 1644 1629 0
-1645 -1644 -1629 0
1645 -1644 1629 0
1645 1644 -1629 0
-1646 1645 1630 0
-1646 -1645 -1630 0
1646 -1645 1630 0
1646 1645 -1630 0
-1647 1646 1631 0
-1647 -1646 -1631 0
1647 -1646 1631 0
1647 1646 -1631 0
-1648 1647 1632 0
-1648 -1647 -1632 0
1648 -1647 1632 0
1648 1647 -1632 0
-1649 1648 1633 0
-1649 -1648 -1633 0
1649 -1648 1633 0
1649 1648 -1633 0
-1649 0
-1650 1567 0
-1650 35 0
1650 -1567 -35 0
-1651 1569 0
-1651 35 0
1651 -1569 -35 0
-1652 1571 0
-1652 36 0
1652 -1571 -36 0
-1653 1573 0
-1653 34 0
1653 -1573 -34 0
-1654 1575 0
-1654 36 0
1654 -1575 -36 0
-1655 1577 0
-1655 34 0
1655 -1577 -34 0
-1656 1579 0
-1656 41 0
1656 -1579 -41 0
-1657 1581 0
-1657 41 0
1657 -1581 -41 0
-1658 1583 0
-1658 45 0
1658 -1583 -45 0
-1659 1585 0
-1659 37 0
1659 -1585 -37 0
-1660 1587 0
-1660 45 0
1660 -1587 -45 0
-1661 1589 0
-1661 37 0
1661 -1589 -37 0
-1662 1591 0
-1662 83 0
1662 -1591 -83 0
-1663 1593 0
-1663 89 0
1663 -1593 -89 0
-1664 1595 0
-1664 131 0
1664 -1595 -131 0
-1665 1597 0
-1665 137 0
1665 -1597 -137 0
-1666 1599 0
-1666 179 0
1666 -1599 -179 0
-1667 1650 1651 0
-1667 -1650 -1651 0
1667 -1650 1651 0
1667 1650 -1651 0
-1668 1667 1652 0
-1668 -1667 -1652 0
1668 -1667 1652 0
1668 1667 -1652 0
-1669 1668 1653 0
-1669 -1668 -1653 0
1669 -1668 1653 0
1669 1668 -1653 0
-1670 1669 1654 0
-1670 -1669 -1654 0
1670 -1669 1654 0
1670 1669 -1654 0
-1671 1670 1655 0
-1671 -1670 -1655 0
1671 -1670 1655 0
1671 1670 -1655 0
-1672 1671 1656 0
-1672 -1671 -1656 0
1672 -1671 1656 0
1672 1671 -1656 0
-1673 1672 1657 0
-1673 -1672 -1657 0
1673 -1672 1657 0
1673 1672 -1657 0
-1674 1673 1658 0
-1674 -1673 -1658 0
1674 -1673 1658 0
1674 1673 -1658 0
-1675 1674 1659 0
-1675 -1674 -1659 0
1675 -1674 1659 0
1675 1674 -1659 0
-1676 1675 1660 0
-1676 -1675 -1660 0
1676 -1675 1660 0
1676 1675 -1660 0
-1677 1676 1661 0
-1677 -1676 -1661 0
1677 -1676 1661 0
1677 1676 -1661 0
-1678 1677 1662 0
-1678 -1677 -1662 0
1678 -1677 1662 0
1678 1677 -1662 0
-1679 1678 1663 0
-1679 -1678 -1663 0
1679 -1678 1663 0
1679 1678 -1663 0
-1680 1679 1664 0
-1680 -1679 -1664 0
1680 -1679 1664 0
1680 1679 -1664 0
-1681 1680 1665 0
-1681 -1680 -1665 0
1681 -1680 1665 0
1681 1680 -1665 0
-1682 1681 1666 0
-1682 -1681 -1666 0
1682 -1681 1666 0
1682 1681 -1666 0
-1682 0
-1683 1567 0
-1683 36 0
1683 -1567 -36 0
-1684 1569 0
-1684 34 0
1684 -1569 -34 0
-1685 1571 0
-1685 35 0
1685 -1571 -35 0
-1686 1573 0
-1686 35 0
1686 -1573 -35 0
-1687 1575 0
-1687 34 0
1687 -1575 -34 0
-1688 1577 0
-1688 36 0
1688 -1577 -36 0
-1689 1579 0
-1689 45 0
1689 -1579 -45 0
-1690 1581 0
-1690 37 0
1690 -1581 -37 0
-1691 1583 0
-1691 41 0
1691 -1583 -41 0
-1692 1585 0
-1692 41 0
1692 -1585 -41 0
-1693 1587 0
-1693 37 0
1693 -1587 -37 0
-1694 1589 0
-1694 45 0
1694 -1589 -45 0
-1695 1591 0
-1695 84 0
1695 -1591 -84 0
-1696 1593 0
-1696 93 0
1696 -1593 -93 0
-1697 1595 0
-1697 132 0
1697 -1595 -132 0
-1698 1597 0
-1698 141 0
1698 -1597 -141 0
-1699 1599 0
-1699 180 0
1699 -1599 -180 0
-1700 1683 1684 0
-1700 -1683 -1684 0
1700 -1683 1684 0
1700 1683 -1684 0
-1701 1700 1685 0
-1701 -1700 -1685 0
1701 -1700 1685 0
1701 1700 -1685 0
-1702 1701 1686 0
-1702 -1701 -1686 0
1702 -1701 1686 0
1702 1701 -1686 0
-1703 1702 1687 0
-1703 -1702 -1687 0
1703 -1702 1687 0
1703 1702 -1687 0
-1704 1703 1688 0
-1704 -1703 -1688 0
1704 -1703 1688 0
1704 1703 -1688 0
-1705 1704 1689 0
-1705 -1704 -1689 0
1705 -1704 1689 0
1705 1704 -1689 0
-1706 1705 1690 0
-1706 -1705 -1690 0
1706 -1705 1690 0
1706 1705 -1690 0
-1707 1706 1691 0
-1707 -1706 -1691 0
1707 -1706 1691 0
1707 1706 -1691 0
-1708 1707 1692 0
-1708 -1707 -1692 0
1708 -1707 1692 0
1708 1707 -1692 0
-1709 1708 1693 0
-1709 -1708 -1693 0
1709 -1708 1693 0
1709 1708 -1693 0
-1710 1709 1694 0
-1710 -1709 -1694 0
1710 -1709 1694 0
1710 1709 -1694 0
-1711 1710 1695 0
-1711 -1710 -1695 0
1711 -1710 1695 0
1711 1710 -1695 0
-1712 1711 1696 0
-1712 -1711 -1696 0
1712 -1711 1696 0
1712 1711 -1696 0
-1713 1712 1697 0
-1713 -1712 -1697 0
1713 -1712 1697 0
1713 1712 -1697 0
-1714 1713 1698 0
-1714 -1713 -1698 0
1714 -1713 1698 0
1714 1713 -1698 0
-1715 1714 1699 0
-1715 -1714 -1699 0
1715 -1714 1699 0
1715 1714 -1699 0
-1715 0
-1716 1567 0
-1716 37 0
1716 -1567 -37 0
-1717 1569 0
-1717 45 0
1717 -1569 -45 0
-1718 1571 0
-1718 37 0
1718 -1571 -37 0
-1719 1573 0
-1719 45 0
1719 -1573 -45 0
-1720 1575 0
-1720 41 0
1720 -1575 -41 0
-1721 1577 0
-1721 41 0
1721 -1577 -41 0
-1722 1579 0
-1722 34 0
1722 -1579 -34 0
-1723 1581 0
-1723 36 0
1723 -1581 -36 0
-1724 1583 0
-1724 34 0
1724 -1583 -34 0
-1725 1585 0
-1725 36 0
1725 -1585 -36 0
-1726 1587 0
-1726 35 0
1726 -1587 -35 0
-1727 1589 0
-1727 35 0
1727 -1589 -35 0
-1728 1591 0
-1728 85 0
1728 -1591 -85 0
-1729 1593 0
-1729 82 0
1729 -1593 -82 0
-1730 1595 0
-1730 133 0
1730 -1595 -133 0
-1731 1597 0
-1731 130 0
1731 -1597 -130 0
-1732 1599 0
-1732 181 0
1732 -1599 -181 0
-1733 1716 1717 0
-1733 -1716 -1717 0
1733 -1716 1717 0
1733 1716 -1717 0
-1734 1733 1718 0
-1734 -1733 -1718 0
1734 -1733 1718 0
1734 1733 -1718 0
-1735 1734 1719 0
-1735 -1734 -1719 0
1735 -1734 1719 0
1735 1734 -1719 0
-1736 1735 1720 0
-1736 -1735 -1720 0
1736 -1735 1720 0
1736 1735 -1720 0
-1737 1736 1721 0
-1737 -1736 -1721 0
1737 -1736 1721 0
1737 1736 -1721 0
-1738 1737 1722 0
-1738 -1737 -1722 0
1738 -1737 1722 0
1738 1737 -1722 0
-1739 1738 1723 0
-1739 -1738 -1723 0
1739 -1738 1723 0
1739 1738 -1723 0
-1740 1739 1724 0
-1740 -1739 -1724 0
1740 -1739 1724 0
1740 1739 -1724 0
-1741 1740 1725 0
-1741 -1740 -1725 0
1741 -1740 1725 0
1741 1740 -1725 0
-1742 1741 1726 0
-1742 -1741 -1726 0
1742 -1741 1726 0
1742 1741 -1726 0
-1743 1742 1727 0
-1743 -1742 -1727 0
1743 -1742 1727 0
1743 1742 -1727 0
-1744 1743 1728 0
-1744 -1743 -1728 0
1744 -1743 1728 0
1744 1743 -1728 0
-1745 1744 1729 0
-1745 -1744 -1729 0
1745 -1744 1729 0
1745 1744 -1729 0
-1746 1745 1730 0
-1746 -1745 -1730 0
1746 -1745 1730 0
1746 1745 -1730 0
-1747 1746 1731 0
-1747 -1746 -1731 0
1747 -1746 1731 0
1747 1746 -1731 0
-1748 1747 1732 0
-1748 -1747 -1732 0
1748 -1747 1732 0
1748 1747 -1732 0
-1748 0
-1749 1567 0
-1749 38 0
1749 -1567 -38 0
-1750 1569 0
-1750 48 0
1750 -1569 -48 0
-1751 1571 0
-1751 38 0
1751 -1571 -38 0
-1752 1573 0
-1752 48 0
1752 -1573 -48 0
-1753 1575 0
-1753 43 0
1753 -1575 -43 0
-1754 1577 0
-1754 43 0
1754 -1577 -43 0
-1755 1579 0
-1755 38 0
1755 -1579 -38 0
-1756 1581 0
-1756 48 0
1756 -1581 -48 0
-1757 1583 0
-1757 38 0
1757 -1583 -38 0
-1758 1585 0
-1758 48 0
1758 -1585 -48 0
-1759 1587 0
-1759 43 0
1759 -1587 -43 0
-1760 1589 0
-1760 43 0
1760 -1589 -43 0
-1761 1591 0
-1761 86 0
1761 -1591 -86 0
-1762 1593 0
-1762 86 0
1762 -1593 -86 0
-1763 1595 0
-1763 134 0
1763 -1595 -134 0
-1764 1597 0
-1764 134 0
1764 -1597 -134 0
-1765 1599 0
-1765 182 0
1765 -1599 -182 0
-1766 1749 1750 0
-1766 -1749 -1750 0
1766 -1749 1750 0
1766 1749 -1750 0
-1767 1766 1751 0
-1767 -1766 -1751 0
1767 -1766 1751 0
1767 1766 -1751 0
-1768 1767 1752 0
-1768 -1767 -1752 0
1768 -1767 1752 0
1768 1767 -1752 0
-1769 1768 1753 0
-1769 -1768 -1753 0
1769 -1768 1753 0
1769 1768 -1753 0
-1770 1769 1754 0
-1770 -1769 -1754 0
1770 -1769 1754 0
1770 1769 -1754 0
-1771 1770 1755 0
-1771 -1770 -1755 0
1771 -1770 1755 0
1771 1770 -1755 0
-1772 1771 1756 0
-1772 -1771 -1756 0
1772 -1771 1756 0
1772 1771 -1756 0
-1773 1772 1757 0
-1773 -1772 -1757 0
1773 -1772 1757 0
1773 1772 -1757 0
-1774 1773 1758 0
-1774 -1773 -1758 0
1774 -1773 1758 0
1774 1773 -1758 0
-1775 1774 1759 0
-1775 -1774 -1759 0
1775 -1774 1759 0
1775 1774 -1759 0
-1776 1775 1760 0
-1776 -1775 -1760 0
1776 -1775 1760 0
1776 1775 -1760 0
-1777 1776 1761 0
-1777 -1776 -1761 0
1777 -1776 1761 0
1777 1776 -1761 0
-1778 1777 1762 0
-1778 -1777 -1762 0
1778 -1777 1762 0
1778 1777 -1762 0
-1779 1778 1763 0
-1779 -1778 -1763 0
1779 -1778 1763 0
1779 1778 -1763 0
-1780 1779 1764 0
-1780 -1779 -1764 0
1780 -1779 1764 0
1780 1779 -1764 0
-1781 1780 1765 0
-1781 -1780 -1765 0
1781 -1780 1765 0
1781 1780 -1765 0
-1781 0
-1782 1567 0
-1782 39 0
1782 -1567 -39 0
-1783 1569 0
-1783 47 0
1783 -1569 -47 0
-1784 1571 0
-1784 40 0
1784 -1571 -40 0
-1785 1573 0
-1785 46 0
1785 -1573 -46 0
-1786 1575 0
-1786 44 0
1786 -1575 -44 0
-1787 1577 0
-1787 42 0
1787 -1577 -42 0
-1788 1579 0
-1788 42 0
1788 -1579 -42 0
-1789 1581 0
-1789 44 0
1789 -1581 -44 0
-1790 1583 0
-1790 46 0
1790 -1583 -46 0
-1791 1585 0
-1791 40 0
1791 -1585 -40 0
-1792 1587 0
-1792 47 0
1792 -1587 -47 0
-1793 1589 0
-1793 39 0
1793 -1589 -39 0
-1794 1591 0
-1794 87 0
1794 -1591 -87 0
-1795 1593 0
-1795 90 0
1795 -1593 -90 0
-1796 1595 0
-1796 135 0
1796 -1595 -135 0
-1797 1597 0
-1797 138 0
1797 -1597 -138 0
-1798 1599 0
-1798 183 0
1798 -1599 -183 0
-1799 1782 1783 0
-1799 -1782 -1783 0
1799 -1782 1783 0
1799 1782 -1783 0
-1800 1799 1784 0
-1800 -1799 -1784 0
1800 -1799 1784 0
1800 1799 -1784 0
-1801 1800 1785 0
-1801 -1800 -1785 0
1801 -1800 1785 0
1801 1800 -1785 0
-1802 1801 1786 0
-1802 -1801 -1786 0
1802 -1801 1786 0
1802 1801 -1786 0
-1803 1802 1787 0
-1803 -1802 -1787 0
1803 -1802 1787 0
1803 1802 -1787 0
-1804 1803 1788 0
-1804 -1803 -1788 0
1804 -1803 1788 0
1804 1803 -1788 0
-1805 1804 1789 0
-1805 -1804 -1789 0
1805 -1804 1789 0
1805 1804 -1789 0
-1806 1805 1790 0
-1806 -1805 -1790 0
1806 -1805 1790 0
1806 1805 -1790 0
-1807 1806 1791 0
-1807 -1806 -1791 0
1807 -1806 1791 0
1807 1806 -1791 0
-1808 1807 1792 0
-1808 -1807 -1792 0
1808 -1807 1792 0
1808 1807 -1792 0
-1809 1808 1793 0
-1809 -1808 -1793 0
1809 -1808 1793 0
1809 1808 -1793 0
-1810 1809 1794 0
-1810 -1809 -1794 0
1810 -1809 1794 0
1810 1809 -1794 0
-1811 1810 1795 0
-1811 -1810 -1795 0
1811 -1810 1795 0
1811 1810 -1795 0
-1812 1811 1796 0
-1812 -1811 -1796 0
1812 -1811 1796 0
1812 1811 -1796 0
-1813 1812 1797 0
-1813 -1812 -1797 0
1813 -1812 1797 0
1813 1812 -1797 0
-1814 1813 1798 0
-1814 -1813 -1798 0
1814 -1813 1798 0
1814 1813 -1798 0
-1814 0
-1815 1567 0
-1815 40 0
1815 -1567 -40 0
-1816 1569 0
-1816 46 0
1816 -1569 -46 0
-1817 1571 0
-1817 39 0
1817 -1571 -39 0
-1818 1573 0
-1818 47 0
1818 -1573 -47 0
-1819 1575 0
-1819 42 0
1819 -1575 -42 0
-1820 1577 0
-1820 44 0
1820 -1577 -44 0
-1821 1579 0
-1821 46 0
1821 -1579 -46 0
-1822 1581 0
-1822 40 0
1822 -1581 -40 0
-1823 1583 0
-1823 42 0
1823 -1583 -42 0
-1824 1585 0
-1824 44 0
1824 -1585 -44 0
-1825 1587 0
-1825 39 0
1825 -1587 -39 0
-1826 1589 0
-1826 47 0
1826 -1589 -47 0
-1827 1591 0
-1827 88 0
1827 -1591 -88 0
-1828 1593 0
-1828 94 0
1828 -1593 -94 0
-1829 1595 0
-1829 136 0
1829 -1595 -136 0
-1830 1597 0
-1830 142 0
1830 -1597 -142 0
-1831 1599 0
-1831 184 0
1831 -1599 -184 0
-1832 1815 1816 0
-1832 -1815 -1816 0
1832 -1815 1816 0
1832 1815 -1816 0
-1833 1832 1817 0
-1833 -1832 -1817 0
1833 -1832 1817 0
1833 1832 -1817 0
-1834 1833 1818 0
-1834 -1833 -1818 0
1834 -1833 1818 0
1834 1833 -1818 0
-1835 1834 1819 0
-1835 -1834 -1819 0
1835 -1834 1819 0
1835 1834 -1819 0
-1836 1835 1820 0
-1836 -1835 -1820 0
1836 -1835 1820 0
1836 1835 -1820 0
-1837 1836 1821 0
-1837 -1836 -1821 0
1837 -1836 1821 0
1837 1836 -1821 0
-1838 1837 1822 0
-1838 -1837 -1822 0
1838 -1837 1822 0
1838 1837 -1822 0
-1839 1838 1823 0
-1839 -1838 -1823 0
1839 -1838 1823 0
1839 1838 -1823 0
-1840 1839 1824 0
-1840 -1839 -1824 0
1840 -1839 1824 0
1840 1839 -1824 0
-1841 1840 1825 0
-1841 -1840 -1825 0
1841 -1840 1825 0
1841 1840 -1825 0
-1842 1841 1826 0
-1842 -1841 -1826 0
1842 -1841 1826 0
1842 1841 -1826 0
-1843 1842 1827 0
-1843 -1842 -1827 0
1843 -1842 1827 0
1843 1842 -1827 0
-1844 1843 1828 0
-1844 -1843 -1828 0
1844 -1843 1828 0
1844 1843 -1828 0
-1845 1844 1829 0
-1845 -1844 -1829 0
1845 -1844 1829 0
1845 1844 -1829 0
-1846 1845 1830 0
-1846 -1845 -1830 0
1846 -1845 1830 0
1846 1845 -1830 0
-1847 1846 1831 0
-1847 -1846 -1831 0
1847 -1846 1831 0
1847 1846 -1831 0
-1847 0
-1848 1567 0
-1848 41 0
1848 -1567 -41 0
-1849 1569 0
-1849 41 0
1849 -1569 -41 0
-1850 1571 0
-1850 45 0
1850 -1571 -45 0
-1851 1573 0
-1851 37 0
1851 -1573 -37 0
-1852 1575 0
-1852 45 0
1852 -1575 -45 0
-1853 1577 0
-1853 37 0
1853 -1577 -37 0
-1854 1579 0
-1854 35 0
1854 -1579 -35 0
-1855 1581 0
-1855 35 0
1855 -1581 -35 0
-1856 1583 0
-1856 36 0
1856 -1583 -36 0
-1857 1585 0
-1857 34 0
1857 -1585 -34 0
-1858 1587 0
-1858 36 0
1858 -1587 -36 0
-1859 1589 0
-1859 34 0
1859 -1589 -34 0
-1860 1591 0
-1860 89 0
1860 -1591 -89 0
-1861 1593 0
-1861 83 0
1861 -1593 -83 0
-1862 1595 0
-1862 137 0
1862 -1595 -137 0
-1863 1597 0
-1863 131 0
1863 -1597 -131 0
-1864 1599 0
-1864 185 0
1864 -1599 -185 0
-1865 1848 1849 0
-1865 -1848 -1849 0
1865 -1848 1849 0
1865 1848 -1849 0
-1866 1865 1850 0
-1866 -1865 -1850 0
1866 -1865 1850 0
1866 1865 -1850 0
-1867 1866 1851 0
-1867 -1866 -1851 0
1867 -1866 1851 0
1867 1866 -1851 0
-1868 1867 1852 0
-1868 -1867 -1852 0
1868 -1867 1852 0
1868 1867 -1852 0
-1869 1868 1853 0
-1869 -1868 -1853 0
1869 -1868 1853 0
1869 1868 -1853 0
-1870 1869 1854 0
-1870 -1869 -1854 0
1870 -1869 1854 0
1870 1869 -1854 0
-1871 1870 1855 0
-1871 -1870 -1855 0
1871 -1870 1855 0
1871 1870 -1855 0
-1872 1871 1856 0
-1872 -1871 -1856 0
1872 -1871 1856 0
1872 1871 -1856 0
-1873 1872 1857 0
-1873 -1872 -1857 0
1873 -1872 1857 0
1873 1872 -1857 0
-1874 1873 1858 0
-1874 -1873 -1858 0
1874 -1873 1858 0
1874 1873 -1858 0
-1875 1874 1859 0
-1875 -1874 -1859 0
1875 -1874 1859 0
1875 1874 -1859 0
-1876 1875 1860 0
-1876 -1875 -1860 0
1876 -1875 1860 0
1876 1875 -1860 0
-1877 1876 1861 0
-1877 -1876 -1861 0
1877 -1876 1861 0
1877 1876 -1861 0
-1878 1877 1862 0
-1878 -1877 -1862 0
1878 -1877 1862 0
1878 1877 -1862 0
-1879 1878 1863 0
-1879 -1878 -1863 0
1879 -1878 1863 0
1879 1878 -1863 0
-1880 1879 1864 0
-1880 -1879 -1864 0
1880 -1879 1864 0
1880 1879 -1864 0
-1880 0
-1881 1567 0
-1881 42 0
1881 -1567 -42 0
-1882 1569 0
-1882 44 0
1882 -1569 -44 0
-1883 1571 0
-1883 46 0
1883 -1571 -46 0
-1884 1573 0
-1884 40 0
1884 -1573 -40 0
-1885 1575 0
-1885 47 0
1885 -1575 -47 0
-1886 1577 0
-1886 39 0
1886 -1577 -39 0
-1887 1579 0
-1887 39 0
1887 -1579 -39 0
-1888 1581 0
-1888 47 0
1888 -1581 -47 0
-1889 1583 0
-1889 40 0
1889 -1583 -40 0
-1890 1585 0
-1890 46 0
1890 -1585 -46 0
-1891 1587 0
-1891 44 0
1891 -1587 -44 0
-1892 1589 0
-1892 42 0
1892 -1589 -42 0
-1893 1591 0
-1893 90 0
1893 -1591 -90 0
-1894 1593 0
-1894 87 0
1894 -1593 -87 0
-1895 1595 0
-1895 138 0
1895 -1595 -138 0
-1896 1597 0
-1896 135 0
1896 -1597 -135 0
-1897 1599 0
-1897 186 0
1897 -1599 -186 0
-1898 1881 1882 0
-1898 -1881 -1882 0
1898 -1881 1882 0
1898 1881 -1882 0
-1899 1898 1883 0
-1899 -1898 -1883 0
1899 -1898 1883 0
1899 1898 -1883 0
-1900 1899 1884 0
-1900 -1899 -1884 0
1900 -1899 1884 0
1900 1899 -1884 0
-1901 1900 1885 0
-1901 -1900 -1885 0
1901 -1900 1885 0
1901 1900 -1885 0
-1902 1901 1886 0
-1902 -1901 -1886 0
1902 -1901 1886 0
1902 1901 -1886 0
-1903 1902 1887 0
-1903 -1902 -1887 0
1903 -1902 1887 0
1903 1902 -1887 0
-1904 1903 1888 0
-1904 -1903 -1888 0
1904 -1903 1888 0
1904 1903 -1888 0
-1905 1904 1889 0
-1905 -1904 -1889 0
1905 -1904 1889 0
1905 1904 -1889 0
-1906 1905 1890 0
-1906 -1905 -1890 0
1906 -1905 1890 0
1906 1905 -1890 0
-1907 1906 1891 0
-1907 -1906 -1891 0
1907 -1906 1891 0
1907 1906 -1891 0
-1908 1907 1892 0
-1908 -1907 -1892 0
1908 -1907 1892 0
1908 1907 -1892 0
-1909 1908 1893 0
-1909 -1908 -1893 0
1909 -1908 1893 0
1909 1908 -1893 0
-1910 1909 1894 0
-1910 -1909 -1894 0
1910 -1909 1894 0
1910 1909 -1894 0
-1911 1910 1895 0
-1911 -1910 -1895 0
1911 -1910 1895 0
1911 1910 -1895 0
-1912 1911 1896 0
-1912 -1911 -1896 0
1912 -1911 1896 0
1912 1911 -1896 0
-1913 1912 1897 0
-1913 -1912 -1897 0
1913 -1912 1897 0
1913 1912 -1897 0
-1913 0
-1914 1567 0
-1914 43 0
1914 -1567 -43 0
-1915 1569 0
-1915 43 0
1915 -1569 -43 0
-1916 1571 0
-1916 48 0
1916 -1571 -48 0
-1917 1573 0
-1917 38 0
1917 -1573 -38 0
-1918 1575 0
-1918 48 0
1918 -1575 -48 0
-1919 1577 0
-1919 38 0
1919 -1577 -38 0
-1920 1579 0
-1920 43 0
1920 -1579 -43 0
-1921 1581 0
-1921 43 0
1921 -1581 -43 0
-1922 1583 0
-1922 48 0
1922 -1583 -48 0
-1923 1585 0
-1923 38 0
1923 -1585 -38 0
-1924 1587 0
-1924 48 0
1924 -1587 -48 0
-1925 1589 0
-1925 38 0
1925 -1589 -38 0
-1926 1591 0
-1926 91 0
1926 -1591 -91 0
-1927 1593 0
-1927 91 0
1927 -1593 -91 0
-1928 1595 0
-1928 139 0
1928 -1595 -139 0
-1929 1597 0
-1929 139 0
1929 -1597 -139 0
-1930 1599 0
-1930 187 0
1930 -1599 -187 0
-1931 1914 1915 0
-1931 -1914 -1915 0
1931 -1914 1915 0
1931 1914 -1915 0
-1932 1931 1916 0
-1932 -1931 -1916 0
1932 -1931 1916 0
1932 1931 -1916 0
-1933 1932 1917 0
-1933 -1932 -1917 0
1933 -1932 1917 0
1933 1932 -1917 0
-1934 1933 1918 0
-1934 -1933 -1918 0
1934 -1933 1918 0
1934 1933 -1918 0
-1935 1934 1919 0
-1935 -1934 -1919 0
1935 -1934 1919 0
1935 1934 -1919 0
-1936 1935 1920 0
-1936 -1935 -1920 0
1936 -1935 1920 0
1936 1935 -1920 0
-1937 1936 1921 0
-1937 -1936 -1921 0
1937 -1936 1921 0
1937 1936 -1921 0
-1938 1937 1922 0
-1938 -1937 -1922 0
1938 -1937 1922 0
1938 1937 -1922 0
-1939 1938 1923 0
-1939 -1938 -1923 0
1939 -1938 1923 0
1939 1938 -1923 0
-1940 1939 1924 0
-1940 -1939 -1924 0
1940 -1939 1924 0
1940 1939 -1924 0
-1941 1940 1925 0
-1941 -1940 -1925 0
1941 -1940 1925 0
1941 1940 -1925 0
-1942 1941 1926 0
-1942 -1941 -1926 0
1942 -1941 1926 0
1942 1941 -1926 0
-1943 1942 1927 0
-1943 -1942 -1927 0
1943 -1942 1927 0
1943 1942 -1927 0
-1944 1943 1928 0
-1944 -1943 -1928 0
1944 -1943 1928 0
1944 1943 -1928 0
-1945 1944 1929 0
-1945 -1944 -1929 0
1945 -1944 1929 0
1945 1944 -1929 0
-1946 1945 1930 0
-1946 -1945 -1930 0
1946 -1945 1930 0
1946 1945 -1930 0
-1946 0
-1947 1567 0
-1947 44 0
1947 -1567 -44 0
-1948 1569 0
-1948 42 0
1948 -1569 -42 0
-1949 1571 0
-1949 47 0
1949 -1571 -47 0
-1950 1573 0
-1950 39 0
1950 -1573 -39 0
-1951 1575 0
-1951 46 0
1951 -1575 -46 0
-1952 1577 0
-1952 40 0
1952 -1577 -40 0
-1953 1579 0
-1953 47 0
1953 -1579 -47 0
-1954 1581 0
-1954 39 0
1954 -1581 -39 0
-1955 1583 0
-1955 44 0
1955 -1583 -44 0
-1956 1585 0
-1956 42 0
1956 -1585 -42 0
-1957 1587 0
-1957 40 0
1957 -1587 -40 0
-1958 1589 0
-1958 46 0
1958 -1589 -46 0
-1959 1591 0
-1959 92 0
1959 -1591 -92 0
-1960 1593 0
-1960 95 0
1960 -1593 -95 0
-1961 1595 0
-1961 140 0
1961 -1595 -140 0
-1962 1597 0
-1962 143 0
1962 -1597 -143 0
-1963 1599 0
-1963 188 0
1963 -1599 -188 0
-1964 1947 1948 0
-1964 -1947 -1948 0
1964 -1947 1948 0
1964 1947 -1948 0
-1965 1964 1949 0
-1965 -1964 -1949 0
1965 -1964 1949 0
1965 1964 -1949 0
-1966 1965 1950 0
-1966 -1965 -1950 0
1966 -1965 1950 0
1966 1965 -1950 0
-1967 1966 1951 0
-1967 -1966 -1951 0
1967 -1966 1951 0
1967 1966 -1951 0
-1968 1967 1952 0
-1968 -1967 -1952 0
1968 -1967 1952 0
1968 1967 -1952 0
-1969 1968 1953 0
-1969 -1968 -1953 0
1969 -1968 1953 0
1969 1968 -1953 0
-1970 1969 1954 0
-1970 -1969 -1954 0
1970 -1969 1954 0
1970 1969 -1954 0
-1971 1970 1955 0
-1971 -1970 -1955 0
1971 -1970 1955 0
1971 1970 -1955 0
-1972 1971 1956 0
-1972 -1971 -1956 0
1972 -1971 1956 0
1972 1971 -1956 0
-1973 1972 1957 0
-1973 -1972 -1957 0
1973 -1972 1957 0
1973 1972 -1957 0
-1974 1973 1958 0
-1974 -1973 -1958 0
1974 -1973 1958 0
1974 1973 -1958 0
-1975 1974 1959 0
-1975 -1974 -1959 0
1975 -1974 1959 0
1975 1974 -1959 0
-1976 1975 1960 0
-1976 -1975 -1960 0
1976 -1975 1960 0
1976 1975 -1960 0
-1977 1976 1961 0
-1977 -1976 -1961 0
1977 -1976 1961 0
1977 1976 -1961 0
-1978 1977 1962 0
-1978 -1977 -1962 0
1978 -1977 1962 0
1978 1977 -1962 0
-1979 1978 1963 0
-1979 -1978 -1963 0
1979 -1978 1963 0
1979 1978 -1963 0
-1979 0
-1980 1567 0
-1980 45 0
1980 -1567 -45 0
-1981 1569 0
-1981 37 0
1981 -1569 -37 0
-1982 1571 0
-1982 41 0
1982 -1571 -41 0
-1983 1573 0
-1983 41 0
1983 -1573 -41 0
-1984 1575 0
-1984 37 0
1984 -1575 -37 0
-1985 1577 0
-1985 45 0
1985 -1577 -45 0
-1986 1579 0
-1986 36 0
1986 -1579 -36 0
-1987 1581 0
-1987 34 0
1987 -1581 -34 0
-1988 1583 0
-1988 35 0
1988 -1583 -35 0
-1989 1585 0
-1989 35 0
1989 -1585 -35 0
-1990 1587 0
-1990 34 0
1990 -1587 -34 0
-1991 1589 0
-1991 36 0
1991 -1589 -36 0
-1992 1591 0
-1992 93 0
1992 -1591 -93 0
-1993 1593 0
-1993 84 0
1993 -1593 -84 0
-1994 1595 0
-1994 141 0
1994 -1595 -141 0
-1995 1597 0
-1995 132 0
1995 -1597 -132 0
-1996 1599 0
-1996 189 0
1996 -1599 -189 0
-1997 1980 1981 0
-1997 -1980 -1981 0
1997 -1980 1981 0
1997 1980 -1981 0
-1998 1997 1982 0
-1998 -1997 -1982 0
1998 -1997 1982 0
1998 1997 -1982 0
-1999 1998 1983 0
-1999 -1998 -1983 0
1999 -1998 1983 0
1999 1998 -1983 0
-2000 1999 1984 0
-2000 -1999 -1984 0
2000 -1999 1984 0
2000 1999 -1984 0
-2001 2000 1985 0
-2001 -2000 -1985 0
2001 -2000 1985 0
2001 2000 -1985 0
-2002 2001 1986 0
-2002 -2001 -1986 0
2002 -2001 1986 0
2002 2001 -1986 0
-2003 2002 1987 0
-2003 -2002 -1987 0
2003 -2002 1987 0
2003 2002 -1987 0
-2004 2003 1988 0
-2004 -2003 -1988 0
2004 -2003 1988 0
2004 2003 -1988 0
-2005 2004 1989 0
-2005 -2004 -1989 0
2005 -2004 1989 0
2005 2004 -1989 0
-2006 2005 1990 0
-2006 -2005 -1990 0
2006 -2005 1990 0
2006 2005 -1990 0
-2007 2006 1991 0
-2007 -2006 -1991 0
2007 -2006 1991 0
2007 2006 -1991 0
-2008 2007 1992 0
-2008 -2007 -1992 0
2008 -2007 1992 0
2008 2007 -1992 0
-2009 2008 1993 0
-2009 -2008 -1993 0
2009 -2008 1993 0
2009 2008 -1993 0
-2010 2009 1994 0
-2010 -2009 -1994 0
2010 -2009 1994 0
2010 2009 -1994 0
-2011 2010 1995 0
-2011 -2010 -1995 0
2011 -2010 1995 0
2011 2010 -1995 0
-2012 2011 1996 0
-2012 -2011 -1996 0
2012 -2011 1996 0
2012 2011 -1996 0
-2012 0
-2013 1567 0
-2013 46 0
2013 -1567 -46 0
-2014 1569 0
-2014 40 0
2014 -1569 -40 0
-2015 1571 0
-2015 42 0
2015 -1571 -42 0
-2016 1573 0
-2016 44 0
2016 -1573 -44 0
-2017 1575 0
-2017 39 0
2017 -1575 -39 0
-2018 1577 0
-2018 47 0
2018 -1577 -47 0
-2019 1579 0
-2019 40 0
2019 -1579 -40 0
-2020 1581 0
-2020 46 0
2020 -1581 -46 0
-2021 1583 0
-2021 39 0
2021 -1583 -39 0
-2022 1585 0
-2022 47 0
2022 -1585 -47 0
-2023 1587 0
-2023 42 0
2023 -1587 -42 0
-2024 1589 0
-2024 44 0
2024 -1589 -44 0
-2025 1591 0
-2025 94 0
2025 -1591 -94 0
-2026 1593 0
-2026 88 0
2026 -1593 -88 0
-2027 1595 0
-2027 142 0
2027 -1595 -142 0
-2028 1597 0
-2028 136 0
2028 -1597 -136 0
-2029 1599 0
-2029 190 0
2029 -1599 -190 0
-2030 2013 2014 0
-2030 -2013 -2014 0
2030 -2013 2014 0
2030 2013 -2014 0
-2031 2030 2015 0
-2031 -2030 -2015 0
2031 -2030 2015 0
2031 2030 -2015 0
-2032 2031 2016 0
-2032 -2031 -2016 0
2032 -2031 2016 0
2032 2031 -2016 0
-2033 2032 2017 0
-2033 -2032 -2017 0
2033 -2032 2017 0
2033 2032 -2017 0
-2034 2033 2018 0
-2034 -2033 -2018 0
2034 -2033 2018 0
2034 2033 -2018 0
-2035 2034 2019 0
-2035 -2034 -2019 0
2035 -2034 2019 0
2035 2034 -2019 0
-2036 2035 2020 0
-2036 -2035 -2020 0
2036 -2035 2020 0
2036 2035 -2020 0
-2037 2036 2021 0
-2037 -2036 -2021 0
2037 -2036 2021 0
2037 2036 -2021 0
-2038 2037 2022 0
-2038 -2037 -2022 0
2038 -2037 2022 0
2038 2037 -2022 0
-2039 2038 2023 0
-2039 -2038 -2023 0
2039 -2038 2023 0
2039 2038 -2023 0
-2040 2039 2024 0
-2040 -2039 -2024 0
2040 -2039 2024 0
2040 2039 -2024 0
-2041 2040 2025 0
-2041 -2040 -2025 0
2041 -2040 2025 0
2041 2040 -2025 0
-2042 2041 2026 0
-2042 -2041 -2026 0
2042 -2041 2026 0
2042 2041 -2026 0
-2043 2042 2027 0
-2043 -2042 -2027 0
2043 -2042 2027 0
2043 2042 -2027 0
-2044 2043 2028 0
-2044 -2043 -2028 0
2044 -2043 2028 0
2044 2043 -2028 0
-2045 2044 2029 0
-2045 -2044 -2029 0
2045 -2044 2029 0
2045 2044 -2029 0
-2045 0
-2046 1567 0
-2046 47 0
2046 -1567 -47 0
-2047 1569 0
-2047 39 0
2047 -1569 -39 0
-2048 1571 0
-2048 44 0
2048 -1571 -44 0
-2049 1573 0
-2049 42 0
2049 -1573 -42 0
-2050 1575 0
-2050 40 0
2050 -1575 -40 0
-2051 1577 0
-2051 46 0
2051 -1577 -46 0
-2052 1579 0
-2052 44 0
2052 -1579 -44 0
-2053 1581 0
-2053 42 0
2053 -1581 -42 0
-2054 1583 0
-2054 47 0
2054 -1583 -47 0
-2055 1585 0
-2055 39 0
2055 -1585 -39 0
-2056 1587 0
-2056 46 0
2056 -1587 -46 0
-2057 1589 0
-2057 40 0
2057 -1589 -40 0
-2058 1591 0
-2058 95 0
2058 -1591 -95 0
-2059 1593 0
-2059 92 0
2059 -1593 -92 0
-2060 1595 0
-2060 143 0
2060 -1595 -143 0
-2061 1597 0
-2061 140 0
2061 -1597 -140 0
-2062 1599 0
-2062 191 0
2062 -1599 -191 0
-2063 2046 2047 0
-2063 -2046 -2047 0
2063 -2046 2047 0
2063 2046 -2047 0
-2064 2063 2048 0
-2064 -2063 -2048 0
2064 -2063 2048 0
2064 2063 -2048 0
-2065 2064 2049 0
-2065 -2064 -2049 0
2065 -2064 2049 0
2065 2064 -2049 0
-2066 2065 2050 0
-2066 -2065 -2050 0
2066 -2065 2050 0
2066 2065 -2050 0
-2067 2066 2051 0
-2067 -2066 -2051 0
2067 -2066 2051 0
2067 2066 -2051 0
-2068 2067 2052 0
-2068 -2067 -2052 0
2068 -2067 2052 0
2068 2067 -2052 0
-2069 2068 2053 0
-2069 -2068 -2053 0
2069 -2068 2053 0
2069 2068 -2053 0
-2070 2069 2054 0
-2070 -2069 -2054 0
2070 -2069 2054 0
2070 2069 -2054 0
-2071 2070 2055 0
-2071 -2070 -2055 0
2071 -2070 2055 0
2071 2070 -2055 0
-2072 2071 2056 0
-2072 -2071 -2056 0
2072 -2071 2056 0
2072 2071 -2056 0
-2073 2072 2057 0
-2073 -2072 -2057 0
2073 -2072 2057 0
2073 2072 -2057 0
-2074 2073 2058 0
-2074 -2073 -2058 0
2074 -2073 2058 0
2074 2073 -2058 0
-2075 2074 2059 0
-2075 -2074 -2059 0
2075 -2074 2059 0
2075 2074 -2059 0
-2076 2075 2060 0
-2076 -2075 -2060 0
2076 -2075 2060 0
2076 2075 -2060 0
-2077 2076 2061 0
-2077 -2076 -2061 0
2077 -2076 2061 0
2077 2076 -2061 0
-2078 2077 2062 0
-2078 -2077 -2062 0
2078 -2077 2062 0
2078 2077 -2062 0
-2078 0
-2079 1567 0
-2079 48 0
2079 -1567 -48 0
-2080 1569 0
-2080 38 0
2080 -1569 -38 0
-2081 1571 0
-2081 43 0
2081 -1571 -43 0
-2082 1573 0
-2082 43 0
2082 -1573 -43 0
-2083 1575 0
-2083 38 0
2083 -1575 -38 0
-2084 1577 0
-2084 48 0
2084 -1577 -48 0
-2085 1579 0
-2085 48 0
2085 -1579 -48 0
-2086 1581 0
-2086 38 0
2086 -1581 -38 0
-2087 1583 0
-2087 43 0
2087 -1583 -43 0
-2088 1585 0
-2088 43 0
2088 -1585 -43 0
-2089 1587 0
-2089 38 0
2089 -1587 -38 0
-2090 1589 0
-2090 48 0
2090 -1589 -48 0
-2091 1591 0
-2091 96 0
2091 -1591 -96 0
-2092 1593 0
-2092 96 0
2092 -1593 -96 0
-2093 1595 0
-2093 144 0
2093 -1595 -144 0
-2094 1597 0
-2094 144 0
2094 -1597 -144 0
-2095 1599 0
-2095 192 0
2095 -1599 -192 0
-2096 2079 2080 0
-2096 -2079 -2080 0
2096 -2079 2080 0
2096 2079 -2080 0
-2097 2096 2081 0
-2097 -2096 -2081 0
2097 -2096 2081 0
2097 2096 -2081 0
-2098 2097 2082 0
-2098 -2097 -2082 0
2098 -2097 2082 0
2098 2097 -2082 0
-2099 2098 2083 0
-2099 -2098 -2083 0
2099 -2098 2083 0
2099 2098 -2083 0
-2100 2099 2084 0
-2100 -2099 -2084 0
2100 -2099 2084 0
2100 2099 -2084 0
-2101 2100 2085 0
-2101 -2100 -2085 0
2101 -2100 2085 0
2101 2100 -2085 0
-2102 2101 2086 0
-2102 -2101 -2086 0
2102 -2101 2086 0
2102 2101 -2086 0
-2103 2102 2087 0
-2103 -2102 -2087 0
2103 -2102 2087 0
2103 2102 -2087 0
-2104 2103 2088 0
-2104 -2103 -2088 0
2104 -2103 2088 0
2104 2103 -2088 0
-2105 2104 2089 0
-2105 -2104 -2089 0
2105 -2104 2089 0
2105 2104 -2089 0
-2106 2105 2090 0
-2106 -2105 -2090 0
2106 -2105 2090 0
2106 2105 -2090 0
-2107 2106 2091 0
-2107 -2106 -2091 0
2107 -2106 2091 0
2107 2106 -2091 0
-2108 2107 2092 0
-2108 -2107 -2092 0
2108 -2107 2092 0
2108 2107 -2092 0
-2109 2108 2093 0
-2109 -2108 -2093 0
2109 -2108 2093 0
2109 2108 -2093 0
-2110 2109 2094 0
-2110 -2109 -2094 0
2110 -2109 2094 0
2110 2109 -2094 0
-2111 2110 2095 0
-2111 -2110 -2095 0
2111 -2110 2095 0
2111 2110 -2095 0
-2111 0
-2112 1 0
-2112 23 0
2112 -1 -23 0
-2113 2112 0
-2113 33 0
2113 -2112 -33 0
-2114 1 0
-2114 27 0
2114 -1 -27 0
-2115 2114 0
-2115 33 0
2115 -2114 -33 0
-2116 2 0
-2116 20 0
2116 -2 -20 0
-2117 2116 0
-2117 33 0
2117 -2116 -33 0
-2118 3 0
-2118 18 0
2118 -3 -18 0
-2119 2118 0
-2119 33 0
2119 -2118 -33 0
-2120 2 0
-2120 28 0
2120 -2 -28 0
-2121 2120 0
-2121 33 0
2121 -2120 -33 0
-2122 3 0
-2122 22 0
2122 -3 -22 0
-2123 2122 0
-2123 33 0
2123 -2122 -33 0
-2124 17 0
-2124 10 0
2124 -17 -10 0
-2125 2124 0
-2125 33 0
2125 -2124 -33 0
-2126 17 0
-2126 11 0
2126 -17 -11 0
-2127 2126 0
-2127 33 0
2127 -2126 -33 0
-2128 21 0
-2128 13 0
2128 -21 -13 0
-2129 2128 0
-2129 33 0
2129 -2128 -33 0
-2130 25 0
-2130 5 0
2130 -25 -5 0
-2131 2130 0
-2131 33 0
2131 -2130 -33 0
-2132 21 0
-2132 15 0
2132 -21 -15 0
-2133 2132 0
-2133 33 0
2133 -2132 -33 0
-2134 25 0
-2134 6 0
2134 -25 -6 0
-2135 2134 0
-2135 33 0
2135 -2134 -33 0
-2136 49 0
-2136 71 0
2136 -49 -71 0
-2137 2136 0
-2137 81 0
2137 -2136 -81 0
-2138 65 0
-2138 58 0
2138 -65 -58 0
-2139 2138 0
-2139 81 0
2139 -2138 -81 0
-2140 97 0
-2140 119 0
2140 -97 -119 0
-2141 2140 0
-2141 129 0
2141 -2140 -129 0
-2142 113 0
-2142 106 0
2142 -113 -106 0
-2143 2142 0
-2143 129 0
2143 -2142 -129 0
-2144 145 0
-2144 167 0
2144 -145 -167 0
-2145 2144 0
-2145 177 0
2145 -2144 -177 0
-2146 2113 2115 0
-2146 -2113 -2115 0
2146 -2113 2115 0
2146 2113 -2115 0
-2147 2146 2117 0
-2147 -2146 -2117 0
2147 -2146 2117 0
2147 2146 -2117 0
-2148 2147 2119 0
-2148 -2147 -2119 0
2148 -2147 2119 0
2148 2147 -2119 0
-2149 2148 2121 0
-2149 -2148 -2121 0
2149 -2148 2121 0
2149 2148 -2121 0
-2150 2149 2123 0
-2150 -2149 -2123 0
2150 -2149 2123 0
2150 2149 -2123 0
-2151 2150 2125 0
-2151 -2150 -2125 0
2151 -2150 2125 0
2151 2150 -2125 0
-2152 2151 2127 0
-2152 -2151 -2127 0
2152 -2151 2127 0
2152 2151 -2127 0
-2153 2152 2129 0
-2153 -2152 -2129 0
2153 -2152 2129 0
2153 2152 -2129 0
-2154 2153 2131 0
-2154 -2153 -2131 0
2154 -2153 2131 0
2154 2153 -2131 0
-2155 2154 2133 0
-2155 -2154 -2133 0
2155 -2154 2133 0
2155 2154 -2133 0
-2156 2155 2135 0
-2156 -2155 -2135 0
2156 -2155 2135 0
2156 2155 -2135 0
-2157 2156 2137 0
-2157 -2156 -2137 0
2157 -2156 2137 0
2157 2156 -2137 0
-2158 2157 2139 0
-2158 -2157 -2139 0
2158 -2157 2139 0
2158 2157 -2139 0
-2159 2158 2141 0
-2159 -2158 -2141 0
2159 -2158 2141 0
2159 2158 -2141 0
-2160 2159 2143 0
-2160 -2159 -2143 0
2160 -2159 2143 0
2160 2159 -2143 0
-2161 2160 2145 0
-2161 -2160 -2145 0
2161 -2160 2145 0
2161 2160 -2145 0
-2161 0
-2162 2112 0
-2162 34 0
2162 -2112 -34 0
-2163 2114 0
-2163 36 0
2163 -2114 -36 0
-2164 2116 0
-2164 34 0
2164 -2116 -34 0
-2165 2118 0
-2165 36 0
2165 -2118 -36 0
-2166 2120 0
-2166 35 0
2166 -2120 -35 0
-2167 2122 0
-2167 35 0
2167 -2122 -35 0
-2168 2124 0
-2168 37 0
2168 -2124 -37 0
-2169 2126 0
-2169 45 0
2169 -2126 -45 0
-2170 2128 0
-2170 37 0
2170 -2128 -37 0
-2171 2130 0
-2171 45 0
2171 -2130 -45 0
-2172 2132 0
-2172 41 0
2172 -2132 -41 0
-2173 2134 0
-2173 41 0
2173 -2134 -41 0
-2174 2136 0
-2174 82 0
2174 -2136 -82 0
-2175 2138 0
-2175 85 0
2175 -2138 -85 0
-2176 2140 0
-2176 130 0
2176 -2140 -130 0
-2177 2142 0
-2177 133 0
2177 -2142 -133 0
-2178 2144 0
-2178 178 0
2178 -2144 -178 0
-2179 2162 2163 0
-2179 -2162 -2163 0
2179 -2162 2163 0
2179 2162 -2163 0
-2180 2179 2164 0
-2180 -2179 -2164 0
2180 -2179 2164 0
2180 2179 -2164 0
-2181 2180 2165 0
-2181 -2180 -2165 0
2181 -2180 2165 0
2181 2180 -2165 0
-2182 2181 2166 0
-2182 -2181 -2166 0
2182 -2181 2166 0
2182 2181 -2166 0
-2183 2182 2167 0
-2183 -2182 -2167 0
2183 -2182 2167 0
2183 2182 -2167 0
-2184 2183 2168 0
-2184 -2183 -2168 0
2184 -2183 2168 0
2184 2183 -2168 0
-2185 2184 2169 0
-2185 -2184 -2169 0
2185 -2184 2169 0
2185 2184 -2169 0
-2186 2185 2170 0
-2186 -2185 -2170 0
2186 -2185 2170 0
2186 2185 -2170 0
-2187 2186 2171 0
-2187 -2186 -2171 0
2187 -2186 2171 0
2187 2186 -2171 0
-2188 2187 2172 0
-2188 -2187 -2172 0
2188 -2187 2172 0
2188 2187 -2172 0
-2189 2188 2173 0
-2189 -2188 -2173 0
2189 -2188 2173 0
2189 2188 -2173 0
-2190 2189 2174 0
-2190 -2189 -2174 0
2190 -2189 2174 0
2190 2189 -2174 0
-2191 2190 2175 0
-2191 -2190 -2175 0
2191 -2190 2175 0
2191 2190 -2175 0
-2192 2191 2176 0
-2192 -2191 -2176 0
2192 -2191 2176 0
2192 2191 -2176 0
-2193 2192 2177 0
-2193 -2192 -2177 0
2193 -2192 2177 0
2193 2192 -2177 0
-2194 2193 2178 0
-2194 -2193 -2178 0
2194 -2193 2178 0
2194 2193 -2178 0
-2194 0
-2195 2112 0
-2195 35 0
2195 -2112 -35 0
-2196 2114 0
-2196 35 0
2196 -2114 -35 0
-2197 2116 0
-2197 36 0
2197 -2116 -36 0
-2198 2118 0
-2198 34 0
2198 -2118 -34 0
-2199 2120 0
-2199 36 0
2199 -2120 -36 0
-2200 2122 0
-2200 34 0
2200 -2122 -34 0
-2201 2124 0
-2201 41 0
2201 -2124 -41 0
-2202 2126 0
-2202 41 0
2202 -2126 -41 0
-2203 2128 0
-2203 45 0
2203 -2128 -45 0
-2204 2130 0
-2204 37 0
2204 -2130 -37 0
-2205 2132 0
-2205 45 0
2205 -2132 -45 0
-2206 2134 0
-2206 37 0
2206 -2134 -37 0
-2207 2136 0
-2207 83 0
2207 -2136 -83 0
-2208 2138 0
-2208 89 0
2208 -2138 -89 0
-2209 2140 0
-2209 131 0
2209 -2140 -131 0
-2210 2142 0
-2210 137 0
2210 -2142 -137 0
-2211 2144 0
-2211 179 0
2211 -2144 -179 0
-2212 2195 2196 0
-2212 -2195 -2196 0
2212 -2195 2196 0
2212 2195 -2196 0
-2213 2212 2197 0
-2213 -2212 -2197 0
2213 -2212 2197 0
2213 2212 -2197 0
-2214 2213 2198 0
-2214 -2213 -2198 0
2214 -2213 2198 0
2214 2213 -2198 0
-2215 2214 2199 0
-2215 -2214 -2199 0
2215 -2214 2199 0
2215 2214 -2199 0
-2216 2215 2200 0
-2216 -2215 -2200 0
2216 -2215 2200 0
2216 2215 -2200 0
-2217 2216 2201 0
-2217 -2216 -2201 0
2217 -2216 2201 0
2217 2216 -2201 0
-2218 2217 2202 0
-2218 -2217 -2202 0
2218 -2217 2202 0
2218 2217 -2202 0
-2219 2218 2203 0
-2219 -2218 -2203 0
2219 -2218 2203 0
2219 2218 -2203 0
-2220 2219 2204 0
-2220 -2219 -2204 0
2220 -2219 2204 0
2220 2219 -2204 0
-2221 2220 2205 0
-2221 -2220 -2205 0
2221 -2220 2205 0
2221 2220 -2205 0
-2222 2221 2206 0
-2222 -2221 -2206 0
2222 -2221 2206 0
2222 2221 -2206 0
-2223 2222 2207 0
-2223 -2222 -2207 0
2223 -2222 2207 0
2223 2222 -2207 0
-2224 2223 2208 0
-2224 -2223 -2208 0
2224 -2223 2208 0
2224 2223 -2208 0
-2225 2224 2209 0
-2225 -2224 -2209 0
2225 -2224 2209 0
2225 2224 -2209 0
-2226 2225 2210 0
-2226 -2225 -2210 0
2226 -2225 2210 0
2226 2225 -2210 0
-2227 2226 2211 0
-2227 -2226 -2211 0
2227 -2226 2211 0
2227 2226 -2211 0
-2227 0
-2228 2112 0
-2228 36 0
2228 -2112 -36 0
-2229 2114 0
-2229 34 0
2229 -2114 -34 0
-2230 2116 0
-2230 35 0
2230 -2116 -35 0
-2231 2118 0
-2231 35 0
2231 -2118 -35 0
-2232 2120 0
-2232 34 0
2232 -2120 -34 0
-2233 2122 0
-2233 36 0
2233 -2122 -36 0
-2234 2124 0
-2234 45 0
2234 -2124 -45 0
-2235 2126 0
-2235 37 0
2235 -2126 -37 0
-2236 2128 0
-2236 41 0
2236 -2128 -41 0
-2237 2130 0
-2237 41 0
2237 -2130 -41 0
-2238 2132 0
-2238 37 0
2238 -2132 -37 0
-2239 2134 0
-2239 45 0
2239 -2134 -45 0
-2240 2136 0
-2240 84 0
2240 -2136 -84 0
-2241 2138 0
-2241 93 0
2241 -2138 -93 0
-2242 2140 0
-2242 132 0
2242 -2140 -132 0
-2243 2142 0
-2243 141 0
2243 -2142 -141 0
-2244 2144 0
-2244 180 0
2244 -2144 -180 0
-2245 2228 2229 0
-2245 -2228 -2229 0
2245 -2228 2229 0
2245 2228 -2229 0
-2246 2245 2230 0
-2246 -2245 -2230 0
2246 -2245 2230 0
2246 2245 -2230 0
-2247 2246 2231 0
-2247 -2246 -2231 0
2247 -2246 2231 0
2247 2246 -2231 0
-2248 2247 2232 0
-2248 -2247 -2232 0
2248 -2247 2232 0
2248 2247 -2232 0
-2249 2248 2233 0
-2249 -2248 -2233 0
2249 -2248 2233 0
2249 2248 -2233 0
-2250 2249 2234 0
-2250 -2249 -2234 0
2250 -2249 2234 0
2250 2249 -2234 0
-2251 2250 2235 0
-2251 -2250 -2235 0
2251 -2250 2235 0
2251 2250 -2235 0
-2252 2251 2236 0
-2252 -2251 -2236 0
2252 -2251 2236 0
2252 2251 -2236 0
-2253 2252 2237 0
-2253 -2252 -2237 0
2253 -2252 2237 0
2253 2252 -2237 0
-2254 2253 2238 0
-2254 -2253 -2238 0
2254 -2253 2238 0
2254 2253 -2238 0
-2255 2254 2239 0
-2255 -2254 -2239 0
2255 -2254 2239 0
2255 2254 -2239 0
-2256 2255 2240 0
-2256 -2255 -2240 0
2256 -2255 2240 0
2256 2255 -2240 0
-2257 2256 2241 0
-2257 -2256 -2241 0
2257 -2256 2241 0
2257 2256 -2241 0
-2258 2257 2242 0
-2258 -2257 -2242 0
2258 -2257 2242 0
2258 2257 -2242 0
-2259 2258 2243 0
-2259 -2258 -2243 0
2259 -2258 2243 0
2259 2258 -2243 0
-2260 2259 2244 0
-2260 -2259 -2244 0
2260 -2259 2244 0
2260 2259 -2244 0
-2260 0
-2261 2112 0
-2261 37 0
2261 -2112 -37 0
-2262 2114 0
-2262 45 0
2262 -2114 -45 0
-2263 2116 0
-2263 37 0
2263 -2116 -37 0
-2264 2118 0
-2264 45 0
2264 -2118 -45 0
-2265 2120 0
-2265 41 0
2265 -2120 -41 0
-2266 2122 0
-2266 41 0
2266 -2122 -41 0
-2267 2124 0
-2267 34 0
2267 -2124 -34 0
-2268 2126 0
-2268 36 0
2268 -2126 -36 0
-2269 2128 0
-2269 34 0
2269 -2128 -34 0
-2270 2130 0
-2270 36 0
2270 -2130 -36 0
-2271 2132 0
-2271 35 0
2271 -2132 -35 0
-2272 2134 0
-2272 35 0
2272 -2134 -35 0
-2273 2136 0
-2273 85 0
2273 -2136 -85 0
-2274 2138 0
-2274 82 0
2274 -2138 -82 0
-2275 2140 0
-2275 133 0
2275 -2140 -133 0
-2276 2142 0
-2276 130 0
2276 -2142 -130 0
-2277 2144 0
-2277 181 0
2277 -2144 -181 0
-2278 2261 2262 0
-2278 -2261 -2262 0
2278 -2261 2262 0
2278 2261 -2262 0
-2279 2278 2263 0
-2279 -2278 -2263 0
2279 -2278 2263 0
2279 2278 -2263 0
-2280 2279 2264 0
-2280 -2279 -2264 0
2280 -2279 2264 0
2280 2279 -2264 0
-2281 2280 2265 0
-2281 -2280 -2265 0
2281 -2280 2265 0
2281 2280 -2265 0
-2282 2281 2266 0
-2282 -2281 -2266 0
2282 -2281 2266 0
2282 2281 -2266 0
-2283 2282 2267 0
-2283 -2282 -2267 0
2283 -2282 2267 0
2283 2282 -2267 0
-2284 2283 2268 0
-2284 -2283 -2268 0
2284 -2283 2268 0
2284 2283 -2268 0
-2285 2284 2269 0
-2285 -2284 -2269 0
2285 -2284 2269 0
2285 2284 -2269 0
-2286 2285 2270 0
-2286 -2285 -2270 0
2286 -2285 2270 0
2286 2285 -2270 0
-2287 2286 2271 0
-2287 -2286 -2271 0
2287 -2286 2271 0
2287 2286 -2271 0
-2288 2287 2272 0
-2288 -2287 -2272 0
2288 -2287 2272 0
2288 2287 -2272 0
-2289 2288 2273 0
-2289 -2288 -2273 0
2289 -2288 2273 0
2289 2288 -2273 0
-2290 2289 2274 0
-2290 -2289 -2274 0
2290 -2289 2274 0
2290 2289 -2274 0
-2291 2290 2275 0
-2291 -2290 -2275 0
2291 -2290 2275 0
2291 2290 -2275 0
-2292 2291 2276 0
-2292 -2291 -2276 0
2292 -2291 2276 0
2292 2291 -2276 0
-2293 2292 2277 0
-2293 -2292 -2277 0
2293 -2292 2277 0
2293 2292 -2277 0
-2293 0
-2294 2112 0
-2294 38 0
2294 -2112 -38 0
-2295 2114 0
-2295 48 0
2295 -2114 -48 0
-2296 2116 0
-2296 38 0
2296 -2116 -38 0
-2297 2118 0
-2297 48 0
2297 -2118 -48 0
-2298 2120 0
-2298 43 0
2298 -2120 -43 0
-2299 2122 0
-2299 43 0
2299 -2122 -43 0
-2300 2124 0
-2300 38 0
2300 -2124 -38 0
-2301 2126 0
-2301 48 0
2301 -2126 -48 0
-2302 2128 0
-2302 38 0
2302 -2128 -38 0
-2303 2130 0
-2303 48 0
2303 -2130 -48 0
-2304 2132 0
-2304 43 0
2304 -2132 -43 0
-2305 2134 0
-2305 43 0
2305 -2134 -43 0
-2306 2136 0
-2306 86 0
2306 -2136 -86 0
-2307 2138 0
-2307 86 0
2307 -2138 -86 0
-2308 2140 0
-2308 134 0
2308 -2140 -134 0
-2309 2142 0
-2309 134 0
2309 -2142 -134 0
-2310 2144 0
-2310 182 0
2310 -2144 -182 0
-2311 2294 2295 0
-2311 -2294 -2295 0
2311 -2294 2295 0
2311 2294 -2295 0
-2312 2311 2296 0
-2312 -2311 -2296 0
2312 -2311 2296 0
2312 2311 -2296 0
-2313 2312 2297 0
-2313 -2312 -2297 0
2313 -2312 2297 0
2313 2312 -2297 0
-2314 2313 2298 0
-2314 -2313 -2298 0
2314 -2313 2298 0
2314 2313 -2298 0
-2315 2314 2299 0
-2315 -2314 -2299 0
2315 -2314 2299 0
2315 2314 -2299 0
-2316 2315 2300 0
-2316 -2315 -2300 0
2316 -2315 2300 0
2316 2315 -2300 0
-2317 2316 2301 0
-2317 -2316 -2301 0
2317 -2316 2301 0
2317 2316 -2301 0
-2318 2317 2302 0
-2318 -2317 -2302 0
2318 -2317 2302 0
2318 2317 -2302 0
-2319 2318 2303 0
-2319 -2318 -2303 0
2319 -2318 2303 0
2319 2318 -2303 0
-2320 2319 2304 0
-2320 -2319 -2304 0
2320 -2319 2304 0
2320 2319 -2304 0
-2321 2320 2305 0
-2321 -2320 -2305 0
2321 -2320 2305 0
2321 2320 -2305 0
-2322 2321 2306 0
-2322 -2321 -2306 0
2322 -2321 2306 0
2322 2321 -2306 0
-2323 2322 2307 0
-2323 -2322 -2307 0
2323 -2322 2307 0
2323 2322 -2307 0
-2324 2323 2308 0
-2324 -2323 -2308 0
2324 -2323 2308 0
2324 2323 -2308 0
-2325 2324 2309 0
-2325 -2324 -2309 0
2325 -2324 2309 0
2325 2324 -2309 0
-2326 2325 2310 0
-2326 -2325 -2310 0
2326 -2325 2310 0
2326 2325 -2310 0
-2326 0
-2327 2112 0
-2327 39 0
2327 -2112 -39 0
-2328 2114 0
-2328 47 0
2328 -2114 -47 0
-2329 2116 0
-2329 40 0
2329 -2116 -40 0
-2330 2118 0
-2330 46 0
2330 -2118 -46 0
-2331 2120 0
-2331 44 0
2331 -2120 -44 0
-2332 2122 0
-2332 42 0
2332 -2122 -42 0
-2333 2124 0
-2333 42 0
2333 -2124 -42 0
-2334 2126 0
-2334 44 0
2334 -2126 -44 0
-2335 2128 0
-2335 46 0
2335 -2128 -46 0
-2336 2130 0
-2336 40 0
2336 -2130 -40 0
-2337 2132 0
-2337 47 0
2337 -2132 -47 0
-2338 2134 0
-2338 39 0
2338 -2134 -39 0
-2339 2136 0
-2339 87 0
2339 -2136 -87 0
-2340 2138 0
-2340 90 0
2340 -2138 -90 0
-2341 2140 0
-2341 135 0
2341 -2140 -135 0
-2342 2142 0
-2342 138 0
2342 -2142 -138 0
-2343 2144 0
-2343 183 0
2343 -2144 -183 0
-2344 2327 2328 0
-2344 -2327 -2328 0
2344 -2327 2328 0
2344 2327 -2328 0
-2345 2344 2329 0
-2345 -2344 -2329 0
2345 -2344 2329 0
2345 2344 -2329 0
-2346 2345 2330 0
-2346 -2345 -2330 0
2346 -2345 2330 0
2346 2345 -2330 0
-2347 2346 2331 0
-2347 -2346 -2331 0
2347 -2346 2331 0
2347 2346 -2331 0
-2348 2347 2332 0
-2348 -2347 -2332 0
2348 -2347 2332 0
2348 2347 -2332 0
-2349 2348 2333 0
-2349 -2348 -2333 0
2349 -2348 2333 0
2349 2348 -2333 0
-2350 2349 2334 0
-2350 -2349 -2334 0
2350 -2349 2334 0
2350 2349 -2334 0
-2351 2350 2335 0
-2351 -2350 -2335 0
2351 -2350 2335 0
2351 2350 -2335 0
-2352 2351 2336 0
-2352 -2351 -2336 0
2352 -2351 2336 0
2352 2351 -2336 0
-2353 2352 2337 0
-2353 -2352 -2337 0
2353 -2352 2337 0
2353 2352 -2337 0
-2354 2353 2338 0
-2354 -2353 -2338 0
2354 -2353 2338 0
2354 2353 -2338 0
-2355 2354 2339 0
-2355 -2354 -2339 0
2355 -2354 2339 0
2355 2354 -2339 0
-2356 2355 2340 0
-2356 -2355 -2340 0
2356 -2355 2340 0
2356 2355 -2340 0
-2357 2356 2341 0
-2357 -2356 -2341 0
2357 -2356 2341 0
2357 2356 -2341 0
-2358 2357 2342 0
-2358 -2357 -2342 0
2358 -2357 2342 0
2358 2357 -2342 0
-2359 2358 2343 0
-2359 -2358 -2343 0
2359 -2358 2343 0
2359 2358 -2343 0
-2359 0
-2360 2112 0
-2360 40 0
2360 -2112 -40 0
-2361 2114 0
-2361 46 0
2361 -2114 -46 0
-2362 2116 0
-2362 39 0
2362 -2116 -39 0
-2363 2118 0
-2363 47 0
2363 -2118 -47 0
-2364 2120 0
-2364 42 0
2364 -2120 -42 0
-2365 2122 0
-2365 44 0
2365 -2122 -44 0
-2366 2124 0
-2366 46 0
2366 -2124 -46 0
-2367 2126 0
-2367 40 0
2367 -2126 -40 0
-2368 2128 0
-2368 42 0
2368 -2128 -42 0
-2369 2130 0
-2369 44 0
2369 -2130 -44 0
-2370 2132 0
-2370 39 0
2370 -2132 -39 0
-2371 2134 0
-2371 47 0
2371 -2134 -47 0
-2372 2136 0
-2372 88 0
2372 -2136 -88 0
-2373 2138 0
-2373 94 0
2373 -2138 -94 0
-2374 2140 0
-2374 136 0
2374 -2140 -136 0
-2375 2142 0
-2375 142 0
2375 -2142 -142 0
-2376 2144 0
-2376 184 0
2376 -2144 -184 0
-2377 2360 2361 0
-2377 -2360 -2361 0
2377 -2360 2361 0
2377 2360 -2361 0
-2378 2377 2362 0
-2378 -2377 -2362 0
2378 -2377 2362 0
2378 2377 -2362 0
-2379 2378 2363 0
-2379 -2378 -2363 0
2379 -2378 2363 0
2379 2378 -2363 0
-2380 2379 2364 0
-2380 -2379 -2364 0
2380 -2379 2364 0
2380 2379 -2364 0
-2381 2380 2365 0
-2381 -2380 -2365 0
2381 -2380 2365 0
2381 2380 -2365 0
-2382 2381 2366 0
-2382 -2381 -2366 0
2382 -2381 2366 0
2382 2381 -2366 0
-2383 2382 2367 0
-2383 -2382 -2367 0
2383 -2382 2367 0
2383 2382 -2367 0
-2384 2383 2368 0
-2384 -2383 -2368 0
2384 -2383 2368 0
2384 2383 -2368 0
-2385 2384 2369 0
-2385 -2384 -2369 0
2385 -2384 2369 0
2385 2384 -2369 0
-2386 2385 2370 0
-2386 -2385 -2370 0
2386 -2385 2370 0
2386 2385 -2370 0
-2387 2386 2371 0
-2387 -2386 -2371 0
2387 -2386 2371 0
2387 2386 -2371 0
-2388 2387 2372 0
-2388 -2387 -2372 0
2388 -2387 2372 0
2388 2387 -2372 0
-2389 2388 2373 0
-2389 -2388 -2373 0
2389 -2388 2373 0
2389 2388 -2373 0
-2390 2389 2374 0
-2390 -2389 -2374 0
2390 -2389 2374 0
2390 2389 -2374 0
-2391 2390 2375 0
-2391 -2390 -2375 0
2391 -2390 2375 0
2391 2390 -2375 0
-2392 2391 2376 0
-2392 -2391 -2376 0
2392 -2391 2376 0
2392 2391 -2376 0
-2392 0
-2393 2112 0
-2393 41 0
2393 -2112 -41 0
-2394 2114 0
-2394 41 0
2394 -2114 -41 0
-2395 2116 0
-2395 45 0
2395 -2116 -45 0
-2396 2118 0
-2396 37 0
2396 -2118 -37 0
-2397 2120 0
-2397 45 0
2397 -2120 -45 0
-2398 2122 0
-2398 37 0
2398 -2122 -37 0
-2399 2124 0
-2399 35 0
2399 -2124 -35 0
-2400 2126 0
-2400 35 0
2400 -2126 -35 0
-2401 2128 0
-2401 36 0
2401 -2128 -36 0
-2402 2130 0
-2402 34 0
2402 -2130 -34 0
-2403 2132 0
-2403 36 0
2403 -2132 -36 0
-2404 2134 0
-2404 34 0
2404 -2134 -34 0
-2405 2136 0
-2405 89 0
2405 -2136 -89 0
-2406 2138 0
-2406 83 0
2406 -2138 -83 0
-2407 2140 0
-2407 137 0
2407 -2140 -137 0
-2408 2142 0
-2408 131 0
2408 -2142 -131 0
-2409 2144 0
-2409 185 0
2409 -2144 -185 0
-2410 2393 2394 0
-2410 -2393 -2394 0
2410 -2393 2394 0
2410 2393 -2394 0
-2411 2410 2395 0
-2411 -2410 -2395 0
2411 -2410 2395 0
2411 2410 -2395 0
-2412 2411 2396 0
-2412 -2411 -2396 0
2412 -2411 2396 0
2412 2411 -2396 0
-2413 2412 2397 0
-2413 -2412 -2397 0
2413 -2412 2397 0
2413 2412 -2397 0
-2414 2413 2398 0
-2414 -2413 -2398 0
2414 -2413 2398 0
2414 2413 -2398 0
-2415 2414 2399 0
-2415 -2414 -2399 0
2415 -2414 2399 0
2415 2414 -2399 0
-2416 2415 2400 0
-2416 -2415 -2400 0
2416 -2415 2400 0
2416 2415 -2400 0
-2417 2416 2401 0
-2417 -2416 -2401 0
2417 -2416 2401 0
2417 2416 -2401 0
-2418 2417 2402 0
-2418 -2417 -2402 0
2418 -2417 2402 0
2418 2417 -2402 0
-2419 2418 2403 0
-2419 -2418 -2403 0
2419 -2418 2403 0
2419 2418 -2403 0
-2420 2419 2404 0
-2420 -2419 -2404 0
2420 -2419 2404 0
2420 2419 -2404 0
-2421 2420 2405 0
-2421 -2420 -2405 0
2421 -2420 2405 0
2421 2420 -2405 0
-2422 2421 2406 0
-2422 -2421 -2406 0
2422 -2421 2406 0
2422 2421 -2406 0
-2423 2422 2407 0
-2423 -2422 -2407 0
2423 -2422 2407 0
2423 2422 -2407 0
-2424 2423 2408 0
-2424 -2423 -2408 0
2424 -2423 2408 0
2424 2423 -2408 0
-2425 2424 2409 0
-2425 -2424 -2409 0
2425 -2424 2409 0
2425 2424 -2409 0
-2425 0
-2426 2112 0
-2426 42 0
2426 -2112 -42 0
-2427 2114 0
-2427 44 0
2427 -2114 -44 0
-2428 2116 0
-2428 46 0
2428 -2116 -46 0
-2429 2118 0
-2429 40 0
2429 -2118 -40 0
-2430 2120 0
-2430 47 0
2430 -2120 -47 0
-2431 2122 0
-2431 39 0
2431 -2122 -39 0
-2432 2124 0
-2432 39 0
2432 -2124 -39 0
-2433 2126 0
-2433 47 0
2433 -2126 -47 0
-2434 2128 0
-2434 40 0
2434 -2128 -40 0
-2435 2130 0
-2435 46 0
2435 -2130 -46 0
-2436 2132 0
-2436 44 0
2436 -2132 -44 0
-2437 2134 0
-2437 42 0
2437 -2134 -42 0
-2438 2136 0
-2438 90 0
2438 -2136 -90 0
-2439 2138 0
-2439 87 0
2439 -2138 -87 0
-2440 2140 0
-2440 138 0
2440 -2140 -138 0
-2441 2142 0
-2441 135 0
2441 -2142 -135 0
-2442 2144 0
-2442 186 0
2442 -2144 -186 0
-2443 2426 2427 0
-2443 -2426 -2427 0
2443 -2426 2427 0
2443 2426 -2427 0
-2444 2443 2428 0
-2444 -2443 -2428 0
2444 -2443 2428 0
2444 2443 -2428 0
-2445 2444 2429 0
-2445 -2444 -2429 0
2445 -2444 2429 0
2445 2444 -2429 0
-2446 2445 2430 0
-2446 -2445 -2430 0
2446 -2445 2430 0
2446 2445 -2430 0
-2447 2446 2431 0
-2447 -2446 -2431 0
2447 -2446 2431 0
2447 2446 -2431 0
-2448 2447 2432 0
-2448 -2447 -2432 0
2448 -2447 2432 0
2448 2447 -2432 0
-2449 2448 2433 0
-2449 -2448 -2433 0
2449 -2448 2433 0
2449 2448 -2433 0
-2450 2449 2434 0
-2450 -2449 -2434 0
2450 -2449 2434 0
2450 2449 -2434 0
-2451 2450 2435 0
-2451 -2450 -2435 0
2451 -2450 2435 0
2451 2450 -2435 0
-2452 2451 2436 0
-2452 -2451 -2436 0
2452 -2451 2436 0
2452 2451 -2436 0
-2453 2452 2437 0
-2453 -2452 -2437 0
2453 -2452 2437 0
2453 2452 -2437 0
-2454 2453 2438 0
-2454 -2453 -2438 0
2454 -2453 2438 0
2454 2453 -2438 0
-2455 2454 2439 0
-2455 -2454 -2439 0
2455 -2454 2439 0
2455 2454 -2439 0
-2456 2455 2440 0
-2456 -2455 -2440 0
2456 -2455 2440 0
2456 2455 -2440 0
-2457 2456 2441 0
-2457 -2456 -2441 0
2457 -2456 2441 0
2457 2456 -2441 0
-2458 2457 2442 0
-2458 -2457 -2442 0
2458 -2457 2442 0
2458 2457 -2442 0
-2458 0
-2459 2112 0
-2459 43 0
2459 -2112 -43 0
-2460 2114 0
-2460 43 0
2460 -2114 -43 0
-2461 2116 0
-2461 48 0
2461 -2116 -48 0
-2462 2118 0
-2462 38 0
2462 -2118 -38 0
-2463 2120 0
-2463 48 0
2463 -2120 -48 0
-2464 2122 0
-2464 38 0
2464 -2122 -38 0
-2465 2124 0
-2465 43 0
2465 -2124 -43 0
-2466 2126 0
-2466 43 0
2466 -2126 -43 0
-2467 2128 0
-2467 48 0
2467 -2128 -48 0
-2468 2130 0
-2468 38 0
2468 -2130 -38 0
-2469 2132 0
-2469 48 0
2469 -2132 -48 0
-2470 2134 0
-2470 38 0
2470 -2134 -38 0
-2471 2136 0
-2471 91 0
2471 -2136 -91 0
-2472 2138 0
-2472 91 0
2472 -2138 -91 0
-2473 2140 0
-2473 139 0
2473 -2140 -139 0
-2474 2142 0
-2474 139 0
2474 -2142 -139 0
-2475 2144 0
-2475 187 0
2475 -2144 -187 0
-2476 2459 2460 0
-2476 -2459 -2460 0
2476 -2459 2460 0
2476 2459 -2460 0
-2477 2476 2461 0
-2477 -2476 -2461 0
2477 -2476 2461 0
2477 2476 -2461 0
-2478 2477 2462 0
-2478 -2477 -2462 0
2478 -2477 2462 0
2478 2477 -2462 0
-2479 2478 2463 0
-2479 -2478 -2463 0
2479 -2478 2463 0
2479 2478 -2463 0
-2480 2479 2464 0
-2480 -2479 -2464 0
2480 -2479 2464 0
2480 2479 -2464 0
-2481 2480 2465 0
-2481 -2480 -2465 0
2481 -2480 2465 0
2481 2480 -2465 0
-2482 2481 2466 0
-2482 -2481 -2466 0
2482 -2481 2466 0
2482 2481 -2466 0
-2483 2482 2467 0
-2483 -2482 -2467 0
2483 -2482 2467 0
2483 2482 -2467 0
-2484 2483 2468 0
-2484 -2483 -2468 0
2484 -2483 2468 0
2484 2483 -2468 0
-2485 2484 2469 0
-2485 -2484 -2469 0
2485 -2484 2469 0
2485 2484 -2469 0
-2486 2485 2470 0
-2486 -2485 -2470 0
2486 -2485 2470 0
2486 2485 -2470 0
-2487 2486 2471 0
-2487 -2486 -2471 0
2487 -2486 2471 0
2487 2486 -2471 0
-2488 2487 2472 0
-2488 -2487 -2472 0
2488 -2487 2472 0
2488 2487 -2472 0
-2489 2488 2473 0
-2489 -2488 -2473 0
2489 -2488 2473 0
2489 2488 -2473 0
-2490 2489 2474 0
-2490 -2489 -2474 0
2490 -2489 2474 0
2490 2489 -2474 0
-2491 2490 2475 0
-2491 -2490 -2475 0
2491 -2490 2475 0
2491 2490 -2475 0
-2491 0
-2492 2112 0
-2492 44 0
2492 -2112 -44 0
-2493 2114 0
-2493 42 0
2493 -2114 -42 0
-2494 2116 0
-2494 47 0
2494 -2116 -47 0
-2495 2118 0
-2495 39 0
2495 -2118 -39 0
-2496 2120 0
-2496 46 0
2496 -2120 -46 0
-2497 2122 0
-2497 40 0
2497 -2122 -40 0
-2498 2124 0
-2498 47 0
2498 -2124 -47 0
-2499 2126 0
-2499 39 0
2499 -2126 -39 0
-2500 2128 0
-2500 44 0
2500 -2128 -44 0
-2501 2130 0
-2501 42 0
2501 -2130 -42 0
-2502 2132 0
-2502 40 0
2502 -2132 -40 0
-2503 2134 0
-2503 46 0
2503 -2134 -46 0
-2504 2136 0
-2504 92 0
2504 -2136 -92 0
-2505 2138 0
-2505 95 0
2505 -2138 -95 0
-2506 2140 0
-2506 140 0
2506 -2140 -140 0
-2507 2142 0
-2507 143 0
2507 -2142 -143 0
-2508 2144 0
-2508 188 0
2508 -2144 -188 0
-2509 2492 2493 0
-2509 -2492 -2493 0
2509 -2492 2493 0
2509 2492 -2493 0
-2510 2509 2494 0
-2510 -2509 -2494 0
2510 -2509 2494 0
2510 2509 -2494 0
-2511 2510 2495 0
-2511 -2510 -2495 0
2511 -2510 2495 0
2511 2510 -2495 0
-2512 2511 2496 0
-2512 -2511 -2496 0
2512 -2511 2496 0
2512 2511 -2496 0
-2513 2512 2497 0
-2513 -2512 -2497 0
2513 -2512 2497 0
2513 2512 -2497 0
-2514 2513 2498 0
-2514 -2513 -2498 0
2514 -2513 2498 0
2514 2513 -2498 0
-2515 2514 2499 0
-2515 -2514 -2499 0
2515 -2514 2499 0
2515 2514 -2499 0
-2516 2515 2500 0
-2516 -2515 -2500 0
2516 -2515 2500 0
2516 2515 -2500 0
-2517 2516 2501 0
-2517 -2516 -2501 0
2517 -2516 2501 0
2517 2516 -2501 0
-2518 2517 2502 0
-2518 -2517 -2502 0
2518 -2517 2502 0
2518 2517 -2502 0
-2519 2518 2503 0
-2519 -2518 -2503 0
2519 -2518 2503 0
2519 2518 -2503 0
-2520 2519 2504 0
-2520 -2519 -2504 0
2520 -2519 2504 0
2520 2519 -2504 0
-2521 2520 2505 0
-2521 -2520 -2505 0
2521 -2520 2505 0
2521 2520 -2505 0
-2522 2521 2506 0
-2522 -2521 -2506 0
2522 -2521 2506 0
2522 2521 -2506 0
-2523 2522 2507 0
-2523 -2522 -2507 0
2523 -2522 2507 0
2523 2522 -2507 0
-2524 2523 2508 0
-2524 -2523 -2508 0
2524 -2523 2508 0
2524 2523 -2508 0
-2524 0
-2525 2112 0
-2525 45 0
2525 -2112 -45 0
-2526 2114 0
-2526 37 0
2526 -2114 -37 0
-2527 2116 0
-2527 41 0
2527 -2116 -41 0
-2528 2118 0
-2528 41 0
2528 -2118 -41 0
-2529 2120 0
-2529 37 0
2529 -2120 -37 0
-2530 2122 0
-2530 45 0
2530 -2122 -45 0
-2531 2124 0
-2531 36 0
2531 -2124 -36 0
-2532 2126 0
-2532 34 0
2532 -2126 -34 0
-2533 2128 0
-2533 35 0
2533 -2128 -35 0
-2534 2130 0
-2534 35 0
2534 -2130 -35 0
-2535 2132 0
-2535 34 0
2535 -2132 -34 0
-2536 2134 0
-2536 36 0
2536 -2134 -36 0
-2537 2136 0
-2537 93 0
2537 -2136 -93 0
-2538 2138 0
-2538 84 0
2538 -2138 -84 0
-2539 2140 0
-2539 141 0
2539 -2140 -141 0
-2540 2142 0
-2540 132 0
2540 -2142 -132 0
-2541 2144 0
-2541 189 0
2541 -2144 -189 0
-2542 2525 2526 0
-2542 -2525 -2526 0
2542 -2525 2526 0
2542 2525 -2526 0
-2543 2542 2527 0
-2543 -2542 -2527 0
2543 -2542 2527 0
2543 2542 -2527 0
-2544 2543 2528 0
-2544 -2543 -2528 0
2544 -2543 2528 0
2544 2543 -2528 0
-2545 2544 2529 0
-2545 -2544 -2529 0
2545 -2544 2529 0
2545 2544 -2529 0
-2546 2545 2530 0
-2546 -2545 -2530 0
2546 -2545 2530 0
2546 2545 -2530 0
-2547 2546 2531 0
-2547 -2546 -2531 0
2547 -2546 2531 0
2547 2546 -2531 0
-2548 2547 2532 0
-2548 -2547 -2532 0
2548 -2547 2532 0
2548 2547 -2532 0
-2549 2548 2533 0
-2549 -2548 -2533 0
2549 -2548 2533 0
2549 2548 -2533 0
-2550 2549 2534 0
-2550 -2549 -2534 0
2550 -2549 2534 0
2550 2549 -2534 0
-2551 2550 2535 0
-2551 -2550 -2535 0
2551 -2550 2535 0
2551 2550 -2535 0
-2552 2551 2536 0
-2552 -2551 -2536 0
2552 -2551 2536 0
2552 2551 -2536 0
-2553 2552 2537 0
-2553 -2552 -2537 0
2553 -2552 2537 0
2553 2552 -2537 0
-2554 2553 2538 0
-2554 -2553 -2538 0
2554 -2553 2538 0
2554 2553 -2538 0
-2555 2554 2539 0
-2555 -2554 -2539 0
2555 -2554 2539 0
2555 2554 -2539 0
-2556 2555 2540 0
-2556 -2555 -2540 0
2556 -2555 2540 0
2556 2555 -2540 0
-2557 2556 2541 0
-2557 -2556 -2541 0
2557 -2556 2541 0
2557 2556 -2541 0
-2557 0
-2558 2112 0
-2558 46 0
2558 -2112 -46 0
-2559 2114 0
-2559 40 0
2559 -2114 -40 0
-2560 2116 0
-2560 42 0
2560 -2116 -42 0
-2561 2118 0
-2561 44 0
2561 -2118 -44 0
-2562 2120 0
-2562 39 0
2562 -2120 -39 0
-2563 2122 0
-2563 47 0
2563 -2122 -47 0
-2564 2124 0
-2564 40 0
2564 -2124 -40 0
-2565 2126 0
-2565 46 0
2565 -2126 -46 0
-2566 2128 0
-2566 39 0
2566 -2128 -39 0
-2567 2130 0
-2567 47 0
2567 -2130 -47 0
-2568 2132 0
-2568 42 0
2568 -2132 -42 0
-2569 2134 0
-2569 44 0
2569 -2134 -44 0
-2570 2136 0
-2570 94 0
2570 -2136 -94 0
-2571 2138 0
-2571 88 0
2571 -2138 -88 0
-2572 2140 0
-2572 142 0
2572 -2140 -142 0
-2573 2142 0
-2573 136 0
2573 -2142 -136 0
-2574 2144 0
-2574 190 0
2574 -2144 -190 0
-2575 2558 2559 0
-2575 -2558 -2559 0
2575 -2558 2559 0
2575 2558 -2559 0
-2576 2575 2560 0
-2576 -2575 -2560 0
2576 -2575 2560 0
2576 2575 -2560 0
-2577 2576 2561 0
-2577 -2576 -2561 0
2577 -2576 2561 0
2577 2576 -2561 0
-2578 2577 2562 0
-2578 -2577 -2562 0
2578 -2577 2562 0
2578 2577 -2562 0
-2579 2578 2563 0
-2579 -2578 -2563 0
2579 -2578 2563 0
2579 2578 -2563 0
-2580 2579 2564 0
-2580 -2579 -2564 0
2580 -2579 2564 0
2580 2579 -2564 0
-2581 2580 2565 0
-2581 -2580 -2565 0
2581 -2580 2565 0
2581 2580 -2565 0
-2582 2581 2566 0
-2582 -2581 -2566 0
2582 -2581 2566 0
2582 2581 -2566 0
-2583 2582 2567 0
-2583 -2582 -2567 0
2583 -2582 2567 0
2583 2582 -2567 0
-2584 2583 2568 0
-2584 -2583 -2568 0
2584 -2583 2568 0
2584 2583 -2568 0
-2585 2584 2569 0
-2585 -2584 -2569 0
2585 -2584 2569 0
2585 2584 -2569 0
-2586 2585 2570 0
-2586 -2585 -2570 0
2586 -2585 2570 0
2586 2585 -2570 0
-2587 2586 2571 0
-2587 -2586 -2571 0
2587 -2586 2571 0
2587 2586 -2571 0
-2588 2587 2572 0
-2588 -2587 -2572 0
2588 -2587 2572 0
2588 2587 -2572 0
-2589 2588 2573 0
-2589 -2588 -2573 0
2589 -2588 2573 0
2589 2588 -2573 0
-2590 2589 2574 0
-2590 -2589 -2574 0
2590 -2589 2574 0
2590 2589 -2574 0
-2590 0
-2591 2112 0
-2591 47 0
2591 -2112 -47 0
-2592 2114 0
-2592 39 0
2592 -2114 -39 0
-2593 2116 0
-2593 44 0
2593 -2116 -44 0
-2594 2118 0
-2594 42 0
2594 -2118 -42 0
-2595 2120 0
-2595 40 0
2595 -2120 -40 0
-2596 2122 0
-2596 46 0
2596 -2122 -46 0
-2597 2124 0
-2597 44 0
2597 -2124 -44 0
-2598 2126 0
-2598 42 0
2598 -2126 -42 0
-2599 2128 0
-2599 47 0
2599 -2128 -47 0
-2600 2130 0
-2600 39 0
2600 -2130 -39 0
-2601 2132 0
-2601 46 0
2601 -2132 -46 0
-2602 2134 0
-2602 40 0
2602 -2134 -40 0
-2603 2136 0
-2603 95 0
2603 -2136 -95 0
-2604 2138 0
-2604 92 0
2604 -2138 -92 0
-2605 2140 0
-2605 143 0
2605 -2140 -143 0
-2606 2142 0
-2606 140 0
2606 -2142 -140 0
-2607 2144 0
-2607 191 0
2607 -2144 -191 0
-2608 2591 2592 0
-2608 -2591 -2592 0
2608 -2591 2592 0
2608 2591 -2592 0
-2609 2608 2593 0
-2609 -2608 -2593 0
2609 -2608 2593 0
2609 2608 -2593 0
-2610 2609 2594 0
-2610 -2609 -2594 0
2610 -2609 2594 0
2610 2609 -2594 0
-2611 2610 2595 0
-2611 -2610 -2595 0
2611 -2610 2595 0
2611 2610 -2595 0
-2612 2611 2596 0
-2612 -2611 -2596 0
2612 -2611 2596 0
2612 2611 -2596 0
-2613 2612 2597 0
-2613 -2612 -2597 0
2613 -2612 2597 0
2613 2612 -2597 0
-2614 2613 2598 0
-2614 -2613 -2598 0
2614 -2613 2598 0
2614 2613 -2598 0
-2615 2614 2599 0
-2615 -2614 -2599 0
2615 -2614 2599 0
2615 2614 -2599 0
-2616 2615 2600 0
-2616 -2615 -2600 0
2616 -2615 2600 0
2616 2615 -2600 0
-2617 2616 2601 0
-2617 -2616 -2601 0
2617 -2616 2601 0
2617 2616 -2601 0
-2618 2617 2602 0
-2618 -2617 -2602 0
2618 -2617 2602 0
2618 2617 -2602 0
-2619 2618 2603 0
-2619 -2618 -2603 0
2619 -2618 2603 0
2619 2618 -2603 0
-2620 2619 2604 0
-2620 -2619 -2604 0
2620 -2619 2604 0
2620 2619 -2604 0
-2621 2620 2605 0
-2621 -2620 -2605 0
2621 -2620 2605 0
2621 2620 -2605 0
-2622 2621 2606 0
-2622 -2621 -2606 0
2622 -2621 2606 0
2622 2621 -2606 0
-2623 2622 2607 0
-2623 -2622 -2607 0
2623 -2622 2607 0
2623 2622 -2607 0
-2623 0
-2624 2112 0
-2624 48 0
2624 -2112 -48 0
-2625 2114 0
-2625 38 0
2625 -2114 -38 0
-2626 2116 0
-2626 43 0
2626 -2116 -43 0
-2627 2118 0
-2627 43 0
2627 -2118 -43 0
-2628 2120 0
-2628 38 0
2628 -2120 -38 0
-2629 2122 0
-2629 48 0
2629 -2122 -48 0
-2630 2124 0
-2630 48 0
2630 -2124 -48 0
-2631 2126 0
-2631 38 0
2631 -2126 -38 0
-2632 2128 0
-2632 43 0
2632 -2128 -43 0
-2633 2130 0
-2633 43 0
2633 -2130 -43 0
-2634 2132 0
-2634 38 0
2634 -2132 -38 0
-2635 2134 0
-2635 48 0
2635 -2134 -48 0
-2636 2136 0
-2636 96 0
2636 -2136 -96 0
-2637 2138 0
-2637 96 0
2637 -2138 -96 0
-2638 2140 0
-2638 144 0
2638 -2140 -144 0
-2639 2142 0
-2639 144 0
2639 -2142 -144 0
-2640 2144 0
-2640 192 0
2640 -2144 -192 0
-2641 2624 2625 0
-2641 -2624 -2625 0
2641 -2624 2625 0
2641 2624 -2625 0
-2642 2641 2626 0
-2642 -2641 -2626 0
2642 -2641 2626 0
2642 2641 -2626 0
-2643 2642 2627 0
-2643 -2642 -2627 0
2643 -2642 2627 0
2643 2642 -2627 0
-2644 2643 2628 0
-2644 -2643 -2628 0
2644 -2643 2628 0
2644 2643 -2628 0
-2645 2644 2629 0
-2645 -2644 -2629 0
2645 -2644 2629 0
2645 2644 -2629 0
-2646 2645 2630 0
-2646 -2645 -2630 0
2646 -2645 2630 0
2646 2645 -2630 0
-2647 2646 2631 0
-2647 -2646 -2631 0
2647 -2646 2631 0
2647 2646 -2631 0
-2648 2647 2632 0
-2648 -2647 -2632 0
2648 -2647 2632 0
2648 2647 -2632 0
-2649 2648 2633 0
-2649 -2648 -2633 0
2649 -2648 2633 0
2649 2648 -2633 0
-2650 2649 2634 0
-2650 -2649 -2634 0
2650 -2649 2634 0
2650 2649 -2634 0
-2651 2650 2635 0
-2651 -2650 -2635 0
2651 -2650 2635 0
2651 2650 -2635 0
-2652 2651 2636 0
-2652 -2651 -2636 0
2652 -2651 2636 0
2652 2651 -2636 0
-2653 2652 2637 0
-2653 -2652 -2637 0
2653 -2652 2637 0
2653 2652 -2637 0
-2654 2653 2638 0
-2654 -2653 -2638 0
2654 -2653 2638 0
2654 2653 -2638 0
-2655 2654 2639 0
-2655 -2654 -2639 0
2655 -2654 2639 0
2655 2654 -2639 0
-2656 2655 2640 0
-2656 -2655 -2640 0
2656 -2655 2640 0
2656 2655 -2640 0
-2656 0
-2657 1 0
-2657 24 0
2657 -1 -24 0
-2658 2657 0
-2658 33 0
2658 -2657 -33 0
-2659 1 0
-2659 26 0
2659 -1 -26 0
-2660 2659 0
-2660 33 0
2660 -2659 -33 0
-2661 2 0
-2661 19 0
2661 -2 -19 0
-2662 2661 0
-2662 33 0
2662 -2661 -33 0
-2663 3 0
-2663 19 0
2663 -3 -19 0
-2664 2663 0
-2664 33 0
2664 -2663 -33 0
-2665 2 0
-2665 26 0
2665 -2 -26 0
-2666 2665 0
-2666 33 0
2666 -2665 -33 0
-2667 3 0
-2667 24 0
2667 -3 -24 0
-2668 2667 0
-2668 33 0
2668 -2667 -33 0
-2669 17 0
-2669 14 0
2669 -17 -14 0
-2670 2669 0
-2670 33 0
2670 -2669 -33 0
-2671 17 0
-2671 7 0
2671 -17 -7 0
-2672 2671 0
-2672 33 0
2672 -2671 -33 0
-2673 21 0
-2673 9 0
2673 -21 -9 0
-2674 2673 0
-2674 33 0
2674 -2673 -33 0
-2675 25 0
-2675 9 0
2675 -25 -9 0
-2676 2675 0
-2676 33 0
2676 -2675 -33 0
-2677 21 0
-2677 7 0
2677 -21 -7 0
-2678 2677 0
-2678 33 0
2678 -2677 -33 0
-2679 25 0
-2679 14 0
2679 -25 -14 0
-2680 2679 0
-2680 33 0
2680 -2679 -33 0
-2681 49 0
-2681 72 0
2681 -49 -72 0
-2682 2681 0
-2682 81 0
2682 -2681 -81 0
-2683 65 0
-2683 62 0
2683 -65 -62 0
-2684 2683 0
-2684 81 0
2684 -2683 -81 0
-2685 97 0
-2685 120 0
2685 -97 -120 0
-2686 2685 0
-2686 129 0
2686 -2685 -129 0
-2687 113 0
-2687 110 0
2687 -113 -110 0
-2688 2687 0
-2688 129 0
2688 -2687 -129 0
-2689 145 0
-2689 168 0
2689 -145 -168 0
-2690 2689 0
-2690 177 0
2690 -2689 -177 0
-2691 2658 2660 0
-2691 -2658 -2660 0
2691 -2658 2660 0
2691 2658 -2660 0
-2692 2691 2662 0
-2692 -2691 -2662 0
2692 -2691 2662 0
2692 2691 -2662 0
-2693 2692 2664 0
-2693 -2692 -2664 0
2693 -2692 2664 0
2693 2692 -2664 0
-2694 2693 2666 0
-2694 -2693 -2666 0
2694 -2693 2666 0
2694 2693 -2666 0
-2695 2694 2668 0
-2695 -2694 -2668 0
2695 -2694 2668 0
2695 2694 -2668 0
-2696 2695 2670 0
-2696 -2695 -2670 0
2696 -2695 2670 0
2696 2695 -2670 0
-2697 2696 2672 0
-2697 -2696 -2672 0
2697 -2696 2672 0
2697 2696 -2672 0
-2698 2697 2674 0
-2698 -2697 -2674 0
2698 -2697 2674 0
2698 2697 -2674 0
-2699 2698 2676 0
-2699 -2698 -2676 0
2699 -2698 2676 0
2699 2698 -2676 0
-2700 2699 2678 0
-2700 -2699 -2678 0
2700 -2699 2678 0
2700 2699 -2678 0
-2701 2700 2680 0
-2701 -2700 -2680 0
2701 -2700 2680 0
2701 2700 -2680 0
-2702 2701 2682 0
-2702 -2701 -2682 0
2702 -2701 2682 0
2702 2701 -2682 0
-2703 2702 2684 0
-2703 -2702 -2684 0
2703 -2702 2684 0
2703 2702 -2684 0
-2704 2703 2686 0
-2704 -2703 -2686 0
2704 -2703 2686 0
2704 2703 -2686 0
-2705 2704 2688 0
-2705 -2704 -2688 0
2705 -2704 2688 0
2705 2704 -2688 0
-2706 2705 2690 0
-2706 -2705 -2690 0
2706 -2705 2690 0
2706 2705 -2690 0
-2706 0
-2707 2657 0
-2707 34 0
2707 -2657 -34 0
-2708 2659 0
-2708 36 0
2708 -2659 -36 0
-2709 2661 0
-2709 34 0
2709 -2661 -34 0
-2710 2663 0
-2710 36 0
2710 -2663 -36 0
-2711 2665 0
-2711 35 0
2711 -2665 -35 0
-2712 2667 0
-2712 35 0
2712 -2667 -35 0
-2713 2669 0
-2713 37 0
2713 -2669 -37 0
-2714 2671 0
-2714 45 0
2714 -2671 -45 0
-2715 2673 0
-2715 37 0
2715 -2673 -37 0
-2716 2675 0
-2716 45 0
2716 -2675 -45 0
-2717 2677 0
-2717 41 0
2717 -2677 -41 0
-2718 2679 0
-2718 41 0
2718 -2679 -41 0
-2719 2681 0
-2719 82 0
2719 -2681 -82 0
-2720 2683 0
-2720 85 0
2720 -2683 -85 0
-2721 2685 0
-2721 130 0
2721 -2685 -130 0
-2722 2687 0
-2722 133 0
2722 -2687 -133 0
-2723 2689 0
-2723 178 0
2723 -2689 -178 0
-2724 2707 2708 0
-2724 -2707 -2708 0
2724 -2707 2708 0
2724 2707 -2708 0
-2725 2724 2709 0
-2725 -2724 -2709 0
2725 -2724 2709 0
2725 2724 -2709 0
-2726 2725 2710 0
-2726 -2725 -2710 0
2726 -2725 2710 0
2726 2725 -2710 0
-2727 2726 2711 0
-2727 -2726 -2711 0
2727 -2726 2711 0
2727 2726 -2711 0
-2728 2727 2712 0
-2728 -2727 -2712 0
2728 -2727 2712 0
2728 2727 -2712 0
-2729 2728 2713 0
-2729 -2728 -2713 0
2729 -2728 2713 0
2729 2728 -2713 0
-2730 2729 2714 0
-2730 -2729 -2714 0
2730 -2729 2714 0
2730 2729 -2714 0
-2731 2730 2715 0
-2731 -2730 -2715 0
2731 -2730 2715 0
2731 2730 -2715 0
-2732 2731 2716 0
-2732 -2731 -2716 0
2732 -2731 2716 0
2732 2731 -2716 0
-2733 2732 2717 0
-2733 -2732 -2717 0
2733 -2732 2717 0
2733 2732 -2717 0
-2734 2733 2718 0
-2734 -2733 -2718 0
2734 -2733 2718 0
2734 2733 -2718 0
-2735 2734 2719 0
-2735 -2734 -2719 0
2735 -2734 2719 0
2735 2734 -2719 0
-2736 2735 2720 0
-2736 -2735 -2720 0
2736 -2735 2720 0
2736 2735 -2720 0
-2737 2736 2721 0
-2737 -2736 -2721 0
2737 -2736 2721 0
2737 2736 -2721 0
-2738 2737 2722 0
-2738 -2737 -2722 0
2738 -2737 2722 0
2738 2737 -2722 0
-2739 2738 2723 0
-2739 -2738 -2723 0
2739 -2738 2723 0
2739 2738 -2723 0
-2739 0
-2740 2657 0
-2740 35 0
2740 -2657 -35 0
-2741 2659 0
-2741 35 0
2741 -2659 -35 0
-2742 2661 0
-2742 36 0
2742 -2661 -36 0
-2743 2663 0
-2743 34 0
2743 -2663 -34 0
-2744 2665 0
-2744 36 0
2744 -2665 -36 0
-2745 2667 0
-2745 34 0
2745 -2667 -34 0
-2746 2669 0
-2746 41 0
2746 -2669 -41 0
-2747 2671 0
-2747 41 0
2747 -2671 -41 0
-2748 2673 0
-2748 45 0
2748 -2673 -45 0
-2749 2675 0
-2749 37 0
2749 -2675 -37 0
-2750 2677 0
-2750 45 0
2750 -2677 -45 0
-2751 2679 0
-2751 37 0
2751 -2679 -37 0
-2752 2681 0
-2752 83 0
2752 -2681 -83 0
-2753 2683 0
-2753 89 0
2753 -2683 -89 0
-2754 2685 0
-2754 131 0
2754 -2685 -131 0
-2755 2687 0
-2755 137 0
2755 -2687 -137 0
-2756 2689 0
-2756 179 0
2756 -2689 -179 0
-2757 2740 2741 0
-2757 -2740 -2741 0
2757 -2740 2741 0
2757 2740 -2741 0
-2758 2757 2742 0
-2758 -2757 -2742 0
2758 -2757 2742 0
2758 2757 -2742 0
-2759 2758 2743 0
-2759 -2758 -2743 0
2759 -2758 2743 0
2759 2758 -2743 0
-2760 2759 2744 0
-2760 -2759 -2744 0
2760 -2759 2744 0
2760 2759 -2744 0
-2761 2760 2745 0
-2761 -2760 -2745 0
2761 -2760 2745 0
2761 2760 -2745 0
-2762 2761 2746 0
-2762 -2761 -2746 0
2762 -2761 2746 0
2762 2761 -2746 0
-2763 2762 2747 0
-2763 -2762 -2747 0
2763 -2762 2747 0
2763 2762 -2747 0
-2764 2763 2748 0
-2764 -2763 -2748 0
2764 -2763 2748 0
2764 2763 -2748 0
-2765 2764 2749 0
-2765 -2764 -2749 0
2765 -2764 2749 0
2765 2764 -2749 0
-2766 2765 2750 0
-2766 -2765 -2750 0
2766 -2765 2750 0
2766 2765 -2750 0
-2767 2766 2751 0
-2767 -2766 -2751 0
2767 -2766 2751 0
2767 2766 -2751 0
-2768 2767 2752 0
-2768 -2767 -2752 0
2768 -2767 2752 0
2768 2767 -2752 0
-2769 2768 2753 0
-2769 -2768 -2753 0
2769 -2768 2753 0
2769 2768 -2753 0
-2770 2769 2754 0
-2770 -2769 -2754 0
2770 -2769 2754 0
2770 2769 -2754 0
-2771 2770 2755 0
-2771 -2770 -2755 0
2771 -2770 2755 0
2771 2770 -2755 0
-2772 2771 2756 0
-2772 -2771 -2756 0
2772 -2771 2756 0
2772 2771 -2756 0
2772 0
-2773 2657 0
-2773 36 0
2773 -2657 -36 0
-2774 2659 0
-2774 34 0
2774 -2659 -34 0
-2775 2661 0
-2775 35 0
2775 -2661 -35 0
-2776 2663 0
-2776 35 0
2776 -2663 -35 0
-2777 2665 0
-2777 34 0
2777 -2665 -34 0
-2778 2667 0
-2778 36 0
2778 -2667 -36 0
-2779 2669 0
-2779 45 0
2779 -2669 -45 0
-2780 2671 0
-2780 37 0
2780 -2671 -37 0
-2781 2673 0
-2781 41 0
2781 -2673 -41 0
-2782 2675 0
-2782 41 0
2782 -2675 -41 0
-2783 2677 0
-2783 37 0
2783 -2677 -37 0
-2784 2679 0
-2784 45 0
2784 -2679 -45 0
-2785 2681 0
-2785 84 0
2785 -2681 -84 0
-2786 2683 0
-2786 93 0
2786 -2683 -93 0
-2787 2685 0
-2787 132 0
2787 -2685 -132 0
-2788 2687 0
-2788 141 0
2788 -2687 -141 0
-2789 2689 0
-2789 180 0
2789 -2689 -180 0
-2790 2773 2774 0
-2790 -2773 -2774 0
2790 -2773 2774 0
2790 2773 -2774 0
-2791 2790 2775 0
-2791 -2790 -2775 0
2791 -2790 2775 0
2791 2790 -2775 0
-2792 2791 2776 0
-2792 -2791 -2776 0
2792 -2791 2776 0
2792 2791 -2776 0
-2793 2792 2777 0
-2793 -2792 -2777 0
2793 -2792 2777 0
2793 2792 -2777 0
-2794 2793 2778 0
-2794 -2793 -2778 0
2794 -2793 2778 0
2794 2793 -2778 0
-2795 2794 2779 0
-2795 -2794 -2779 0
2795 -2794 2779 0
2795 2794 -2779 0
-2796 2795 2780 0
-2796 -2795 -2780 0
2796 -2795 2780 0
2796 2795 -2780 0
-2797 2796 2781 0
-2797 -2796 -2781 0
2797 -2796 2781 0
2797 2796 -2781 0
-2798 2797 2782 0
-2798 -2797 -2782 0
2798 -2797 2782 0
2798 2797 -2782 0
-2799 2798 2783 0
-2799 -2798 -2783 0
2799 -2798 2783 0
2799 2798 -2783 0
-2800 2799 2784 0
-2800 -2799 -2784 0
2800 -2799 2784 0
2800 2799 -2784 0
-2801 2800 2785 0
-2801 -2800 -2785 0
2801 -2800 2785 0
2801 2800 -2785 0
-2802 2801 2786 0
-2802 -2801 -2786 0
2802 -2801 2786 0
2802 2801 -2786 0
-2803 2802 2787 0
-2803 -2802 -2787 0
2803 -2802 2787 0
2803 2802 -2787 0
-2804 2803 2788 0
-2804 -2803 -2788 0
2804 -2803 2788 0
2804 2803 -2788 0
-2805 2804 2789 0
-2805 -2804 -2789 0
2805 -2804 2789 0
2805 2804 -2789 0
-2805 0
-2806 2657 0
-2806 37 0
2806 -2657 -37 0
-2807 2659 0
-2807 45 0
2807 -2659 -45 0
-2808 2661 0
-2808 37 0
2808 -2661 -37 0
-2809 2663 0
-2809 45 0
2809 -2663 -45 0
-2810 2665 0
-2810 41 0
2810 -2665 -41 0
-2811 2667 0
-2811 41 0
2811 -2667 -41 0
-2812 2669 0
-2812 34 0
2812 -2669 -34 0
-2813 2671 0
-2813 36 0
2813 -2671 -36 0
-2814 2673 0
-2814 34 0
2814 -2673 -34 0
-2815 2675 0
-2815 36 0
2815 -2675 -36 0
-2816 2677 0
-2816 35 0
2816 -2677 -35 0
-2817 2679 0
-2817 35 0
2817 -2679 -35 0
-2818 2681 0
-2818 85 0
2818 -2681 -85 0
-2819 2683 0
-2819 82 0
2819 -2683 -82 0
-2820 2685 0
-2820 133 0
2820 -2685 -133 0
-2821 2687 0
-2821 130 0
2821 -2687 -130 0
-2822 2689 0
-2822 181 0
2822 -2689 -181 0
-2823 2806 2807 0
-2823 -2806 -2807 0
2823 -2806 2807 0
2823 2806 -2807 0
-2824 2823 2808 0
-2824 -2823 -2808 0
2824 -2823 2808 0
2824 2823 -2808 0
-2825 2824 2809 0
-2825 -2824 -2809 0
2825 -2824 2809 0
2825 2824 -2809 0
-2826 2825 2810 0
-2826 -2825 -2810 0
2826 -2825 2810 0
2826 2825 -2810 0
-2827 2826 2811 0
-2827 -2826 -2811 0
2827 -2826 2811 0
2827 2826 -2811 0
-2828 2827 2812 0
-2828 -2827 -2812 0
2828 -2827 2812 0
2828 2827 -2812 0
-2829 2828 2813 0
-2829 -2828 -2813 0
2829 -2828 2813 0
2829 2828 -2813 0
-2830 2829 2814 0
-2830 -2829 -2814 0
2830 -2829 2814 0
2830 2829 -2814 0
-2831 2830 2815 0
-2831 -2830 -2815 0
2831 -2830 2815 0
2831 2830 -2815 0
-2832 2831 2816 0
-2832 -2831 -2816 0
2832 -2831 2816 0
2832 2831 -2816 0
-2833 2832 2817 0
-2833 -2832 -2817 0
2833 -2832 2817 0
2833 2832 -2817 0
-2834 2833 2818 0
-2834 -2833 -2818 0
2834 -2833 2818 0
2834 2833 -2818 0
-2835 2834 2819 0
-2835 -2834 -2819 0
2835 -2834 2819 0
2835 2834 -2819 0
-2836 2835 2820 0
-2836 -2835 -2820 0
2836 -2835 2820 0
2836 2835 -2820 0
-2837 2836 2821 0
-2837 -2836 -2821 0
2837 -2836 2821 0
2837 2836 -2821 0
-2838 2837 2822 0
-2838 -2837 -2822 0
2838 -2837 2822 0
2838 2837 -2822 0
-2838 0
-2839 2657 0
-2839 38 0
2839 -2657 -38 0
-2840 2659 0
-2840 48 0
2840 -2659 -48 0
-2841 2661 0
-2841 38 0
2841 -2661 -38 0
-2842 2663 0
-2842 48 0
2842 -2663 -48 0
-2843 2665 0
-2843 43 0
2843 -2665 -43 0
-2844 2667 0
-2844 43 0
2844 -2667 -43 0
-2845 2669 0
-2845 38 0
2845 -2669 -38 0
-2846 2671 0
-2846 48 0
2846 -2671 -48 0
-2847 2673 0
-2847 38 0
2847 -2673 -38 0
-2848 2675 0
-2848 48 0
2848 -2675 -48 0
-2849 2677 0
-2849 43 0
2849 -2677 -43 0
-2850 2679 0
-2850 43 0
2850 -2679 -43 0
-2851 2681 0
-2851 86 0
2851 -2681 -86 0
-2852 2683 0
-2852 86 0
2852 -2683 -86 0
-2853 2685 0
-2853 134 0
2853 -2685 -134 0
-2854 2687 0
-2854 134 0
2854 -2687 -134 0
-2855 2689 0
-2855 182 0
2855 -2689 -182 0
-2856 2839 2840 0
-2856 -2839 -2840 0
2856 -2839 2840 0
2856 2839 -2840 0
-2857 2856 2841 0
-2857 -2856 -2841 0
2857 -2856 2841 0
2857 2856 -2841 0
-2858 2857 2842 0
-2858 -2857 -2842 0
2858 -2857 2842 0
2858 2857 -2842 0
-2859 2858 2843 0
-2859 -2858 -2843 0
2859 -2858 2843 0
2859 2858 -2843 0
-2860 2859 2844 0
-2860 -2859 -2844 0
2860 -2859 2844 0
2860 2859 -2844 0
-2861 2860 2845 0
-2861 -2860 -2845 0
2861 -2860 2845 0
2861 2860 -2845 0
-2862 2861 2846 0
-2862 -2861 -2846 0
2862 -2861 2846 0
2862 2861 -2846 0
-2863 2862 2847 0
-2863 -2862 -2847 0
2863 -2862 2847 0
2863 2862 -2847 0
-2864 2863 2848 0
-2864 -2863 -2848 0
2864 -2863 2848 0
2864 2863 -2848 0
-2865 2864 2849 0
-2865 -2864 -2849 0
2865 -2864 2849 0
2865 2864 -2849 0
-2866 2865 2850 0
-2866 -2865 -2850 0
2866 -2865 2850 0
2866 2865 -2850 0
-2867 2866 2851 0
-2867 -2866 -2851 0
2867 -2866 2851 0
2867 2866 -2851 0
-2868 2867 2852 0
-2868 -2867 -2852 0
2868 -2867 2852 0
2868 2867 -2852 0
-2869 2868 2853 0
-2869 -2868 -2853 0
2869 -2868 2853 0
2869 2868 -2853 0
-2870 2869 2854 0
-2870 -2869 -2854 0
2870 -2869 2854 0
2870 2869 -2854 0
-2871 2870 2855 0
-2871 -2870 -2855 0
2871 -2870 2855 0
2871 2870 -2855 0
-2871 0
-2872 2657 0
-2872 39 0
2872 -2657 -39 0
-2873 2659 0
-2873 47 0
2873 -2659 -47 0
-2874 2661 0
-2874 40 0
2874 -2661 -40 0
-2875 2663 0
-2875 46 0
2875 -2663 -46 0
-2876 2665 0
-2876 44 0
2876 -2665 -44 0
-2877 2667 0
-2877 42 0
2877 -2667 -42 0
-2878 2669 0
-2878 42 0
2878 -2669 -42 0
-2879 2671 0
-2879 44 0
2879 -2671 -44 0
-2880 2673 0
-2880 46 0
2880 -2673 -46 0
-2881 2675 0
-2881 40 0
2881 -2675 -40 0
-2882 2677 0
-2882 47 0
2882 -2677 -47 0
-2883 2679 0
-2883 39 0
2883 -2679 -39 0
-2884 2681 0
-2884 87 0
2884 -2681 -87 0
-2885 2683 0
-2885 90 0
2885 -2683 -90 0
-2886 2685 0
-2886 135 0
2886 -2685 -135 0
-2887 2687 0
-2887 138 0
2887 -2687 -138 0
-2888 2689 0
-2888 183 0
2888 -2689 -183 0
-2889 2872 2873 0
-2889 -2872 -2873 0
2889 -2872 2873 0
2889 2872 -2873 0
-2890 2889 2874 0
-2890 -2889 -2874 0
2890 -2889 2874 0
2890 2889 -2874 0
-2891 2890 2875 0
-2891 -2890 -2875 0
2891 -2890 2875 0
2891 2890 -2875 0
-2892 2891 2876 0
-2892 -2891 -2876 0
2892 -2891 2876 0
2892 2891 -2876 0
-2893 2892 2877 0
-2893 -2892 -2877 0
2893 -2892 2877 0
2893 2892 -2877 0
-2894 2893 2878 0
-2894 -2893 -2878 0
2894 -2893 2878 0
2894 2893 -2878 0
-2895 2894 2879 0
-2895 -2894 -2879 0
2895 -2894 2879 0
2895 2894 -2879 0
-2896 2895 2880 0
-2896 -2895 -2880 0
2896 -2895 2880 0
2896 2895 -2880 0
-2897 2896 2881 0
-2897 -2896 -2881 0
2897 -2896 2881 0
2897 2896 -2881 0
-2898 2897 2882 0
-2898 -2897 -2882 0
2898 -2897 2882 0
2898 2897 -2882 0
-2899 2898 2883 0
-2899 -2898 -2883 0
2899 -2898 2883 0
2899 2898 -2883 0
-2900 2899 2884 0
-2900 -2899 -2884 0
2900 -2899 2884 0
2900 2899 -2884 0
-2901 2900 2885 0
-2901 -2900 -2885 0
2901 -2900 2885 0
2901 2900 -2885 0
-2902 2901 2886 0
-2902 -2901 -2886 0
2902 -2901 2886 0
2902 2901 -2886 0
-2903 2902 2887 0
-2903 -2902 -2887 0
2903 -2902 2887 0
2903 2902 -2887 0
-2904 2903 2888 0
-2904 -2903 -2888 0
2904 -2903 2888 0
2904 2903 -2888 0
-2904 0
-2905 2657 0
-2905 40 0
2905 -2657 -40 0
-2906 2659 0
-2906 46 0
2906 -2659 -46 0
-2907 2661 0
-2907 39 0
2907 -2661 -39 0
-2908 2663 0
-2908 47 0
2908 -2663 -47 0
-2909 2665 0
-2909 42 0
2909 -2665 -42 0
-2910 2667 0
-2910 44 0
2910 -2667 -44 0
-2911 2669 0
-2911 46 0
2911 -2669 -46 0
-2912 2671 0
-2912 40 0
2912 -2671 -40 0
-2913 2673 0
-2913 42 0
2913 -2673 -42 0
-2914 2675 0
-2914 44 0
2914 -2675 -44 0
-2915 2677 0
-2915 39 0
2915 -2677 -39 0
-2916 2679 0
-2916 47 0
2916 -2679 -47 0
-2917 2681 0
-2917 88 0
2917 -2681 -88 0
-2918 2683 0
-2918 94 0
2918 -2683 -94 0
-2919 2685 0
-2919 136 0
2919 -2685 -136 0
-2920 2687 0
-2920 142 0
2920 -2687 -142 0
-2921 2689 0
-2921 184 0
2921 -2689 -184 0
-2922 2905 2906 0
-2922 -2905 -2906 0
2922 -2905 2906 0
2922 2905 -2906 0
-2923 2922 2907 0
-2923 -2922 -2907 0
2923 -2922 2907 0
2923 2922 -2907 0
-2924 2923 2908 0
-2924 -2923 -2908 0
2924 -2923 2908 0
2924 2923 -2908 0
-2925 2924 2909 0
-2925 -2924 -2909 0
2925 -2924 2909 0
2925 2924 -2909 0
-2926 2925 2910 0
-2926 -2925 -2910 0
2926 -2925 2910 0
2926 2925 -2910 0
-2927 2926 2911 0
-2927 -2926 -2911 0
2927 -2926 2911 0
2927 2926 -2911 0
-2928 2927 2912 0
-2928 -2927 -2912 0
2928 -2927 2912 0
2928 2927 -2912 0
-2929 2928 2913 0
-2929 -2928 -2913 0
2929 -2928 2913 0
2929 2928 -2913 0
-2930 2929 2914 0
-2930 -2929 -2914 0
2930 -2929 2914 0
2930 2929 -2914 0
-2931 2930 2915 0
-2931 -2930 -2915 0
2931 -2930 2915 0
2931 2930 -2915 0
-2932 2931 2916 0
-2932 -2931 -2916 0
2932 -2931 2916 0
2932 2931 -2916 0
-2933 2932 2917 0
-2933 -2932 -2917 0
2933 -2932 2917 0
2933 2932 -2917 0
-2934 2933 2918 0
-2934 -2933 -2918 0
2934 -2933 2918 0
2934 2933 -2918 0
-2935 2934 2919 0
-2935 -2934 -2919 0
2935 -2934 2919 0
2935 2934 -2919 0
-2936 2935 2920 0
-2936 -2935 -2920 0
2936 -2935 2920 0
2936 2935 -2920 0
-2937 2936 2921 0
-2937 -2936 -2921 0
2937 -2936 2921 0
2937 2936 -2921 0
-2937 0
-2938 2657 0
-2938 41 0
2938 -2657 -41 0
-2939 2659 0
-2939 41 0
2939 -2659 -41 0
-2940 2661 0
-2940 45 0
2940 -2661 -45 0
-2941 2663 0
-2941 37 0
2941 -2663 -37 0
-2942 2665 0
-2942 45 0
2942 -2665 -45 0
-2943 2667 0
-2943 37 0
2943 -2667 -37 0
-2944 2669 0
-2944 35 0
2944 -2669 -35 0
-2945 2671 0
-2945 35 0
2945 -2671 -35 0
-2946 2673 0
-2946 36 0
2946 -2673 -36 0
-2947 2675 0
-2947 34 0
2947 -2675 -34 0
-2948 2677 0
-2948 36 0
2948 -2677 -36 0
-2949 2679 0
-2949 34 0
2949 -2679 -34 0
-2950 2681 0
-2950 89 0
2950 -2681 -89 0
-2951 2683 0
-2951 83 0
2951 -2683 -83 0
-2952 2685 0
-2952 137 0
2952 -2685 -137 0
-2953 2687 0
-2953 131 0
2953 -2687 -131 0
-2954 2689 0
-2954 185 0
2954 -2689 -185 0
-2955 2938 2939 0
-2955 -2938 -2939 0
2955 -2938 2939 0
2955 2938 -2939 0
-2956 2955 2940 0
-2956 -2955 -2940 0
2956 -2955 2940 0
2956 2955 -2940 0
-2957 2956 2941 0
-2957 -2956 -2941 0
2957 -2956 2941 0
2957 2956 -2941 0
-2958 2957 2942 0
-2958 -2957 -2942 0
2958 -2957 2942 0
2958 2957 -2942 0
-2959 2958 2943 0
-2959 -2958 -2943 0
2959 -2958 2943 0
2959 2958 -2943 0
-2960 2959 2944 0
-2960 -2959 -2944 0
2960 -2959 2944 0
2960 2959 -2944 0
-2961 2960 2945 0
-2961 -2960 -2945 0
2961 -2960 2945 0
2961 2960 -2945 0
-2962 2961 2946 0
-2962 -2961 -2946 0
2962 -2961 2946 0
2962 2961 -2946 0
-2963 2962 2947 0
-2963 -2962 -2947 0
2963 -2962 2947 0
2963 2962 -2947 0
-2964 2963 2948 0
-2964 -2963 -2948 0
2964 -2963 2948 0
2964 2963 -2948 0
-2965 2964 2949 0
-2965 -2964 -2949 0
2965 -2964 2949 0
2965 2964 -2949 0
-2966 2965 2950 0
-2966 -2965 -2950 0
2966 -2965 2950 0
2966 2965 -2950 0
-2967 2966 2951 0
-2967 -2966 -2951 0
2967 -2966 2951 0
2967 2966 -2951 0
-2968 2967 2952 0
-2968 -2967 -2952 0
2968 -2967 2952 0
2968 2967 -2952 0
-2969 2968 2953 0
-2969 -2968 -2953 0
2969 -2968 2953 0
2969 2968 -2953 0
-2970 2969 2954 0
-2970 -2969 -2954 0
2970 -2969 2954 0
2970 2969 -2954 0
-2970 0
-2971 2657 0
-2971 42 0
2971 -2657 -42 0
-2972 2659 0
-2972 44 0
2972 -2659 -44 0
-2973 2661 0
-2973 46 0
2973 -2661 -46 0
-2974 2663 0
-2974 40 0
2974 -2663 -40 0
-2975 2665 0
-2975 47 0
2975 -2665 -47 0
-2976 2667 0
-2976 39 0
2976 -2667 -39 0
-2977 2669 0
-2977 39 0
2977 -2669 -39 0
-2978 2671 0
-2978 47 0
2978 -2671 -47 0
-2979 2673 0
-2979 40 0
2979 -2673 -40 0
-2980 2675 0
-2980 46 0
2980 -2675 -46 0
-2981 2677 0
-2981 44 0
2981 -2677 -44 0
-2982 2679 0
-2982 42 0
2982 -2679 -42 0
-2983 2681 0
-2983 90 0
2983 -2681 -90 0
-2984 2683 0
-2984 87 0
2984 -2683 -87 0
-2985 2685 0
-2985 138 0
2985 -2685 -138 0
-2986 2687 0
-2986 135 0
2986 -2687 -135 0
-2987 2689 0
-2987 186 0
2987 -2689 -186 0
-2988 2971 2972 0
-2988 -2971 -2972 0
2988 -2971 2972 0
2988 2971 -2972 0
-2989 2988 2973 0
-2989 -2988 -2973 0
2989 -2988 2973 0
2989 2988 -2973 0
-2990 2989 2974 0
-2990 -2989 -2974 0
2990 -2989 2974 0
2990 2989 -2974 0
-2991 2990 2975 0
-2991 -2990 -2975 0
2991 -2990 2975 0
2991 2990 -2975 0
-2992 2991 2976 0
-2992 -2991 -2976 0
2992 -2991 2976 0
2992 2991 -2976 0
-2993 2992 2977 0
-2993 -2992 -2977 0
2993 -2992 2977 0
2993 2992 -2977 0
-2994 2993 2978 0
-2994 -2993 -2978 0
2994 -2993 2978 0
2994 2993 -2978 0
-2995 2994 2979 0
-2995 -2994 -2979 0
2995 -2994 2979 0
2995 2994 -2979 0
-2996 2995 2980 0
-2996 -2995 -2980 0
2996 -2995 2980 0
2996 2995 -2980 0
-2997 2996 2981 0
-2997 -2996 -2981 0
2997 -2996 2981 0
2997 2996 -2981 0
-2998 2997 2982 0
-2998 -2997 -2982 0
2998 -2997 2982 0
2998 2997 -2982 0
-2999 2998 2983 0
-2999 -2998 -2983 0
2999 -2998 2983 0
2999 2998 -2983 0
-3000 2999 2984 0
-3000 -2999 -2984 0
3000 -2999 2984 0
3000 2999 -2984 0
-3001 3000 2985 0
-3001 -3000 -2985 0
3001 -3000 2985 0
3001 3000 -2985 0
-3002 3001 2986 0
-3002 -3001 -2986 0
3002 -3001 2986 0
3002 3001 -2986 0
-3003 3002 2987 0
-3003 -3002 -2987 0
3003 -3002 2987 0
3003 3002 -2987 0
-3003 0
-3004 2657 0
-3004 43 0
3004 -2657 -43 0
-3005 2659 0
-3005 43 0
3005 -2659 -43 0
-3006 2661 0
-3006 48 0
3006 -2661 -48 0
-3007 2663 0
-3007 38 0
3007 -2663 -38 0
-3008 2665 0
-3008 48 0
3008 -2665 -48 0
-3009 2667 0
-3009 38 0
3009 -2667 -38 0
-3010 2669 0
-3010 43 0
3010 -2669 -43 0
-3011 2671 0
-3011 43 0
3011 -2671 -43 0
-3012 2673 0
-3012 48 0
3012 -2673 -48 0
-3013 2675 0
-3013 38 0
3013 -2675 -38 0
-3014 2677 0
-3014 48 0
3014 -2677 -48 0
-3015 2679 0
-3015 38 0
3015 -2679 -38 0
-3016 2681 0
-3016 91 0
3016 -2681 -91 0
-3017 2683 0
-3017 91 0
3017 -2683 -91 0
-3018 2685 0
-3018 139 0
3018 -2685 -139 0
-3019 2687 0
-3019 139 0
3019 -2687 -139 0
-3020 2689 0
-3020 187 0
3020 -2689 -187 0
-3021 3004 3005 0
-3021 -3004 -3005 0
3021 -3004 3005 0
3021 3004 -3005 0
-3022 3021 3006 0
-3022 -3021 -3006 0
3022 -3021 3006 0
3022 3021 -3006 0
-3023 3022 3007 0
-3023 -3022 -3007 0
3023 -3022 3007 0
3023 3022 -3007 0
-3024 3023 3008 0
-3024 -3023 -3008 0
3024 -3023 3008 0
3024 3023 -3008 0
-3025 3024 3009 0
-3025 -3024 -3009 0
3025 -3024 3009 0
3025 3024 -3009 0
-3026 3025 3010 0
-3026 -3025 -3010 0
3026 -3025 3010 0
3026 3025 -3010 0
-3027 3026 3011 0
-3027 -3026 -3011 0
3027 -3026 3011 0
3027 3026 -3011 0
-3028 3027 3012 0
-3028 -3027 -3012 0
3028 -3027 3012 0
3028 3027 -3012 0
-3029 3028 3013 0
-3029 -3028 -3013 0
3029 -3028 3013 0
3029 3028 -3013 0
-3030 3029 3014 0
-3030 -3029 -3014 0
3030 -3029 3014 0
3030 3029 -3014 0
-3031 3030 3015 0
-3031 -3030 -3015 0
3031 -3030 3015 0
3031 3030 -3015 0
-3032 3031 3016 0
-3032 -3031 -3016 0
3032 -3031 3016 0
3032 3031 -3016 0
-3033 3032 3017 0
-3033 -3032 -3017 0
3033 -3032 3017 0
3033 3032 -3017 0
-3034 3033 3018 0
-3034 -3033 -3018 0
3034 -3033 3018 0
3034 3033 -3018 0
-3035 3034 3019 0
-3035 -3034 -3019 0
3035 -3034 3019 0
3035 3034 -3019 0
-3036 3035 3020 0
-3036 -3035 -3020 0
3036 -3035 3020 0
3036 3035 -3020 0
-3036 0
-3037 2657 0
-3037 44 0
3037 -2657 -44 0
-3038 2659 0
-3038 42 0
3038 -2659 -42 0
-3039 2661 0
-3039 47 0
3039 -2661 -47 0
-3040 2663 0
-3040 39 0
3040 -2663 -39 0
-3041 2665 0
-3041 46 0
3041 -2665 -46 0
-3042 2667 0
-3042 40 0
3042 -2667 -40 0
-3043 2669 0
-3043 47 0
3043 -2669 -47 0
-3044 2671 0
-3044 39 0
3044 -2671 -39 0
-3045 2673 0
-3045 44 0
3045 -2673 -44 0
-3046 2675 0
-3046 42 0
3046 -2675 -42 0
-3047 2677 0
-3047 40 0
3047 -2677 -40 0
-3048 2679 0
-3048 46 0
3048 -2679 -46 0
-3049 2681 0
-3049 92 0
3049 -2681 -92 0
-3050 2683 0
-3050 95 0
3050 -2683 -95 0
-3051 2685 0
-3051 140 0
3051 -2685 -140 0
-3052 2687 0
-3052 143 0
3052 -2687 -143 0
-3053 2689 0
-3053 188 0
3053 -2689 -188 0
-3054 3037 3038 0
-3054 -3037 -3038 0
3054 -3037 3038 0
3054 3037 -3038 0
-3055 3054 3039 0
-3055 -3054 -3039 0
3055 -3054 3039 0
3055 3054 -3039 0
-3056 3055 3040 0
-3056 -3055 -3040 0
3056 -3055 3040 0
3056 3055 -3040 0
-3057 3056 3041 0
-3057 -3056 -3041 0
3057 -3056 3041 0
3057 3056 -3041 0
-3058 3057 3042 0
-3058 -3057 -3042 0
3058 -3057 3042 0
3058 3057 -3042 0
-3059 3058 3043 0
-3059 -3058 -3043 0
3059 -3058 3043 0
3059 3058 -3043 0
-3060 3059 3044 0
-3060 -3059 -3044 0
3060 -3059 3044 0
3060 3059 -3044 0
-3061 3060 3045 0
-3061 -3060 -3045 0
3061 -3060 3045 0
3061 3060 -3045 0
-3062 3061 3046 0
-3062 -3061 -3046 0
3062 -3061 3046 0
3062 3061 -3046 0
-3063 3062 3047 0
-3063 -3062 -3047 0
3063 -3062 3047 0
3063 3062 -3047 0
-3064 3063 3048 0
-3064 -3063 -3048 0
3064 -3063 3048 0
3064 3063 -3048 0
-3065 3064 3049 0
-3065 -3064 -3049 0
3065 -3064 3049 0
3065 3064 -3049 0
-3066 3065 3050 0
-3066 -3065 -3050 0
3066 -3065 3050 0
3066 3065 -3050 0
-3067 3066 3051 0
-3067 -3066 -3051 0
3067 -3066 3051 0
3067 3066 -3051 0
-3068 3067 3052 0
-3068 -3067 -3052 0
3068 -3067 3052 0
3068 3067 -3052 0
-3069 3068 3053 0
-3069 -3068 -3053 0
3069 -3068 3053 0
3069 3068 -3053 0
-3069 0
-3070 2657 0
-3070 45 0
3070 -2657 -45 0
-3071 2659 0
-3071 37 0
3071 -2659 -37 0
-3072 2661 0
-3072 41 0
3072 -2661 -41 0
-3073 2663 0
-3073 41 0
3073 -2663 -41 0
-3074 2665 0
-3074 37 0
3074 -2665 -37 0
-3075 2667 0
-3075 45 0
3075 -2667 -45 0
-3076 2669 0
-3076 36 0
3076 -2669 -36 0
-3077 2671 0
-3077 34 0
3077 -2671 -34 0
-3078 2673 0
-3078 35 0
3078 -2673 -35 0
-3079 2675 0
-3079 35 0
3079 -2675 -35 0
-3080 2677 0
-3080 34 0
3080 -2677 -34 0
-3081 2679 0
-3081 36 0
3081 -2679 -36 0
-3082 2681 0
-3082 93 0
3082 -2681 -93 0
-3083 2683 0
-3083 84 0
3083 -2683 -84 0
-3084 2685 0
-3084 141 0
3084 -2685 -141 0
-3085 2687 0
-3085 132 0
3085 -2687 -132 0
-3086 2689 0
-3086 189 0
3086 -2689 -189 0
-3087 3070 3071 0
-3087 -3070 -3071 0
3087 -3070 3071 0
3087 3070 -3071 0
-3088 3087 3072 0
-3088 -3087 -3072 0
3088 -3087 3072 0
3088 3087 -3072 0
-3089 3088 3073 0
-3089 -3088 -3073 0
3089 -3088 3073 0
3089 3088 -3073 0
-3090 3089 3074 0
-3090 -3089 -3074 0
3090 -3089 3074 0
3090 3089 -3074 0
-3091 3090 3075 0
-3091 -3090 -3075 0
3091 -3090 3075 0
3091 3090 -3075 0
-3092 3091 3076 0
-3092 -3091 -3076 0
3092 -3091 3076 0
3092 3091 -3076 0
-3093 3092 3077 0
-3093 -3092 -3077 0
3093 -3092 3077 0
3093 3092 -3077 0
-3094 3093 3078 0
-3094 -3093 -3078 0
3094 -3093 3078 0
3094 3093 -3078 0
-3095 3094 3079 0
-3095 -3094 -3079 0
3095 -3094 3079 0
3095 3094 -3079 0
-3096 3095 3080 0
-3096 -3095 -3080 0
3096 -3095 3080 0
3096 3095 -3080 0
-3097 3096 3081 0
-3097 -3096 -3081 0
3097 -3096 3081 0
3097 3096 -3081 0
-3098 3097 3082 0
-3098 -3097 -3082 0
3098 -3097 3082 0
3098 3097 -3082 0
-3099 3098 3083 0
-3099 -3098 -3083 0
3099 -3098 3083 0
3099 3098 -3083 0
-3100 3099 3084 0
-3100 -3099 -3084 0
3100 -3099 3084 0
3100 3099 -3084 0
-3101 3100 3085 0
-3101 -3100 -3085 0
3101 -3100 3085 0
3101 3100 -3085 0
-3102 3101 3086 0
-3102 -3101 -3086 0
3102 -3101 3086 0
3102 3101 -3086 0
3102 0
-3103 2657 0
-3103 46 0
3103 -2657 -46 0
-3104 2659 0
-3104 40 0
3104 -2659 -40 0
-3105 2661 0
-3105 42 0
3105 -2661 -42 0
-3106 2663 0
-3106 44 0
3106 -2663 -44 0
-3107 2665 0
-3107 39 0
3107 -2665 -39 0
-3108 2667 0
-3108 47 0
3108 -2667 -47 0
-3109 2669 0
-3109 40 0
3109 -2669 -40 0
-3110 2671 0
-3110 46 0
3110 -2671 -46 0
-3111 2673 0
-3111 39 0
3111 -2673 -39 0
-3112 2675 0
-3112 47 0
3112 -2675 -47 0
-3113 2677 0
-3113 42 0
3113 -2677 -42 0
-3114 2679 0
-3114 44 0
3114 -2679 -44 0
-3115 2681 0
-3115 94 0
3115 -2681 -94 0
-3116 2683 0
-3116 88 0
3116 -2683 -88 0
-3117 2685 0
-3117 142 0
3117 -2685 -142 0
-3118 2687 0
-3118 136 0
3118 -2687 -136 0
-3119 2689 0
-3119 190 0
3119 -2689 -190 0
-3120 3103 3104 0
-3120 -3103 -3104 0
3120 -3103 3104 0
3120 3103 -3104 0
-3121 3120 3105 0
-3121 -3120 -3105 0
3121 -3120 3105 0
3121 3120 -3105 0
-3122 3121 3106 0
-3122 -3121 -3106 0
3122 -3121 3106 0
3122 3121 -3106 0
-3123 3122 3107 0
-3123 -3122 -3107 0
3123 -3122 3107 0
3123 3122 -3107 0
-3124 3123 3108 0
-3124 -3123 -3108 0
3124 -3123 3108 0
3124 3123 -3108 0
-3125 3124 3109 0
-3125 -3124 -3109 0
3125 -3124 3109 0
3125 3124 -3109 0
-3126 3125 3110 0
-3126 -3125 -3110 0
3126 -3125 3110 0
3126 3125 -3110 0
-3127 3126 3111 0
-3127 -3126 -3111 0
3127 -3126 3111 0
3127 3126 -3111 0
-3128 3127 3112 0
-3128 -3127 -3112 0
3128 -3127 3112 0
3128 3127 -3112 0
-3129 3128 3113 0
-3129 -3128 -3113 0
3129 -3128 3113 0
3129 3128 -3113 0
-3130 3129 3114 0
-3130 -3129 -3114 0
3130 -3129 3114 0
3130 3129 -3114 0
-3131 3130 3115 0
-3131 -3130 -3115 0
3131 -3130 3115 0
3131 3130 -3115 0
-3132 3131 3116 0
-3132 -3131 -3116 0
3132 -3131 3116 0
3132 3131 -3116 0
-3133 3132 3117 0
-3133 -3132 -3117 0
3133 -3132 3117 0
3133 3132 -3117 0
-3134 3133 3118 0
-3134 -3133 -3118 0
3134 -3133 3118 0
3134 3133 -3118 0
-3135 3134 3119 0
-3135 -3134 -3119 0
3135 -3134 3119 0
3135 3134 -3119 0
-3135 0
-3136 2657 0
-3136 47 0
3136 -2657 -47 0
-3137 2659 0
-3137 39 0
3137 -2659 -39 0
-3138 2661 0
-3138 44 0
3138 -2661 -44 0
-3139 2663 0
-3139 42 0
3139 -2663 -42 0
-3140 2665 0
-3140 40 0
3140 -2665 -40 0
-3141 2667 0
-3141 46 0
3141 -2667 -46 0
-3142 2669 0
-3142 44 0
3142 -2669 -44 0
-3143 2671 0
-3143 42 0
3143 -2671 -42 0
-3144 2673 0
-3144 47 0
3144 -2673 -47 0
-3145 2675 0
-3145 39 0
3145 -2675 -39 0
-3146 2677 0
-3146 46 0
3146 -2677 -46 0
-3147 2679 0
-3147 40 0
3147 -2679 -40 0
-3148 2681 0
-3148 95 0
3148 -2681 -95 0
-3149 2683 0
-3149 92 0
3149 -2683 -92 0
-3150 2685 0
-3150 143 0
3150 -2685 -143 0
-3151 2687 0
-3151 140 0
3151 -2687 -140 0
-3152 2689 0
-3152 191 0
3152 -2689 -191 0
-3153 3136 3137 0
-3153 -3136 -3137 0
3153 -3136 3137 0
3153 3136 -3137 0
-3154 3153 3138 0
-3154 -3153 -3138 0
3154 -3153 3138 0
3154 3153 -3138 0
-3155 3154 3139 0
-3155 -3154 -3139 0
3155 -3154 3139 0
3155 3154 -3139 0
-3156 3155 3140 0
-3156 -3155 -3140 0
3156 -3155 3140 0
3156 3155 -3140 0
-3157 3156 3141 0
-3157 -3156 -3141 0
3157 -3156 3141 0
3157 3156 -3141 0
-3158 3157 3142 0
-3158 -3157 -3142 0
3158 -3157 3142 0
3158 3157 -3142 0
-3159 3158 3143 0
-3159 -3158 -3143 0
3159 -3158 3143 0
3159 3158 -3143 0
-3160 3159 3144 0
-3160 -3159 -3144 0
3160 -3159 3144 0
3160 3159 -3144 0
-3161 3160 3145 0
-3161 -3160 -3145 0
3161 -3160 3145 0
3161 3160 -3145 0
-3162 3161 3146 0
-3162 -3161 -3146 0
3162 -3161 3146 0
3162 3161 -3146 0
-3163 3162 3147 0
-3163 -3162 -3147 0
3163 -3162 3147 0
3163 3162 -3147 0
-3164 3163 3148 0
-3164 -3163 -3148 0
3164 -3163 3148 0
3164 3163 -3148 0
-3165 3164 3149 0
-3165 -3164 -3149 0
3165 -3164 3149 0
3165 3164 -3149 0
-3166 3165 3150 0
-3166 -3165 -3150 0
3166 -3165 3150 0
3166 3165 -3150 0
-3167 3166 3151 0
-3167 -3166 -3151 0
3167 -3166 3151 0
3167 3166 -3151 0
-3168 3167 3152 0
-3168 -3167 -3152 0
3168 -3167 3152 0
3168 3167 -3152 0
-3168 0
-3169 2657 0
-3169 48 0
3169 -2657 -48 0
-3170 2659 0
-3170 38 0
3170 -2659 -38 0
-3171 2661 0
-3171 43 0
3171 -2661 -43 0
-3172 2663 0
-3172 43 0
3172 -2663 -43 0
-3173 2665 0
-3173 38 0
3173 -2665 -38 0
-3174 2667 0
-3174 48 0
3174 -2667 -48 0
-3175 2669 0
-3175 48 0
3175 -2669 -48 0
-3176 2671 0
-3176 38 0
3176 -2671 -38 0
-3177 2673 0
-3177 43 0
3177 -2673 -43 0
-3178 2675 0
-3178 43 0
3178 -2675 -43 0
-3179 2677 0
-3179 38 0
3179 -2677 -38 0
-3180 2679 0
-3180 48 0
3180 -2679 -48 0
-3181 2681 0
-3181 96 0
3181 -2681 -96 0
-3182 2683 0
-3182 96 0
3182 -2683 -96 0
-3183 2685 0
-3183 144 0
3183 -2685 -144 0
-3184 2687 0
-3184 144 0
3184 -2687 -144 0
-3185 2689 0
-3185 192 0
3185 -2689 -192 0
-3186 3169 3170 0
-3186 -3169 -3170 0
3186 -3169 3170 0
3186 3169 -3170 0
-3187 3186 3171 0
-3187 -3186 -3171 0
3187 -3186 3171 0
3187 3186 -3171 0
-3188 3187 3172 0
-3188 -3187 -3172 0
3188 -3187 3172 0
3188 3187 -3172 0
-3189 3188 3173 0
-3189 -3188 -3173 0
3189 -3188 3173 0
3189 3188 -3173 0
-3190 3189 3174 0
-3190 -3189 -3174 0
3190 -3189 3174 0
3190 3189 -3174 0
-3191 3190 3175 0
-3191 -3190 -3175 0
3191 -3190 3175 0
3191 3190 -3175 0
-3192 3191 3176 0
-3192 -3191 -3176 0
3192 -3191 3176 0
3192 3191 -3176 0
-3193 3192 3177 0
-3193 -3192 -3177 0
3193 -3192 3177 0
3193 3192 -3177 0
-3194 3193 3178 0
-3194 -3193 -3178 0
3194 -3193 3178 0
3194 3193 -3178 0
-3195 3194 3179 0
-3195 -3194 -3179 0
3195 -3194 3179 0
3195 3194 -3179 0
-3196 3195 3180 0
-3196 -3195 -3180 0
3196 -3195 3180 0
3196 3195 -3180 0
-3197 3196 3181 0
-3197 -3196 -3181 0
3197 -3196 3181 0
3197 3196 -3181 0
-3198 3197 3182 0
-3198 -3197 -3182 0
3198 -3197 3182 0
3198 3197 -3182 0
-3199 3198 3183 0
-3199 -3198 -3183 0
3199 -3198 3183 0
3199 3198 -3183 0
-3200 3199 3184 0
-3200 -3199 -3184 0
3200 -3199 3184 0
3200 3199 -3184 0
-3201 3200 3185 0
-3201 -3200 -3185 0
3201 -3200 3185 0
3201 3200 -3185 0
-3201 0
-3202 1 0
-3202 29 0
3202 -1 -29 0
-3203 3202 0
-3203 33 0
3203 -3202 -33 0
-3204 2 0
-3204 29 0
3204 -2 -29 0
-3205 3204 0
-3205 33 0
3205 -3204 -33 0
-3206 3 0
-3206 29 0
3206 -3 -29 0
-3207 3206 0
-3207 33 0
3207 -3206 -33 0
-3208 17 0
-3208 4 0
3208 -17 -4 0
-3209 3208 0
-3209 33 0
3209 -3208 -33 0
-3210 21 0
-3210 4 0
3210 -21 -4 0
-3211 3210 0
-3211 33 0
3211 -3210 -33 0
-3212 25 0
-3212 4 0
3212 -25 -4 0
-3213 3212 0
-3213 33 0
3213 -3212 -33 0
-3214 49 0
-3214 77 0
3214 -49 -77 0
-3215 3214 0
-3215 81 0
3215 -3214 -81 0
-3216 65 0
-3216 52 0
3216 -65 -52 0
-3217 3216 0
-3217 81 0
3217 -3216 -81 0
-3218 97 0
-3218 125 0
3218 -97 -125 0
-3219 3218 0
-3219 129 0
3219 -3218 -129 0
-3220 113 0
-3220 100 0
3220 -113 -100 0
-3221 3220 0
-3221 129 0
3221 -3220 -129 0
-3222 145 0
-3222 173 0
3222 -145 -173 0
-3223 3222 0
-3223 177 0
3223 -3222 -177 0
-3224 3203 3203 0
-3224 -3203 -3203 0
3224 -3203 3203 0
3224 3203 -3203 0
-3225 3224 3205 0
-3225 -3224 -3205 0
3225 -3224 3205 0
3225 3224 -3205 0
-3226 3225 3207 0
-3226 -3225 -3207 0
3226 -3225 3207 0
3226 3225 -3207 0
-3227 3226 3205 0
-3227 -3226 -3205 0
3227 -3226 3205 0
3227 3226 -3205 0
-3228 3227 3207 0
-3228 -3227 -3207 0
3228 -3227 3207 0
3228 3227 -3207 0
-3229 3228 3209 0
-3229 -3228 -3209 0
3229 -3228 3209 0
3229 3228 -3209 0
-3230 3229 3209 0
-3230 -3229 -3209 0
3230 -3229 3209 0
3230 3229 -3209 0
-3231 3230 3211 0
-3231 -3230 -3211 0
3231 -3230 3211 0
3231 3230 -3211 0
-3232 3231 3213 0
-3232 -3231 -3213 0
3232 -3231 3213 0
3232 3231 -3213 0
-3233 3232 3211 0
-3233 -3232 -3211 0
3233 -3232 3211 0
3233 3232 -3211 0
-3234 3233 3213 0
-3234 -3233 -3213 0
3234 -3233 3213 0
3234 3233 -3213 0
-3235 3234 3215 0
-3235 -3234 -3215 0
3235 -3234 3215 0
3235 3234 -3215 0
-3236 3235 3217 0
-3236 -3235 -3217 0
3236 -3235 3217 0
3236 3235 -3217 0
-3237 3236 3219 0
-3237 -3236 -3219 0
3237 -3236 3219 0
3237 3236 -3219 0
-3238 3237 3221 0
-3238 -3237 -3221 0
3238 -3237 3221 0
3238 3237 -3221 0
-3239 3238 3223 0
-3239 -3238 -3223 0
3239 -3238 3223 0
3239 3238 -3223 0
-3239 0
-3240 3202 0
-3240 34 0
3240 -3202 -34 0
-3241 3202 0
-3241 36 0
3241 -3202 -36 0
-3242 3204 0
-3242 34 0
3242 -3204 -34 0
-3243 3206 0
-3243 36 0
3243 -3206 -36 0
-3244 3204 0
-3244 35 0
3244 -3204 -35 0
-3245 3206 0
-3245 35 0
3245 -3206 -35 0
-3246 3208 0
-3246 37 0
3246 -3208 -37 0
-3247 3208 0
-3247 45 0
3247 -3208 -45 0
-3248 3210 0
-3248 37 0
3248 -3210 -37 0
-3249 3212 0
-3249 45 0
3249 -3212 -45 0
-3250 3210 0
-3250 41 0
3250 -3210 -41 0
-3251 3212 0
-3251 41 0
3251 -3212 -41 0
-3252 3214 0
-3252 82 0
3252 -3214 -82 0
-3253 3216 0
-3253 85 0
3253 -3216 -85 0
-3254 3218 0
-3254 130 0
3254 -3218 -130 0
-3255 3220 0
-3255 133 0
3255 -3220 -133 0
-3256 3222 0
-3256 178 0
3256 -3222 -178 0
-3257 3240 3241 0
-3257 -3240 -3241 0
3257 -3240 3241 0
3257 3240 -3241 0
-3258 3257 3242 0
-3258 -3257 -3242 0
3258 -3257 3242 0
3258 3257 -3242 0
-3259 3258 3243 0
-3259 -3258 -3243 0
3259 -3258 3243 0
3259 3258 -3243 0
-3260 3259 3244 0
-3260 -3259 -3244 0
3260 -3259 3244 0
3260 3259 -3244 0
-3261 3260 3245 0
-3261 -3260 -3245 0
3261 -3260 3245 0
3261 3260 -3245 0
-3262 3261 3246 0
-3262 -3261 -3246 0
3262 -3261 3246 0
3262 3261 -3246 0
-3263 3262 3247 0
-3263 -3262 -3247 0
3263 -3262 3247 0
3263 3262 -3247 0
-3264 3263 3248 0
-3264 -3263 -3248 0
3264 -3263 3248 0
3264 3263 -3248 0
-3265 3264 3249 0
-3265 -3264 -3249 0
3265 -3264 3249 0
3265 3264 -3249 0
-3266 3265 3250 0
-3266 -3265 -3250 0
3266 -3265 3250 0
3266 3265 -3250 0
-3267 3266 3251 0
-3267 -3266 -3251 0
3267 -3266 3251 0
3267 3266 -3251 0
-3268 3267 3252 0
-3268 -3267 -3252 0
3268 -3267 3252 0
3268 3267 -3252 0
-3269 3268 3253 0
-3269 -3268 -3253 0
3269 -3268 3253 0
3269 3268 -3253 0
-3270 3269 3254 0
-3270 -3269 -3254 0
3270 -3269 3254 0
3270 3269 -3254 0
-3271 3270 3255 0
-3271 -3270 -3255 0
3271 -3270 3255 0
3271 3270 -3255 0
-3272 3271 3256 0
-3272 -3271 -3256 0
3272 -3271 3256 0
3272 3271 -3256 0
-3272 0
-3273 3202 0
-3273 35 0
3273 -3202 -35 0
-3274 3204 0
-3274 36 0
3274 -3204 -36 0
-3275 3206 0
-3275 34 0
3275 -3206 -34 0
-3276 3208 0
-3276 41 0
3276 -3208 -41 0
-3277 3210 0
-3277 45 0
3277 -3210 -45 0
-3278 3212 0
-3278 37 0
3278 -3212 -37 0
-3279 3214 0
-3279 83 0
3279 -3214 -83 0
-3280 3216 0
-3280 89 0
3280 -3216 -89 0
-3281 3218 0
-3281 131 0
3281 -3218 -131 0
-3282 3220 0
-3282 137 0
3282 -3220 -137 0
-3283 3222 0
-3283 179 0
3283 -3222 -179 0
-3284 3273 3273 0
-3284 -3273 -3273 0
3284 -3273 3273 0
3284 3273 -3273 0
-3285 3284 3274 0
-3285 -3284 -3274 0
3285 -3284 3274 0
3285 3284 -3274 0
-3286 3285 3275 0
-3286 -3285 -3275 0
3286 -3285 3275 0
3286 3285 -3275 0
-3287 3286 3274 0
-3287 -3286 -3274 0
3287 -3286 3274 0
3287 3286 -3274 0
-3288 3287 3275 0
-3288 -3287 -3275 0
3288 -3287 3275 0
3288 3287 -3275 0
-3289 3288 3276 0
-3289 -3288 -3276 0
3289 -3288 3276 0
3289 3288 -3276 0
-3290 3289 3276 0
-3290 -3289 -3276 0
3290 -3289 3276 0
3290 3289 -3276 0
-3291 3290 3277 0
-3291 -3290 -3277 0
3291 -3290 3277 0
3291 3290 -3277 0
-3292 3291 3278 0
-3292 -3291 -3278 0
3292 -3291 3278 0
3292 3291 -3278 0
-3293 3292 3277 0
-3293 -3292 -3277 0
3293 -3292 3277 0
3293 3292 -3277 0
-3294 3293 3278 0
-3294 -3293 -3278 0
3294 -3293 3278 0
3294 3293 -3278 0
-3295 3294 3279 0
-3295 -3294 -3279 0
3295 -3294 3279 0
3295 3294 -3279 0
-3296 3295 3280 0
-3296 -3295 -3280 0
3296 -3295 3280 0
3296 3295 -3280 0
-3297 3296 3281 0
-3297 -3296 -3281 0
3297 -3296 3281 0
3297 3296 -3281 0
-3298 3297 3282 0
-3298 -3297 -3282 0
3298 -3297 3282 0
3298 3297 -3282 0
-3299 3298 3283 0
-3299 -3298 -3283 0
3299 -3298 3283 0
3299 3298 -3283 0
-3299 0
-3300 3202 0
-3300 37 0
3300 -3202 -37 0
-3301 3202 0
-3301 45 0
3301 -3202 -45 0
-3302 3204 0
-3302 37 0
3302 -3204 -37 0
-3303 3206 0
-3303 45 0
3303 -3206 -45 0
-3304 3204 0
-3304 41 0
3304 -3204 -41 0
-3305 3206 0
-3305 41 0
3305 -3206 -41 0
-3306 3208 0
-3306 34 0
3306 -3208 -34 0
-3307 3208 0
-3307 36 0
3307 -3208 -36 0
-3308 3210 0
-3308 34 0
3308 -3210 -34 0
-3309 3212 0
-3309 36 0
3309 -3212 -36 0
-3310 3210 0
-3310 35 0
3310 -3210 -35 0
-3311 3212 0
-3311 35 0
3311 -3212 -35 0
-3312 3214 0
-3312 85 0
3312 -3214 -85 0
-3313 3216 0
-3313 82 0
3313 -3216 -82 0
-3314 3218 0
-3314 133 0
3314 -3218 -133 0
-3315 3220 0
-3315 130 0
3315 -3220 -130 0
-3316 3222 0
-3316 181 0
3316 -3222 -181 0
-3317 3300 3301 0
-3317 -3300 -3301 0
3317 -3300 3301 0
3317 3300 -3301 0
-3318 3317 3302 0
-3318 -3317 -3302 0
3318 -3317 3302 0
3318 3317 -3302 0
-3319 3318 3303 0
-3319 -3318 -3303 0
3319 -3318 3303 0
3319 3318 -3303 0
-3320 3319 3304 0
-3320 -3319 -3304 0
3320 -3319 3304 0
3320 3319 -3304 0
-3321 3320 3305 0
-3321 -3320 -3305 0
3321 -3320 3305 0
3321 3320 -3305 0
-3322 3321 3306 0
-3322 -3321 -3306 0
3322 -3321 3306 0
3322 3321 -3306 0
-3323 3322 3307 0
-3323 -3322 -3307 0
3323 -3322 3307 0
3323 3322 -3307 0
-3324 3323 3308 0
-3324 -3323 -3308 0
3324 -3323 3308 0
3324 3323 -3308 0
-3325 3324 3309 0
-3325 -3324 -3309 0
3325 -3324 3309 0
3325 3324 -3309 0
-3326 3325 3310 0
-3326 -3325 -3310 0
3326 -3325 3310 0
3326 3325 -3310 0
-3327 3326 3311 0
-3327 -3326 -3311 0
3327 -3326 3311 0
3327 3326 -3311 0
-3328 3327 3312 0
-3328 -3327 -3312 0
3328 -3327 3312 0
3328 3327 -3312 0
-3329 3328 3313 0
-3329 -3328 -3313 0
3329 -3328 3313 0
3329 3328 -3313 0
-3330 3329 3314 0
-3330 -3329 -3314 0
3330 -3329 3314 0
3330 3329 -3314 0
-3331 3330 3315 0
-3331 -3330 -3315 0
3331 -3330 3315 0
3331 3330 -3315 0
-3332 3331 3316 0
-3332 -3331 -3316 0
3332 -3331 3316 0
3332 3331 -3316 0
-3332 0
-3333 3202 0
-3333 38 0
3333 -3202 -38 0
-3334 3202 0
-3334 48 0
3334 -3202 -48 0
-3335 3204 0
-3335 38 0
3335 -3204 -38 0
-3336 3206 0
-3336 48 0
3336 -3206 -48 0
-3337 3204 0
-3337 43 0
3337 -3204 -43 0
-3338 3206 0
-3338 43 0
3338 -3206 -43 0
-3339 3208 0
-3339 38 0
3339 -3208 -38 0
-3340 3208 0
-3340 48 0
3340 -3208 -48 0
-3341 3210 0
-3341 38 0
3341 -3210 -38 0
-3342 3212 0
-3342 48 0
3342 -3212 -48 0
-3343 3210 0
-3343 43 0
3343 -3210 -43 0
-3344 3212 0
-3344 43 0
3344 -3212 -43 0
-3345 3214 0
-3345 86 0
3345 -3214 -86 0
-3346 3216 0
-3346 86 0
3346 -3216 -86 0
-3347 3218 0
-3347 134 0
3347 -3218 -134 0
-3348 3220 0
-3348 134 0
3348 -3220 -134 0
-3349 3222 0
-3349 182 0
3349 -3222 -182 0
-3350 3333 3334 0
-3350 -3333 -3334 0
3350 -3333 3334 0
3350 3333 -3334 0
-3351 3350 3335 0
-3351 -3350 -3335 0
3351 -3350 3335 0
3351 3350 -3335 0
-3352 3351 3336 0
-3352 -3351 -3336 0
3352 -3351 3336 0
3352 3351 -3336 0
-3353 3352 3337 0
-3353 -3352 -3337 0
3353 -3352 3337 0
3353 3352 -3337 0
-3354 3353 3338 0
-3354 -3353 -3338 0
3354 -3353 3338 0
3354 3353 -3338 0
-3355 3354 3339 0
-3355 -3354 -3339 0
3355 -3354 3339 0
3355 3354 -3339 0
-3356 3355 3340 0
-3356 -3355 -3340 0
3356 -3355 3340 0
3356 3355 -3340 0
-3357 3356 3341 0
-3357 -3356 -3341 0
3357 -3356 3341 0
3357 3356 -3341 0
-3358 3357 3342 0
-3358 -3357 -3342 0
3358 -3357 3342 0
3358 3357 -3342 0
-3359 3358 3343 0
-3359 -3358 -3343 0
3359 -3358 3343 0
3359 3358 -3343 0
-3360 3359 3344 0
-3360 -3359 -3344 0
3360 -3359 3344 0
3360 3359 -3344 0
-3361 3360 3345 0
-3361 -3360 -3345 0
3361 -3360 3345 0
3361 3360 -3345 0
-3362 3361 3346 0
-3362 -3361 -3346 0
3362 -3361 3346 0
3362 3361 -3346 0
-3363 3362 3347 0
-3363 -3362 -3347 0
3363 -3362 3347 0
3363 3362 -3347 0
-3364 3363 3348 0
-3364 -3363 -3348 0
3364 -3363 3348 0
3364 3363 -3348 0
-3365 3364 3349 0
-3365 -3364 -3349 0
3365 -3364 3349 0
3365 3364 -3349 0
-3365 0
-3366 3202 0
-3366 39 0
3366 -3202 -39 0
-3367 3202 0
-3367 47 0
3367 -3202 -47 0
-3368 3204 0
-3368 40 0
3368 -3204 -40 0
-3369 3206 0
-3369 46 0
3369 -3206 -46 0
-3370 3204 0
-3370 44 0
3370 -3204 -44 0
-3371 3206 0
-3371 42 0
3371 -3206 -42 0
-3372 3208 0
-3372 42 0
3372 -3208 -42 0
-3373 3208 0
-3373 44 0
3373 -3208 -44 0
-3374 3210 0
-3374 46 0
3374 -3210 -46 0
-3375 3212 0
-3375 40 0
3375 -3212 -40 0
-3376 3210 0
-3376 47 0
3376 -3210 -47 0
-3377 3212 0
-3377 39 0
3377 -3212 -39 0
-3378 3214 0
-3378 87 0
3378 -3214 -87 0
-3379 3216 0
-3379 90 0
3379 -3216 -90 0
-3380 3218 0
-3380 135 0
3380 -3218 -135 0
-3381 3220 0
-3381 138 0
3381 -3220 -138 0
-3382 3222 0
-3382 183 0
3382 -3222 -183 0
-3383 3366 3367 0
-3383 -3366 -3367 0
3383 -3366 3367 0
3383 3366 -3367 0
-3384 3383 3368 0
-3384 -3383 -3368 0
3384 -3383 3368 0
3384 3383 -3368 0
-3385 3384 3369 0
-3385 -3384 -3369 0
3385 -3384 3369 0
3385 3384 -3369 0
-3386 3385 3370 0
-3386 -3385 -3370 0
3386 -3385 3370 0
3386 3385 -3370 0
-3387 3386 3371 0
-3387 -3386 -3371 0
3387 -3386 3371 0
3387 3386 -3371 0
-3388 3387 3372 0
-3388 -3387 -3372 0
3388 -3387 3372 0
3388 3387 -3372 0
-3389 3388 3373 0
-3389 -3388 -3373 0
3389 -3388 3373 0
3389 3388 -3373 0
-3390 3389 3374 0
-3390 -3389 -3374 0
3390 -3389 3374 0
3390 3389 -3374 0
-3391 3390 3375 0
-3391 -3390 -3375 0
3391 -3390 3375 0
3391 3390 -3375 0
-3392 3391 3376 0
-3392 -3391 -3376 0
3392 -3391 3376 0
3392 3391 -3376 0
-3393 3392 3377 0
-3393 -3392 -3377 0
3393 -3392 3377 0
3393 3392 -3377 0
-3394 3393 3378 0
-3394 -3393 -3378 0
3394 -3393 3378 0
3394 3393 -3378 0
-3395 3394 3379 0
-3395 -3394 -3379 0
3395 -3394 3379 0
3395 3394 -3379 0
-3396 3395 3380 0
-3396 -3395 -3380 0
3396 -3395 3380 0
3396 3395 -3380 0
-3397 3396 3381 0
-3397 -3396 -3381 0
3397 -3396 3381 0
3397 3396 -3381 0
-3398 3397 3382 0
-3398 -3397 -3382 0
3398 -3397 3382 0
3398 3397 -3382 0
-3398 0
-3399 3202 0
-3399 40 0
3399 -3202 -40 0
-3400 3202 0
-3400 46 0
3400 -3202 -46 0
-3401 3204 0
-3401 39 0
3401 -3204 -39 0
-3402 3206 0
-3402 47 0
3402 -3206 -47 0
-3403 3204 0
-3403 42 0
3403 -3204 -42 0
-3404 3206 0
-3404 44 0
3404 -3206 -44 0
-3405 3208 0
-3405 46 0
3405 -3208 -46 0
-3406 3208 0
-3406 40 0
3406 -3208 -40 0
-3407 3210 0
-3407 42 0
3407 -3210 -42 0
-3408 3212 0
-3408 44 0
3408 -3212 -44 0
-3409 3210 0
-3409 39 0
3409 -3210 -39 0
-3410 3212 0
-3410 47 0
3410 -3212 -47 0
-3411 3214 0
-3411 88 0
3411 -3214 -88 0
-3412 3216 0
-3412 94 0
3412 -3216 -94 0
-3413 3218 0
-3413 136 0
3413 -3218 -136 0
-3414 3220 0
-3414 142 0
3414 -3220 -142 0
-3415 3222 0
-3415 184 0
3415 -3222 -184 0
-3416 3399 3400 0
-3416 -3399 -3400 0
3416 -3399 3400 0
3416 3399 -3400 0
-3417 3416 3401 0
-3417 -3416 -3401 0
3417 -3416 3401 0
3417 3416 -3401 0
-3418 3417 3402 0
-3418 -3417 -3402 0
3418 -3417 3402 0
3418 3417 -3402 0
-3419 3418 3403 0
-3419 -3418 -3403 0
3419 -3418 3403 0
3419 3418 -3403 0
-3420 3419 3404 0
-3420 -3419 -3404 0
3420 -3419 3404 0
3420 3419 -3404 0
-3421 3420 3405 0
-3421 -3420 -3405 0
3421 -3420 3405 0
3421 3420 -3405 0
-3422 3421 3406 0
-3422 -3421 -3406 0
3422 -3421 3406 0
3422 3421 -3406 0
-3423 3422 3407 0
-3423 -3422 -3407 0
3423 -3422 3407 0
3423 3422 -3407 0
-3424 3423 3408 0
-3424 -3423 -3408 0
3424 -3423 3408 0
3424 3423 -3408 0
-3425 3424 3409 0
-3425 -3424 -3409 0
3425 -3424 3409 0
3425 3424 -3409 0
-3426 3425 3410 0
-3426 -3425 -3410 0
3426 -3425 3410 0
3426 3425 -3410 0
-3427 3426 3411 0
-3427 -3426 -3411 0
3427 -3426 3411 0
3427 3426 -3411 0
-3428 3427 3412 0
-3428 -3427 -3412 0
3428 -3427 3412 0
3428 3427 -3412 0
-3429 3428 3413 0
-3429 -3428 -3413 0
3429 -3428 3413 0
3429 3428 -3413 0
-3430 3429 3414 0
-3430 -3429 -3414 0
3430 -3429 3414 0
3430 3429 -3414 0
-3431 3430 3415 0
-3431 -3430 -3415 0
3431 -3430 3415 0
3431 3430 -3415 0
-3431 0
-3432 3202 0
-3432 41 0
3432 -3202 -41 0
-3433 3204 0
-3433 45 0
3433 -3204 -45 0
-3434 3206 0
-3434 37 0
3434 -3206 -37 0
-3435 3208 0
-3435 35 0
3435 -3208 -35 0
-3436 3210 0
-3436 36 0
3436 -3210 -36 0
-3437 3212 0
-3437 34 0
3437 -3212 -34 0
-3438 3214 0
-3438 89 0
3438 -3214 -89 0
-3439 3216 0
-3439 83 0
3439 -3216 -83 0
-3440 3218 0
-3440 137 0
3440 -3218 -137 0
-3441 3220 0
-3441 131 0
3441 -3220 -131 0
-3442 3222 0
-3442 185 0
3442 -3222 -185 0
-3443 3432 3432 0
-3443 -3432 -3432 0
3443 -3432 3432 0
3443 3432 -3432 0
-3444 3443 3433 0
-3444 -3443 -3433 0
3444 -3443 3433 0
3444 3443 -3433 0
-3445 3444 3434 0
-3445 -3444 -3434 0
3445 -3444 3434 0
3445 3444 -3434 0
-3446 3445 3433 0
-3446 -3445 -3433 0
3446 -3445 3433 0
3446 3445 -3433 0
-3447 3446 3434 0
-3447 -3446 -3434 0
3447 -3446 3434 0
3447 3446 -3434 0
-3448 3447 3435 0
-3448 -3447 -3435 0
3448 -3447 3435 0
3448 3447 -3435 0
-3449 3448 3435 0
-3449 -3448 -3435 0
3449 -3448 3435 0
3449 3448 -3435 0
-3450 3449 3436 0
-3450 -3449 -3436 0
3450 -3449 3436 0
3450 3449 -3436 0
-3451 3450 3437 0
-3451 -3450 -3437 0
3451 -3450 3437 0
3451 3450 -3437 0
-3452 3451 3436 0
-3452 -3451 -3436 0
3452 -3451 3436 0
3452 3451 -3436 0
-3453 3452 3437 0
-3453 -3452 -3437 0
3453 -3452 3437 0
3453 3452 -3437 0
-3454 3453 3438 0
-3454 -3453 -3438 0
3454 -3453 3438 0
3454 3453 -3438 0
-3455 3454 3439 0
-3455 -3454 -3439 0
3455 -3454 3439 0
3455 3454 -3439 0
-3456 3455 3440 0
-3456 -3455 -3440 0
3456 -3455 3440 0
3456 3455 -3440 0
-3457 3456 3441 0
-3457 -3456 -3441 0
3457 -3456 3441 0
3457 3456 -3441 0
-3458 3457 3442 0
-3458 -3457 -3442 0
3458 -3457 3442 0
3458 3457 -3442 0
-3458 0
-3459 3202 0
-3459 42 0
3459 -3202 -42 0
-3460 3202 0
-3460 44 0
3460 -3202 -44 0
-3461 3204 0
-3461 46 0
3461 -3204 -46 0
-3462 3206 0
-3462 40 0
3462 -3206 -40 0
-3463 3204 0
-3463 47 0
3463 -3204 -47 0
-3464 3206 0
-3464 39 0
3464 -3206 -39 0
-3465 3208 0
-3465 39 0
3465 -3208 -39 0
-3466 3208 0
-3466 47 0
3466 -3208 -47 0
-3467 3210 0
-3467 40 0
3467 -3210 -40 0
-3468 3212 0
-3468 46 0
3468 -3212 -46 0
-3469 3210 0
-3469 44 0
3469 -3210 -44 0
-3470 3212 0
-3470 42 0
3470 -3212 -42 0
-3471 3214 0
-3471 90 0
3471 -3214 -90 0
-3472 3216 0
-3472 87 0
3472 -3216 -87 0
-3473 3218 0
-3473 138 0
3473 -3218 -138 0
-3474 3220 0
-3474 135 0
3474 -3220 -135 0
-3475 3222 0
-3475 186 0
3475 -3222 -186 0
-3476 3459 3460 0
-3476 -3459 -3460 0
3476 -3459 3460 0
3476 3459 -3460 0
-3477 3476 3461 0
-3477 -3476 -3461 0
3477 -3476 3461 0
3477 3476 -3461 0
-3478 3477 3462 0
-3478 -3477 -3462 0
3478 -3477 3462 0
3478 3477 -3462 0
-3479 3478 3463 0
-3479 -3478 -3463 0
3479 -3478 3463 0
3479 3478 -3463 0
-3480 3479 3464 0
-3480 -3479 -3464 0
3480 -3479 3464 0
3480 3479 -3464 0
-3481 3480 3465 0
-3481 -3480 -3465 0
3481 -3480 3465 0
3481 3480 -3465 0
-3482 3481 3466 0
-3482 -3481 -3466 0
3482 -3481 3466 0
3482 3481 -3466 0
-3483 3482 3467 0
-3483 -3482 -3467 0
3483 -3482 3467 0
3483 3482 -3467 0
-3484 3483 3468 0
-3484 -3483 -3468 0
3484 -3483 3468 0
3484 3483 -3468 0
-3485 3484 3469 0
-3485 -3484 -3469 0
3485 -3484 3469 0
3485 3484 -3469 0
-3486 3485 3470 0
-3486 -3485 -3470 0
3486 -3485 3470 0
3486 3485 -3470 0
-3487 3486 3471 0
-3487 -3486 -3471 0
3487 -3486 3471 0
3487 3486 -3471 0
-3488 3487 3472 0
-3488 -3487 -3472 0
3488 -3487 3472 0
3488 3487 -3472 0
-3489 3488 3473 0
-3489 -3488 -3473 0
3489 -3488 3473 0
3489 3488 -3473 0
-3490 3489 3474 0
-3490 -3489 -3474 0
3490 -3489 3474 0
3490 3489 -3474 0
-3491 3490 3475 0
-3491 -3490 -3475 0
3491 -3490 3475 0
3491 3490 -3475 0
-3491 0
-3492 3202 0
-3492 43 0
3492 -3202 -43 0
-3493 3204 0
-3493 48 0
3493 -3204 -48 0
-3494 3206 0
-3494 38 0
3494 -3206 -38 0
-3495 3208 0
-3495 43 0
3495 -3208 -43 0
-3496 3210 0
-3496 48 0
3496 -3210 -48 0
-3497 3212 0
-3497 38 0
3497 -3212 -38 0
-3498 3214 0
-3498 91 0
3498 -3214 -91 0
-3499 3216 0
-3499 91 0
3499 -3216 -91 0
-3500 3218 0
-3500 139 0
3500 -3218 -139 0
-3501 3220 0
-3501 139 0
3501 -3220 -139 0
-3502 3222 0
-3502 187 0
3502 -3222 -187 0
-3503 3492 3492 0
-3503 -3492 -3492 0
3503 -3492 3492 0
3503 3492 -3492 0
-3504 3503 3493 0
-3504 -3503 -3493 0
3504 -3503 3493 0
3504 3503 -3493 0
-3505 3504 3494 0
-3505 -3504 -3494 0
3505 -3504 3494 0
3505 3504 -3494 0
-3506 3505 3493 0
-3506 -3505 -3493 0
3506 -3505 3493 0
3506 3505 -3493 0
-3507 3506 3494 0
-3507 -3506 -3494 0
3507 -3506 3494 0
3507 3506 -3494 0
-3508 3507 3495 0
-3508 -3507 -3495 0
3508 -3507 3495 0
3508 3507 -3495 0
-3509 3508 3495 0
-3509 -3508 -3495 0
3509 -3508 3495 0
3509 3508 -3495 0
-3510 3509 3496 0
-3510 -3509 -3496 0
3510 -3509 3496 0
3510 3509 -3496 0
-3511 3510 3497 0
-3511 -3510 -3497 0
3511 -3510 3497 0
3511 3510 -3497 0
-3512 3511 3496 0
-3512 -3511 -3496 0
3512 -3511 3496 0
3512 3511 -3496 0
-3513 3512 3497 0
-3513 -3512 -3497 0
3513 -3512 3497 0
3513 3512 -3497 0
-3514 3513 3498 0
-3514 -3513 -3498 0
3514 -3513 3498 0
3514 3513 -3498 0
-3515 3514 3499 0
-3515 -3514 -3499 0
3515 -3514 3499 0
3515 3514 -3499 0
-3516 3515 3500 0
-3516 -3515 -3500 0
3516 -3515 3500 0
3516 3515 -3500 0
-3517 3516 3501 0
-3517 -3516 -3501 0
3517 -3516 3501 0
3517 3516 -3501 0
-3518 3517 3502 0
-3518 -3517 -3502 0
3518 -3517 3502 0
3518 3517 -3502 0
-3518 0
-3519 1 0
-3519 30 0
3519 -1 -30 0
-3520 3519 0
-3520 33 0
3520 -3519 -33 0
-3521 1 0
-3521 32 0
3521 -1 -32 0
-3522 3521 0
-3522 33 0
3522 -3521 -33 0
-3523 2 0
-3523 30 0
3523 -2 -30 0
-3524 3523 0
-3524 33 0
3524 -3523 -33 0
-3525 3 0
-3525 32 0
3525 -3 -32 0
-3526 3525 0
-3526 33 0
3526 -3525 -33 0
-3527 2 0
-3527 31 0
3527 -2 -31 0
-3528 3527 0
-3528 33 0
3528 -3527 -33 0
-3529 3 0
-3529 31 0
3529 -3 -31 0
-3530 3529 0
-3530 33 0
3530 -3529 -33 0
-3531 17 0
-3531 8 0
3531 -17 -8 0
-3532 3531 0
-3532 33 0
3532 -3531 -33 0
-3533 17 0
-3533 16 0
3533 -17 -16 0
-3534 3533 0
-3534 33 0
3534 -3533 -33 0
-3535 21 0
-3535 8 0
3535 -21 -8 0
-3536 3535 0
-3536 33 0
3536 -3535 -33 0
-3537 25 0
-3537 16 0
3537 -25 -16 0
-3538 3537 0
-3538 33 0
3538 -3537 -33 0
-3539 21 0
-3539 12 0
3539 -21 -12 0
-3540 3539 0
-3540 33 0
3540 -3539 -33 0
-3541 25 0
-3541 12 0
3541 -25 -12 0
-3542 3541 0
-3542 33 0
3542 -3541 -33 0
-3543 49 0
-3543 78 0
3543 -49 -78 0
-3544 3543 0
-3544 81 0
3544 -3543 -81 0
-3545 65 0
-3545 56 0
3545 -65 -56 0
-3546 3545 0
-3546 81 0
3546 -3545 -81 0
-3547 97 0
-3547 126 0
3547 -97 -126 0
-3548 3547 0
-3548 129 0
3548 -3547 -129 0
-3549 113 0
-3549 104 0
3549 -113 -104 0
-3550 3549 0
-3550 129 0
3550 -3549 -129 0
-3551 145 0
-3551 174 0
3551 -145 -174 0
-3552 3551 0
-3552 177 0
3552 -3551 -177 0
-3553 3520 3522 0
-3553 -3520 -3522 0
3553 -3520 3522 0
3553 3520 -3522 0
-3554 3553 3524 0
-3554 -3553 -3524 0
3554 -3553 3524 0
3554 3553 -3524 0
-3555 3554 3526 0
-3555 -3554 -3526 0
3555 -3554 3526 0
3555 3554 -3526 0
-3556 3555 3528 0
-3556 -3555 -3528 0
3556 -3555 3528 0
3556 3555 -3528 0
-3557 3556 3530 0
-3557 -3556 -3530 0
3557 -3556 3530 0
3557 3556 -3530 0
-3558 3557 3532 0
-3558 -3557 -3532 0
3558 -3557 3532 0
3558 3557 -3532 0
-3559 3558 3534 0
-3559 -3558 -3534 0
3559 -3558 3534 0
3559 3558 -3534 0
-3560 3559 3536 0
-3560 -3559 -3536 0
3560 -3559 3536 0
3560 3559 -3536 0
-3561 3560 3538 0
-3561 -3560 -3538 0
3561 -3560 3538 0
3561 3560 -3538 0
-3562 3561 3540 0
-3562 -3561 -3540 0
3562 -3561 3540 0
3562 3561 -3540 0
-3563 3562 3542 0
-3563 -3562 -3542 0
3563 -3562 3542 0
3563 3562 -3542 0
-3564 3563 3544 0
-3564 -3563 -3544 0
3564 -3563 3544 0
3564 3563 -3544 0
-3565 3564 3546 0
-3565 -3564 -3546 0
3565 -3564 3546 0
3565 3564 -3546 0
-3566 3565 3548 0
-3566 -3565 -3548 0
3566 -3565 3548 0
3566 3565 -3548 0
-3567 3566 3550 0
-3567 -3566 -3550 0
3567 -3566 3550 0
3567 3566 -3550 0
-3568 3567 3552 0
-3568 -3567 -3552 0
3568 -3567 3552 0
3568 3567 -3552 0
-3568 0
-3569 3519 0
-3569 34 0
3569 -3519 -34 0
-3570 3521 0
-3570 36 0
3570 -3521 -36 0
-3571 3523 0
-3571 34 0
3571 -3523 -34 0
-3572 3525 0
-3572 36 0
3572 -3525 -36 0
-3573 3527 0
-3573 35 0
3573 -3527 -35 0
-3574 3529 0
-3574 35 0
3574 -3529 -35 0
-3575 3531 0
-3575 37 0
3575 -3531 -37 0
-3576 3533 0
-3576 45 0
3576 -3533 -45 0
-3577 3535 0
-3577 37 0
3577 -3535 -37 0
-3578 3537 0
-3578 45 0
3578 -3537 -45 0
-3579 3539 0
-3579 41 0
3579 -3539 -41 0
-3580 3541 0
-3580 41 0
3580 -3541 -41 0
-3581 3543 0
-3581 82 0
3581 -3543 -82 0
-3582 3545 0
-3582 85 0
3582 -3545 -85 0
-3583 3547 0
-3583 130 0
3583 -3547 -130 0
-3584 3549 0
-3584 133 0
3584 -3549 -133 0
-3585 3551 0
-3585 178 0
3585 -3551 -178 0
-3586 3569 3570 0
-3586 -3569 -3570 0
3586 -3569 3570 0
3586 3569 -3570 0
-3587 3586 3571 0
-3587 -3586 -3571 0
3587 -3586 3571 0
3587 3586 -3571 0
-3588 3587 3572 0
-3588 -3587 -3572 0
3588 -3587 3572 0
3588 3587 -3572 0
-3589 3588 3573 0
-3589 -3588 -3573 0
3589 -3588 3573 0
3589 3588 -3573 0
-3590 3589 3574 0
-3590 -3589 -3574 0
3590 -3589 3574 0
3590 3589 -3574 0
-3591 3590 3575 0
-3591 -3590 -3575 0
3591 -3590 3575 0
3591 3590 -3575 0
-3592 3591 3576 0
-3592 -3591 -3576 0
3592 -3591 3576 0
3592 3591 -3576 0
-3593 3592 3577 0
-3593 -3592 -3577 0
3593 -3592 3577 0
3593 3592 -3577 0
-3594 3593 3578 0
-3594 -3593 -3578 0
3594 -3593 3578 0
3594 3593 -3578 0
-3595 3594 3579 0
-3595 -3594 -3579 0
3595 -3594 3579 0
3595 3594 -3579 0
-3596 3595 3580 0
-3596 -3595 -3580 0
3596 -3595 3580 0
3596 3595 -3580 0
-3597 3596 3581 0
-3597 -3596 -3581 0
3597 -3596 3581 0
3597 3596 -3581 0
-3598 3597 3582 0
-3598 -3597 -3582 0
3598 -3597 3582 0
3598 3597 -3582 0
-3599 3598 3583 0
-3599 -3598 -3583 0
3599 -3598 3583 0
3599 3598 -3583 0
-3600 3599 3584 0
-3600 -3599 -3584 0
3600 -3599 3584 0
3600 3599 -3584 0
-3601 3600 3585 0
-3601 -3600 -3585 0
3601 -3600 3585 0
3601 3600 -3585 0
-3601 0
-3602 3519 0
-3602 35 0
3602 -3519 -35 0
-3603 3521 0
-3603 35 0
3603 -3521 -35 0
-3604 3523 0
-3604 36 0
3604 -3523 -36 0
-3605 3525 0
-3605 34 0
3605 -3525 -34 0
-3606 3527 0
-3606 36 0
3606 -3527 -36 0
-3607 3529 0
-3607 34 0
3607 -3529 -34 0
-3608 3531 0
-3608 41 0
3608 -3531 -41 0
-3609 3533 0
-3609 41 0
3609 -3533 -41 0
-3610 3535 0
-3610 45 0
3610 -3535 -45 0
-3611 3537 0
-3611 37 0
3611 -3537 -37 0
-3612 3539 0
-3612 45 0
3612 -3539 -45 0
-3613 3541 0
-3613 37 0
3613 -3541 -37 0
-3614 3543 0
-3614 83 0
3614 -3543 -83 0
-3615 3545 0
-3615 89 0
3615 -3545 -89 0
-3616 3547 0
-3616 131 0
3616 -3547 -131 0
-3617 3549 0
-3617 137 0
3617 -3549 -137 0
-3618 3551 0
-3618 179 0
3618 -3551 -179 0
-3619 3602 3603 0
-3619 -3602 -3603 0
3619 -3602 3603 0
3619 3602 -3603 0
-3620 3619 3604 0
-3620 -3619 -3604 0
3620 -3619 3604 0
3620 3619 -3604 0
-3621 3620 3605 0
-3621 -3620 -3605 0
3621 -3620 3605 0
3621 3620 -3605 0
-3622 3621 3606 0
-3622 -3621 -3606 0
3622 -3621 3606 0
3622 3621 -3606 0
-3623 3622 3607 0
-3623 -3622 -3607 0
3623 -3622 3607 0
3623 3622 -3607 0
-3624 3623 3608 0
-3624 -3623 -3608 0
3624 -3623 3608 0
3624 3623 -3608 0
-3625 3624 3609 0
-3625 -3624 -3609 0
3625 -3624 3609 0
3625 3624 -3609 0
-3626 3625 3610 0
-3626 -3625 -3610 0
3626 -3625 3610 0
3626 3625 -3610 0
-3627 3626 3611 0
-3627 -3626 -3611 0
3627 -3626 3611 0
3627 3626 -3611 0
-3628 3627 3612 0
-3628 -3627 -3612 0
3628 -3627 3612 0
3628 3627 -3612 0
-3629 3628 3613 0
-3629 -3628 -3613 0
3629 -3628 3613 0
3629 3628 -3613 0
-3630 3629 3614 0
-3630 -3629 -3614 0
3630 -3629 3614 0
3630 3629 -3614 0
-3631 3630 3615 0
-3631 -3630 -3615 0
3631 -3630 3615 0
3631 3630 -3615 0
-3632 3631 3616 0
-3632 -3631 -3616 0
3632 -3631 3616 0
3632 3631 -3616 0
-3633 3632 3617 0
-3633 -3632 -3617 0
3633 -3632 3617 0
3633 3632 -3617 0
-3634 3633 3618 0
-3634 -3633 -3618 0
3634 -3633 3618 0
3634 3633 -3618 0
-3634 0
-3635 3519 0
-3635 36 0
3635 -3519 -36 0
-3636 3521 0
-3636 34 0
3636 -3521 -34 0
-3637 3523 0
-3637 35 0
3637 -3523 -35 0
-3638 3525 0
-3638 35 0
3638 -3525 -35 0
-3639 3527 0
-3639 34 0
3639 -3527 -34 0
-3640 3529 0
-3640 36 0
3640 -3529 -36 0
-3641 3531 0
-3641 45 0
3641 -3531 -45 0
-3642 3533 0
-3642 37 0
3642 -3533 -37 0
-3643 3535 0
-3643 41 0
3643 -3535 -41 0
-3644 3537 0
-3644 41 0
3644 -3537 -41 0
-3645 3539 0
-3645 37 0
3645 -3539 -37 0
-3646 3541 0
-3646 45 0
3646 -3541 -45 0
-3647 3543 0
-3647 84 0
3647 -3543 -84 0
-3648 3545 0
-3648 93 0
3648 -3545 -93 0
-3649 3547 0
-3649 132 0
3649 -3547 -132 0
-3650 3549 0
-3650 141 0
3650 -3549 -141 0
-3651 3551 0
-3651 180 0
3651 -3551 -180 0
-3652 3635 3636 0
-3652 -3635 -3636 0
3652 -3635 3636 0
3652 3635 -3636 0
-3653 3652 3637 0
-3653 -3652 -3637 0
3653 -3652 3637 0
3653 3652 -3637 0
-3654 3653 3638 0
-3654 -3653 -3638 0
3654 -3653 3638 0
3654 3653 -3638 0
-3655 3654 3639 0
-3655 -3654 -3639 0
3655 -3654 3639 0
3655 3654 -3639 0
-3656 3655 3640 0
-3656 -3655 -3640 0
3656 -3655 3640 0
3656 3655 -3640 0
-3657 3656 3641 0
-3657 -3656 -3641 0
3657 -3656 3641 0
3657 3656 -3641 0
-3658 3657 3642 0
-3658 -3657 -3642 0
3658 -3657 3642 0
3658 3657 -3642 0
-3659 3658 3643 0
-3659 -3658 -3643 0
3659 -3658 3643 0
3659 3658 -3643 0
-3660 3659 3644 0
-3660 -3659 -3644 0
3660 -3659 3644 0
3660 3659 -3644 0
-3661 3660 3645 0
-3661 -3660 -3645 0
3661 -3660 3645 0
3661 3660 -3645 0
-3662 3661 3646 0
-3662 -3661 -3646 0
3662 -3661 3646 0
3662 3661 -3646 0
-3663 3662 3647 0
-3663 -3662 -3647 0
3663 -3662 3647 0
3663 3662 -3647 0
-3664 3663 3648 0
-3664 -3663 -3648 0
3664 -3663 3648 0
3664 3663 -3648 0
-3665 3664 3649 0
-3665 -3664 -3649 0
3665 -3664 3649 0
3665 3664 -3649 0
-3666 3665 3650 0
-3666 -3665 -3650 0
3666 -3665 3650 0
3666 3665 -3650 0
-3667 3666 3651 0
-3667 -3666 -3651 0
3667 -3666 3651 0
3667 3666 -3651 0
-3667 0
-3668 3519 0
-3668 37 0
3668 -3519 -37 0
-3669 3521 0
-3669 45 0
3669 -3521 -45 0
-3670 3523 0
-3670 37 0
3670 -3523 -37 0
-3671 3525 0
-3671 45 0
3671 -3525 -45 0
-3672 3527 0
-3672 41 0
3672 -3527 -41 0
-3673 3529 0
-3673 41 0
3673 -3529 -41 0
-3674 3531 0
-3674 34 0
3674 -3531 -34 0
-3675 3533 0
-3675 36 0
3675 -3533 -36 0
-3676 3535 0
-3676 34 0
3676 -3535 -34 0
-3677 3537 0
-3677 36 0
3677 -3537 -36 0
-3678 3539 0
-3678 35 0
3678 -3539 -35 0
-3679 3541 0
-3679 35 0
3679 -3541 -35 0
-3680 3543 0
-3680 85 0
3680 -3543 -85 0
-3681 3545 0
-3681 82 0
3681 -3545 -82 0
-3682 3547 0
-3682 133 0
3682 -3547 -133 0
-3683 3549 0
-3683 130 0
3683 -3549 -130 0
-3684 3551 0
-3684 181 0
3684 -3551 -181 0
-3685 3668 3669 0
-3685 -3668 -3669 0
3685 -3668 3669 0
3685 3668 -3669 0
-3686 3685 3670 0
-3686 -3685 -3670 0
3686 -3685 3670 0
3686 3685 -3670 0
-3687 3686 3671 0
-3687 -3686 -3671 0
3687 -3686 3671 0
3687 3686 -3671 0
-3688 3687 3672 0
-3688 -3687 -3672 0
3688 -3687 3672 0
3688 3687 -3672 0
-3689 3688 3673 0
-3689 -3688 -3673 0
3689 -3688 3673 0
3689 3688 -3673 0
-3690 3689 3674 0
-3690 -3689 -3674 0
3690 -3689 3674 0
3690 3689 -3674 0
-3691 3690 3675 0
-3691 -3690 -3675 0
3691 -3690 3675 0
3691 3690 -3675 0
-3692 3691 3676 0
-3692 -3691 -3676 0
3692 -3691 3676 0
3692 3691 -3676 0
-3693 3692 3677 0
-3693 -3692 -3677 0
3693 -3692 3677 0
3693 3692 -3677 0
-3694 3693 3678 0
-3694 -3693 -3678 0
3694 -3693 3678 0
3694 3693 -3678 0
-3695 3694 3679 0
-3695 -3694 -3679 0
3695 -3694 3679 0
3695 3694 -3679 0
-3696 3695 3680 0
-3696 -3695 -3680 0
3696 -3695 3680 0
3696 3695 -3680 0
-3697 3696 3681 0
-3697 -3696 -3681 0
3697 -3696 3681 0
3697 3696 -3681 0
-3698 3697 3682 0
-3698 -3697 -3682 0
3698 -3697 3682 0
3698 3697 -3682 0
-3699 3698 3683 0
-3699 -3698 -3683 0
3699 -3698 3683 0
3699 3698 -3683 0
-3700 3699 3684 0
-3700 -3699 -3684 0
3700 -3699 3684 0
3700 3699 -3684 0
-3700 0
-3701 3519 0
-3701 38 0
3701 -3519 -38 0
-3702 3521 0
-3702 48 0
3702 -3521 -48 0
-3703 3523 0
-3703 38 0
3703 -3523 -38 0
-3704 3525 0
-3704 48 0
3704 -3525 -48 0
-3705 3527 0
-3705 43 0
3705 -3527 -43 0
-3706 3529 0
-3706 43 0
3706 -3529 -43 0
-3707 3531 0
-3707 38 0
3707 -3531 -38 0
-3708 3533 0
-3708 48 0
3708 -3533 -48 0
-3709 3535 0
-3709 38 0
3709 -3535 -38 0
-3710 3537 0
-3710 48 0
3710 -3537 -48 0
-3711 3539 0
-3711 43 0
3711 -3539 -43 0
-3712 3541 0
-3712 43 0
3712 -3541 -43 0
-3713 3543 0
-3713 86 0
3713 -3543 -86 0
-3714 3545 0
-3714 86 0
3714 -3545 -86 0
-3715 3547 0
-3715 134 0
3715 -3547 -134 0
-3716 3549 0
-3716 134 0
3716 -3549 -134 0
-3717 3551 0
-3717 182 0
3717 -3551 -182 0
-3718 3701 3702 0
-3718 -3701 -3702 0
3718 -3701 3702 0
3718 3701 -3702 0
-3719 3718 3703 0
-3719 -3718 -3703 0
3719 -3718 3703 0
3719 3718 -3703 0
-3720 3719 3704 0
-3720 -3719 -3704 0
3720 -3719 3704 0
3720 3719 -3704 0
-3721 3720 3705 0
-3721 -3720 -3705 0
3721 -3720 3705 0
3721 3720 -3705 0
-3722 3721 3706 0
-3722 -3721 -3706 0
3722 -3721 3706 0
3722 3721 -3706 0
-3723 3722 3707 0
-3723 -3722 -3707 0
3723 -3722 3707 0
3723 3722 -3707 0
-3724 3723 3708 0
-3724 -3723 -3708 0
3724 -3723 3708 0
3724 3723 -3708 0
-3725 3724 3709 0
-3725 -3724 -3709 0
3725 -3724 3709 0
3725 3724 -3709 0
-3726 3725 3710 0
-3726 -3725 -3710 0
3726 -3725 3710 0
3726 3725 -3710 0
-3727 3726 3711 0
-3727 -3726 -3711 0
3727 -3726 3711 0
3727 3726 -3711 0
-3728 3727 3712 0
-3728 -3727 -3712 0
3728 -3727 3712 0
3728 3727 -3712 0
-3729 3728 3713 0
-3729 -3728 -3713 0
3729 -3728 3713 0
3729 3728 -3713 0
-3730 3729 3714 0
-3730 -3729 -3714 0
3730 -3729 3714 0
3730 3729 -3714 0
-3731 3730 3715 0
-3731 -3730 -3715 0
3731 -3730 3715 0
3731 3730 -3715 0
-3732 3731 3716 0
-3732 -3731 -3716 0
3732 -3731 3716 0
3732 3731 -3716 0
-3733 3732 3717 0
-3733 -3732 -3717 0
3733 -3732 3717 0
3733 3732 -3717 0
-3733 0
-3734 3519 0
-3734 39 0
3734 -3519 -39 0
-3735 3521 0
-3735 47 0
3735 -3521 -47 0
-3736 3523 0
-3736 40 0
3736 -3523 -40 0
-3737 3525 0
-3737 46 0
3737 -3525 -46 0
-3738 3527 0
-3738 44 0
3738 -3527 -44 0
-3739 3529 0
-3739 42 0
3739 -3529 -42 0
-3740 3531 0
-3740 42 0
3740 -3531 -42 0
-3741 3533 0
-3741 44 0
3741 -3533 -44 0
-3742 3535 0
-3742 46 0
3742 -3535 -46 0
-3743 3537 0
-3743 40 0
3743 -3537 -40 0
-3744 3539 0
-3744 47 0
3744 -3539 -47 0
-3745 3541 0
-3745 39 0
3745 -3541 -39 0
-3746 3543 0
-3746 87 0
3746 -3543 -87 0
-3747 3545 0
-3747 90 0
3747 -3545 -90 0
-3748 3547 0
-3748 135 0
3748 -3547 -135 0
-3749 3549 0
-3749 138 0
3749 -3549 -138 0
-3750 3551 0
-3750 183 0
3750 -3551 -183 0
-3751 3734 3735 0
-3751 -3734 -3735 0
3751 -3734 3735 0
3751 3734 -3735 0
-3752 3751 3736 0
-3752 -3751 -3736 0
3752 -3751 3736 0
3752 3751 -3736 0
-3753 3752 3737 0
-3753 -3752 -3737 0
3753 -3752 3737 0
3753 3752 -3737 0
-3754 3753 3738 0
-3754 -3753 -3738 0
3754 -3753 3738 0
3754 3753 -3738 0
-3755 3754 3739 0
-3755 -3754 -3739 0
3755 -3754 3739 0
3755 3754 -3739 0
-3756 3755 3740 0
-3756 -3755 -3740 0
3756 -3755 3740 0
3756 3755 -3740 0
-3757 3756 3741 0
-3757 -3756 -3741 0
3757 -3756 3741 0
3757 3756 -3741 0
-3758 3757 3742 0
-3758 -3757 -3742 0
3758 -3757 3742 0
3758 3757 -3742 0
-3759 3758 3743 0
-3759 -3758 -3743 0
3759 -3758 3743 0
3759 3758 -3743 0
-3760 3759 3744 0
-3760 -3759 -3744 0
3760 -3759 3744 0
3760 3759 -3744 0
-3761 3760 3745 0
-3761 -3760 -3745 0
3761 -3760 3745 0
3761 3760 -3745 0
-3762 3761 3746 0
-3762 -3761 -3746 0
3762 -3761 3746 0
3762 3761 -3746 0
-3763 3762 3747 0
-3763 -3762 -3747 0
3763 -3762 3747 0
3763 3762 -3747 0
-3764 3763 3748 0
-3764 -3763 -3748 0
3764 -3763 3748 0
3764 3763 -3748 0
-3765 3764 3749 0
-3765 -3764 -3749 0
3765 -3764 3749 0
3765 3764 -3749 0
-3766 3765 3750 0
-3766 -3765 -3750 0
3766 -3765 3750 0
3766 3765 -3750 0
-3766 0
-3767 3519 0
-3767 40 0
3767 -3519 -40 0
-3768 3521 0
-3768 46 0
3768 -3521 -46 0
-3769 3523 0
-3769 39 0
3769 -3523 -39 0
-3770 3525 0
-3770 47 0
3770 -3525 -47 0
-3771 3527 0
-3771 42 0
3771 -3527 -42 0
-3772 3529 0
-3772 44 0
3772 -3529 -44 0
-3773 3531 0
-3773 46 0
3773 -3531 -46 0
-3774 3533 0
-3774 40 0
3774 -3533 -40 0
-3775 3535 0
-3775 42 0
3775 -3535 -42 0
-3776 3537 0
-3776 44 0
3776 -3537 -44 0
-3777 3539 0
-3777 39 0
3777 -3539 -39 0
-3778 3541 0
-3778 47 0
3778 -3541 -47 0
-3779 3543 0
-3779 88 0
3779 -3543 -88 0
-3780 3545 0
-3780 94 0
3780 -3545 -94 0
-3781 3547 0
-3781 136 0
3781 -3547 -136 0
-3782 3549 0
-3782 142 0
3782 -3549 -142 0
-3783 3551 0
-3783 184 0
3783 -3551 -184 0
-3784 3767 3768 0
-3784 -3767 -3768 0
3784 -3767 3768 0
3784 3767 -3768 0
-3785 3784 3769 0
-3785 -3784 -3769 0
3785 -3784 3769 0
3785 3784 -3769 0
-3786 3785 3770 0
-3786 -3785 -3770 0
3786 -3785 3770 0
3786 3785 -3770 0
-3787 3786 3771 0
-3787 -3786 -3771 0
3787 -3786 3771 0
3787 3786 -3771 0
-3788 3787 3772 0
-3788 -3787 -3772 0
3788 -3787 3772 0
3788 3787 -3772 0
-3789 3788 3773 0
-3789 -3788 -3773 0
3789 -3788 3773 0
3789 3788 -3773 0
-3790 3789 3774 0
-3790 -3789 -3774 0
3790 -3789 3774 0
3790 3789 -3774 0
-3791 3790 3775 0
-3791 -3790 -3775 0
3791 -3790 3775 0
3791 3790 -3775 0
-3792 3791 3776 0
-3792 -3791 -3776 0
3792 -3791 3776 0
3792 3791 -3776 0
-3793 3792 3777 0
-3793 -3792 -3777 0
3793 -3792 3777 0
3793 3792 -3777 0
-3794 3793 3778 0
-3794 -3793 -3778 0
3794 -3793 3778 0
3794 3793 -3778 0
-3795 3794 3779 0
-3795 -3794 -3779 0
3795 -3794 3779 0
3795 3794 -3779 0
-3796 3795 3780 0
-3796 -3795 -3780 0
3796 -3795 3780 0
3796 3795 -3780 0
-3797 3796 3781 0
-3797 -3796 -3781 0
3797 -3796 3781 0
3797 3796 -3781 0
-3798 3797 3782 0
-3798 -3797 -3782 0
3798 -3797 3782 0
3798 3797 -3782 0
-3799 3798 3783 0
-3799 -3798 -3783 0
3799 -3798 3783 0
3799 3798 -3783 0
-3799 0
-3800 3519 0
-3800 41 0
3800 -3519 -41 0
-3801 3521 0
-3801 41 0
3801 -3521 -41 0
-3802 3523 0
-3802 45 0
3802 -3523 -45 0
-3803 3525 0
-3803 37 0
3803 -3525 -37 0
-3804 3527 0
-3804 45 0
3804 -3527 -45 0
-3805 3529 0
-3805 37 0
3805 -3529 -37 0
-3806 3531 0
-3806 35 0
3806 -3531 -35 0
-3807 3533 0
-3807 35 0
3807 -3533 -35 0
-3808 3535 0
-3808 36 0
3808 -3535 -36 0
-3809 3537 0
-3809 34 0
3809 -3537 -34 0
-3810 3539 0
-3810 36 0
3810 -3539 -36 0
-3811 3541 0
-3811 34 0
3811 -3541 -34 0
-3812 3543 0
-3812 89 0
3812 -3543 -89 0
-3813 3545 0
-3813 83 0
3813 -3545 -83 0
-3814 3547 0
-3814 137 0
3814 -3547 -137 0
-3815 3549 0
-3815 131 0
3815 -3549 -131 0
-3816 3551 0
-3816 185 0
3816 -3551 -185 0
-3817 3800 3801 0
-3817 -3800 -3801 0
3817 -3800 3801 0
3817 3800 -3801 0
-3818 3817 3802 0
-3818 -3817 -3802 0
3818 -3817 3802 0
3818 3817 -3802 0
-3819 3818 3803 0
-3819 -3818 -3803 0
3819 -3818 3803 0
3819 3818 -3803 0
-3820 3819 3804 0
-3820 -3819 -3804 0
3820 -3819 3804 0
3820 3819 -3804 0
-3821 3820 3805 0
-3821 -3820 -3805 0
3821 -3820 3805 0
3821 3820 -3805 0
-3822 3821 3806 0
-3822 -3821 -3806 0
3822 -3821 3806 0
3822 3821 -3806 0
-3823 3822 3807 0
-3823 -3822 -3807 0
3823 -3822 3807 0
3823 3822 -3807 0
-3824 3823 3808 0
-3824 -3823 -3808 0
3824 -3823 3808 0
3824 3823 -3808 0
-3825 3824 3809 0
-3825 -3824 -3809 0
3825 -3824 3809 0
3825 3824 -3809 0
-3826 3825 3810 0
-3826 -3825 -3810 0
3826 -3825 3810 0
3826 3825 -3810 0
-3827 3826 3811 0
-3827 -3826 -3811 0
3827 -3826 3811 0
3827 3826 -3811 0
-3828 3827 3812 0
-3828 -3827 -3812 0
3828 -3827 3812 0
3828 3827 -3812 0
-3829 3828 3813 0
-3829 -3828 -3813 0
3829 -3828 3813 0
3829 3828 -3813 0
-3830 3829 3814 0
-3830 -3829 -3814 0
3830 -3829 3814 0
3830 3829 -3814 0
-3831 3830 3815 0
-3831 -3830 -3815 0
3831 -3830 3815 0
3831 3830 -3815 0
-3832 3831 3816 0
-3832 -3831 -3816 0
3832 -3831 3816 0
3832 3831 -3816 0
-3832 0
-3833 3519 0
-3833 42 0
3833 -3519 -42 0
-3834 3521 0
-3834 44 0
3834 -3521 -44 0
-3835 3523 0
-3835 46 0
3835 -3523 -46 0
-3836 3525 0
-3836 40 0
3836 -3525 -40 0
-3837 3527 0
-3837 47 0
3837 -3527 -47 0
-3838 3529 0
-3838 39 0
3838 -3529 -39 0
-3839 3531 0
-3839 39 0
3839 -3531 -39 0
-3840 3533 0
-3840 47 0
3840 -3533 -47 0
-3841 3535 0
-3841 40 0
3841 -3535 -40 0
-3842 3537 0
-3842 46 0
3842 -3537 -46 0
-3843 3539 0
-3843 44 0
3843 -3539 -44 0
-3844 3541 0
-3844 42 0
3844 -3541 -42 0
-3845 3543 0
-3845 90 0
3845 -3543 -90 0
-3846 3545 0
-3846 87 0
3846 -3545 -87 0
-3847 3547 0
-3847 138 0
3847 -3547 -138 0
-3848 3549 0
-3848 135 0
3848 -3549 -135 0
-3849 3551 0
-3849 186 0
3849 -3551 -186 0
-3850 3833 3834 0
-3850 -3833 -3834 0
3850 -3833 3834 0
3850 3833 -3834 0
-3851 3850 3835 0
-3851 -3850 -3835 0
3851 -3850 3835 0
3851 3850 -3835 0
-3852 3851 3836 0
-3852 -3851 -3836 0
3852 -3851 3836 0
3852 3851 -3836 0
-3853 3852 3837 0
-3853 -3852 -3837 0
3853 -3852 3837 0
3853 3852 -3837 0
-3854 3853 3838 0
-3854 -3853 -3838 0
3854 -3853 3838 0
3854 3853 -3838 0
-3855 3854 3839 0
-3855 -3854 -3839 0
3855 -3854 3839 0
3855 3854 -3839 0
-3856 3855 3840 0
-3856 -3855 -3840 0
3856 -3855 3840 0
3856 3855 -3840 0
-3857 3856 3841 0
-3857 -3856 -3841 0
3857 -3856 3841 0
3857 3856 -3841 0
-3858 3857 3842 0
-3858 -3857 -3842 0
3858 -3857 3842 0
3858 3857 -3842 0
-3859 3858 3843 0
-3859 -3858 -3843 0
3859 -3858 3843 0
3859 3858 -3843 0
-3860 3859 3844 0
-3860 -3859 -3844 0
3860 -3859 3844 0
3860 3859 -3844 0
-3861 3860 3845 0
-3861 -3860 -3845 0
3861 -3860 3845 0
3861 3860 -3845 0
-3862 3861 3846 0
-3862 -3861 -3846 0
3862 -3861 3846 0
3862 3861 -3846 0
-3863 3862 3847 0
-3863 -3862 -3847 0
3863 -3862 3847 0
3863 3862 -3847 0
-3864 3863 3848 0
-3864 -3863 -3848 0
3864 -3863 3848 0
3864 3863 -3848 0
-3865 3864 3849 0
-3865 -3864 -3849 0
3865 -3864 3849 0
3865 3864 -3849 0
-3865 0
-3866 3519 0
-3866 43 0
3866 -3519 -43 0
-3867 3521 0
-3867 43 0
3867 -3521 -43 0
-3868 3523 0
-3868 48 0
3868 -3523 -48 0
-3869 3525 0
-3869 38 0
3869 -3525 -38 0
-3870 3527 0
-3870 48 0
3870 -3527 -48 0
-3871 3529 0
-3871 38 0
3871 -3529 -38 0
-3872 3531 0
-3872 43 0
3872 -3531 -43 0
-3873 3533 0
-3873 43 0
3873 -3533 -43 0
-3874 3535 0
-3874 48 0
3874 -3535 -48 0
-3875 3537 0
-3875 38 0
3875 -3537 -38 0
-3876 3539 0
-3876 48 0
3876 -3539 -48 0
-3877 3541 0
-3877 38 0
3877 -3541 -38 0
-3878 3543 0
-3878 91 0
3878 -3543 -91 0
-3879 3545 0
-3879 91 0
3879 -3545 -91 0
-3880 3547 0
-3880 139 0
3880 -3547 -139 0
-3881 3549 0
-3881 139 0
3881 -3549 -139 0
-3882 3551 0
-3882 187 0
3882 -3551 -187 0
-3883 3866 3867 0
-3883 -3866 -3867 0
3883 -3866 3867 0
3883 3866 -3867 0
-3884 3883 3868 0
-3884 -3883 -3868 0
3884 -3883 3868 0
3884 3883 -3868 0
-3885 3884 3869 0
-3885 -3884 -3869 0
3885 -3884 3869 0
3885 3884 -3869 0
-3886 3885 3870 0
-3886 -3885 -3870 0
3886 -3885 3870 0
3886 3885 -3870 0
-3887 3886 3871 0
-3887 -3886 -3871 0
3887 -3886 3871 0
3887 3886 -3871 0
-3888 3887 3872 0
-3888 -3887 -3872 0
3888 -3887 3872 0
3888 3887 -3872 0
-3889 3888 3873 0
-3889 -3888 -3873 0
3889 -3888 3873 0
3889 3888 -3873 0
-3890 3889 3874 0
-3890 -3889 -3874 0
3890 -3889 3874 0
3890 3889 -3874 0
-3891 3890 3875 0
-3891 -3890 -3875 0
3891 -3890 3875 0
3891 3890 -3875 0
-3892 3891 3876 0
-3892 -3891 -3876 0
3892 -3891 3876 0
3892 3891 -3876 0
-3893 3892 3877 0
-3893 -3892 -3877 0
3893 -3892 3877 0
3893 3892 -3877 0
-3894 3893 3878 0
-3894 -3893 -3878 0
3894 -3893 3878 0
3894 3893 -3878 0
-3895 3894 3879 0
-3895 -3894 -3879 0
3895 -3894 3879 0
3895 3894 -3879 0
-3896 3895 3880 0
-3896 -3895 -3880 0
3896 -3895 3880 0
3896 3895 -3880 0
-3897 3896 3881 0
-3897 -3896 -3881 0
3897 -3896 3881 0
3897 3896 -3881 0
-3898 3897 3882 0
-3898 -3897 -3882 0
3898 -3897 3882 0
3898 3897 -3882 0
-3898 0
-3899 3519 0
-3899 44 0
3899 -3519 -44 0
-3900 3521 0
-3900 42 0
3900 -3521 -42 0
-3901 3523 0
-3901 47 0
3901 -3523 -47 0
-3902 3525 0
-3902 39 0
3902 -3525 -39 0
-3903 3527 0
-3903 46 0
3903 -3527 -46 0
-3904 3529 0
-3904 40 0
3904 -3529 -40 0
-3905 3531 0
-3905 47 0
3905 -3531 -47 0
-3906 3533 0
-3906 39 0
3906 -3533 -39 0
-3907 3535 0
-3907 44 0
3907 -3535 -44 0
-3908 3537 0
-3908 42 0
3908 -3537 -42 0
-3909 3539 0
-3909 40 0
3909 -3539 -40 0
-3910 3541 0
-3910 46 0
3910 -3541 -46 0
-3911 3543 0
-3911 92 0
3911 -3543 -92 0
-3912 3545 0
-3912 95 0
3912 -3545 -95 0
-3913 3547 0
-3913 140 0
3913 -3547 -140 0
-3914 3549 0
-3914 143 0
3914 -3549 -143 0
-3915 3551 0
-3915 188 0
3915 -3551 -188 0
-3916 3899 3900 0
-3916 -3899 -3900 0
3916 -3899 3900 0
3916 3899 -3900 0
-3917 3916 3901 0
-3917 -3916 -3901 0
3917 -3916 3901 0
3917 3916 -3901 0
-3918 3917 3902 0
-3918 -3917 -3902 0
3918 -3917 3902 0
3918 3917 -3902 0
-3919 3918 3903 0
-3919 -3918 -3903 0
3919 -3918 3903 0
3919 3918 -3903 0
-3920 3919 3904 0
-3920 -3919 -3904 0
3920 -3919 3904 0
3920 3919 -3904 0
-3921 3920 3905 0
-3921 -3920 -3905 0
3921 -3920 3905 0
3921 3920 -3905 0
-3922 3921 3906 0
-3922 -3921 -3906 0
3922 -3921 3906 0
3922 3921 -3906 0
-3923 3922 3907 0
-3923 -3922 -3907 0
3923 -3922 3907 0
3923 3922 -3907 0
-3924 3923 3908 0
-3924 -3923 -3908 0
3924 -3923 3908 0
3924 3923 -3908 0
-3925 3924 3909 0
-3925 -3924 -3909 0
3925 -3924 3909 0
3925 3924 -3909 0
-3926 3925 3910 0
-3926 -3925 -3910 0
3926 -3925 3910 0
3926 3925 -3910 0
-3927 3926 3911 0
-3927 -3926 -3911 0
3927 -3926 3911 0
3927 3926 -3911 0
-3928 3927 3912 0
-3928 -3927 -3912 0
3928 -3927 3912 0
3928 3927 -3912 0
-3929 3928 3913 0
-3929 -3928 -3913 0
3929 -3928 3913 0
3929 3928 -3913 0
-3930 3929 3914 0
-3930 -3929 -3914 0
3930 -3929 3914 0
3930 3929 -3914 0
-3931 3930 3915 0
-3931 -3930 -3915 0
3931 -3930 3915 0
3931 3930 -3915 0
-3931 0
-3932 3519 0
-3932 45 0
3932 -3519 -45 0
-3933 3521 0
-3933 37 0
3933 -3521 -37 0
-3934 3523 0
-3934 41 0
3934 -3523 -41 0
-3935 3525 0
-3935 41 0
3935 -3525 -41 0
-3936 3527 0
-3936 37 0
3936 -3527 -37 0
-3937 3529 0
-3937 45 0
3937 -3529 -45 0
-3938 3531 0
-3938 36 0
3938 -3531 -36 0
-3939 3533 0
-3939 34 0
3939 -3533 -34 0
-3940 3535 0
-3940 35 0
3940 -3535 -35 0
-3941 3537 0
-3941 35 0
3941 -3537 -35 0
-3942 3539 0
-3942 34 0
3942 -3539 -34 0
-3943 3541 0
-3943 36 0
3943 -3541 -36 0
-3944 3543 0
-3944 93 0
3944 -3543 -93 0
-3945 3545 0
-3945 84 0
3945 -3545 -84 0
-3946 3547 0
-3946 141 0
3946 -3547 -141 0
-3947 3549 0
-3947 132 0
3947 -3549 -132 0
-3948 3551 0
-3948 189 0
3948 -3551 -189 0
-3949 3932 3933 0
-3949 -3932 -3933 0
3949 -3932 3933 0
3949 3932 -3933 0
-3950 3949 3934 0
-3950 -3949 -3934 0
3950 -3949 3934 0
3950 3949 -3934 0
-3951 3950 3935 0
-3951 -3950 -3935 0
3951 -3950 3935 0
3951 3950 -3935 0
-3952 3951 3936 0
-3952 -3951 -3936 0
3952 -3951 3936 0
3952 3951 -3936 0
-3953 3952 3937 0
-3953 -3952 -3937 0
3953 -3952 3937 0
3953 3952 -3937 0
-3954 3953 3938 0
-3954 -3953 -3938 0
3954 -3953 3938 0
3954 3953 -3938 0
-3955 3954 3939 0
-3955 -3954 -3939 0
3955 -3954 3939 0
3955 3954 -3939 0
-3956 3955 3940 0
-3956 -3955 -3940 0
3956 -3955 3940 0
3956 3955 -3940 0
-3957 3956 3941 0
-3957 -3956 -3941 0
3957 -3956 3941 0
3957 3956 -3941 0
-3958 3957 3942 0
-3958 -3957 -3942 0
3958 -3957 3942 0
3958 3957 -3942 0
-3959 3958 3943 0
-3959 -3958 -3943 0
3959 -3958 3943 0
3959 3958 -3943 0
-3960 3959 3944 0
-3960 -3959 -3944 0
3960 -3959 3944 0
3960 3959 -3944 0
-3961 3960 3945 0
-3961 -3960 -3945 0
3961 -3960 3945 0
3961 3960 -3945 0
-3962 3961 3946 0
-3962 -3961 -3946 0
3962 -3961 3946 0
3962 3961 -3946 0
-3963 3962 3947 0
-3963 -3962 -3947 0
3963 -3962 3947 0
3963 3962 -3947 0
-3964 3963 3948 0
-3964 -3963 -3948 0
3964 -3963 3948 0
3964 3963 -3948 0
-3964 0
-3965 3519 0
-3965 46 0
3965 -3519 -46 0
-3966 3521 0
-3966 40 0
3966 -3521 -40 0
-3967 3523 0
-3967 42 0
3967 -3523 -42 0
-3968 3525 0
-3968 44 0
3968 -3525 -44 0
-3969 3527 0
-3969 39 0
3969 -3527 -39 0
-3970 3529 0
-3970 47 0
3970 -3529 -47 0
-3971 3531 0
-3971 40 0
3971 -3531 -40 0
-3972 3533 0
-3972 46 0
3972 -3533 -46 0
-3973 3535 0
-3973 39 0
3973 -3535 -39 0
-3974 3537 0
-3974 47 0
3974 -3537 -47 0
-3975 3539 0
-3975 42 0
3975 -3539 -42 0
-3976 3541 0
-3976 44 0
3976 -3541 -44 0
-3977 3543 0
-3977 94 0
3977 -3543 -94 0
-3978 3545 0
-3978 88 0
3978 -3545 -88 0
-3979 3547 0
-3979 142 0
3979 -3547 -142 0
-3980 3549 0
-3980 136 0
3980 -3549 -136 0
-3981 3551 0
-3981 190 0
3981 -3551 -190 0
-3982 3965 3966 0
-3982 -3965 -3966 0
3982 -3965 3966 0
3982 3965 -3966 0
-3983 3982 3967 0
-3983 -3982 -3967 0
3983 -3982 3967 0
3983 3982 -3967 0
-3984 3983 3968 0
-3984 -3983 -3968 0
3984 -3983 3968 0
3984 3983 -3968 0
-3985 3984 3969 0
-3985 -3984 -3969 0
3985 -3984 3969 0
3985 3984 -3969 0
-3986 3985 3970 0
-3986 -3985 -3970 0
3986 -3985 3970 0
3986 3985 -3970 0
-3987 3986 3971 0
-3987 -3986 -3971 0
3987 -3986 3971 0
3987 3986 -3971 0
-3988 3987 3972 0
-3988 -3987 -3972 0
3988 -3987 3972 0
3988 3987 -3972 0
-3989 3988 3973 0
-3989 -3988 -3973 0
3989 -3988 3973 0
3989 3988 -3973 0
-3990 3989 3974 0
-3990 -3989 -3974 0
3990 -3989 3974 0
3990 3989 -3974 0
-3991 3990 3975 0
-3991 -3990 -3975 0
3991 -3990 3975 0
3991 3990 -3975 0
-3992 3991 3976 0
-3992 -3991 -3976 0
3992 -3991 3976 0
3992 3991 -3976 0
-3993 3992 3977 0
-3993 -3992 -3977 0
3993 -3992 3977 0
3993 3992 -3977 0
-3994 3993 3978 0
-3994 -3993 -3978 0
3994 -3993 3978 0
3994 3993 -3978 0
-3995 3994 3979 0
-3995 -3994 -3979 0
3995 -3994 3979 0
3995 3994 -3979 0
-3996 3995 3980 0
-3996 -3995 -3980 0
3996 -3995 3980 0
3996 3995 -3980 0
-3997 3996 3981 0
-3997 -3996 -3981 0
3997 -3996 3981 0
3997 3996 -3981 0
-3997 0
-3998 3519 0
-3998 47 0
3998 -3519 -47 0
-3999 3521 0
-3999 39 0
3999 -3521 -39 0
-4000 3523 0
-4000 44 0
4000 -3523 -44 0
-4001 3525 0
-4001 42 0
4001 -3525 -42 0
-4002 3527 0
-4002 40 0
4002 -3527 -40 0
-4003 3529 0
-4003 46 0
4003 -3529 -46 0
-4004 3531 0
-4004 44 0
4004 -3531 -44 0
-4005 3533 0
-4005 42 0
4005 -3533 -42 0
-4006 3535 0
-4006 47 0
4006 -3535 -47 0
-4007 3537 0
-4007 39 0
4007 -3537 -39 0
-4008 3539 0
-4008 46 0
4008 -3539 -46 0
-4009 3541 0
-4009 40 0
4009 -3541 -40 0
-4010 3543 0
-4010 95 0
4010 -3543 -95 0
-4011 3545 0
-4011 92 0
4011 -3545 -92 0
-4012 3547 0
-4012 143 0
4012 -3547 -143 0
-4013 3549 0
-4013 140 0
4013 -3549 -140 0
-4014 3551 0
-4014 191 0
4014 -3551 -191 0
-4015 3998 3999 0
-4015 -3998 -3999 0
4015 -3998 3999 0
4015 3998 -3999 0
-4016 4015 4000 0
-4016 -4015 -4000 0
4016 -4015 4000 0
4016 4015 -4000 0
-4017 4016 4001 0
-4017 -4016 -4001 0
4017 -4016 4001 0
4017 4016 -4001 0
-4018 4017 4002 0
-4018 -4017 -4002 0
4018 -4017 4002 0
4018 4017 -4002 0
-4019 4018 4003 0
-4019 -4018 -4003 0
4019 -4018 4003 0
4019 4018 -4003 0
-4020 4019 4004 0
-4020 -4019 -4004 0
4020 -4019 4004 0
4020 4019 -4004 0
-4021 4020 4005 0
-4021 -4020 -4005 0
4021 -4020 4005 0
4021 4020 -4005 0
-4022 4021 4006 0
-4022 -4021 -4006 0
4022 -4021 4006 0
4022 4021 -4006 0
-4023 4022 4007 0
-4023 -4022 -4007 0
4023 -4022 4007 0
4023 4022 -4007 0
-4024 4023 4008 0
-4024 -4023 -4008 0
4024 -4023 4008 0
4024 4023 -4008 0
-4025 4024 4009 0
-4025 -4024 -4009 0
4025 -4024 4009 0
4025 4024 -4009 0
-4026 4025 4010 0
-4026 -4025 -4010 0
4026 -4025 4010 0
4026 4025 -4010 0
-4027 4026 4011 0
-4027 -4026 -4011 0
4027 -4026 4011 0
4027 4026 -4011 0
-4028 4027 4012 0
-4028 -4027 -4012 0
4028 -4027 4012 0
4028 4027 -4012 0
-4029 4028 4013 0
-4029 -4028 -4013 0
4029 -4028 4013 0
4029 4028 -4013 0
-4030 4029 4014 0
-4030 -4029 -4014 0
4030 -4029 4014 0
4030 4029 -4014 0
-4030 0
-4031 3519 0
-4031 48 0
4031 -3519 -48 0
-4032 3521 0
-4032 38 0
4032 -3521 -38 0
-4033 3523 0
-4033 43 0
4033 -3523 -43 0
-4034 3525 0
-4034 43 0
4034 -3525 -43 0
-4035 3527 0
-4035 38 0
4035 -3527 -38 0
-4036 3529 0
-4036 48 0
4036 -3529 -48 0
-4037 3531 0
-4037 48 0
4037 -3531 -48 0
-4038 3533 0
-4038 38 0
4038 -3533 -38 0
-4039 3535 0
-4039 43 0
4039 -3535 -43 0
-4040 3537 0
-4040 43 0
4040 -3537 -43 0
-4041 3539 0
-4041 38 0
4041 -3539 -38 0
-4042 3541 0
-4042 48 0
4042 -3541 -48 0
-4043 3543 0
-4043 96 0
4043 -3543 -96 0
-4044 3545 0
-4044 96 0
4044 -3545 -96 0
-4045 3547 0
-4045 144 0
4045 -3547 -144 0
-4046 3549 0
-4046 144 0
4046 -3549 -144 0
-4047 3551 0
-4047 192 0
4047 -3551 -192 0
-4048 4031 4032 0
-4048 -4031 -4032 0
4048 -4031 4032 0
4048 4031 -4032 0
-4049 4048 4033 0
-4049 -4048 -4033 0
4049 -4048 4033 0
4049 4048 -4033 0
-4050 4049 4034 0
-4050 -4049 -4034 0
4050 -4049 4034 0
4050 4049 -4034 0
-4051 4050 4035 0
-4051 -4050 -4035 0
4051 -4050 4035 0
4051 4050 -4035 0
-4052 4051 4036 0
-4052 -4051 -4036 0
4052 -4051 4036 0
4052 4051 -4036 0
-4053 4052 4037 0
-4053 -4052 -4037 0
4053 -4052 4037 0
4053 4052 -4037 0
-4054 4053 4038 0
-4054 -4053 -4038 0
4054 -4053 4038 0
4054 4053 -4038 0
-4055 4054 4039 0
-4055 -4054 -4039 0
4055 -4054 4039 0
4055 4054 -4039 0
-4056 4055 4040 0
-4056 -4055 -4040 0
4056 -4055 4040 0
4056 4055 -4040 0
-4057 4056 4041 0
-4057 -4056 -4041 0
4057 -4056 4041 0
4057 4056 -4041 0
-4058 4057 4042 0
-4058 -4057 -4042 0
4058 -4057 4042 0
4058 4057 -4042 0
-4059 4058 4043 0
-4059 -4058 -4043 0
4059 -4058 4043 0
4059 4058 -4043 0
-4060 4059 4044 0
-4060 -4059 -4044 0
4060 -4059 4044 0
4060 4059 -4044 0
-4061 4060 4045 0
-4061 -4060 -4045 0
4061 -4060 4045 0
4061 4060 -4045 0
-4062 4061 4046 0
-4062 -4061 -4046 0
4062 -4061 4046 0
4062 4061 -4046 0
-4063 4062 4047 0
-4063 -4062 -4047 0
4063 -4062 4047 0
4063 4062 -4047 0
-4063 0
-4064 1 0
-4064 31 0
4064 -1 -31 0
-4065 4064 0
-4065 33 0
4065 -4064 -33 0
-4066 2 0
-4066 32 0
4066 -2 -32 0
-4067 4066 0
-4067 33 0
4067 -4066 -33 0
-4068 3 0
-4068 30 0
4068 -3 -30 0
-4069 4068 0
-4069 33 0
4069 -4068 -33 0
-4070 17 0
-4070 12 0
4070 -17 -12 0
-4071 4070 0
-4071 33 0
4071 -4070 -33 0
-4072 21 0
-4072 16 0
4072 -21 -16 0
-4073 4072 0
-4073 33 0
4073 -4072 -33 0
-4074 25 0
-4074 8 0
4074 -25 -8 0
-4075 4074 0
-4075 33 0
4075 -4074 -33 0
-4076 49 0
-4076 79 0
4076 -49 -79 0
-4077 4076 0
-4077 81 0
4077 -4076 -81 0
-4078 65 0
-4078 60 0
4078 -65 -60 0
-4079 4078 0
-4079 81 0
4079 -4078 -81 0
-4080 97 0
-4080 127 0
4080 -97 -127 0
-4081 4080 0
-4081 129 0
4081 -4080 -129 0
-4082 113 0
-4082 108 0
4082 -113 -108 0
-4083 4082 0
-4083 129 0
4083 -4082 -129 0
-4084 145 0
-4084 175 0
4084 -145 -175 0
-4085 4084 0
-4085 177 0
4085 -4084 -177 0
-4086 4065 4065 0
-4086 -4065 -4065 0
4086 -4065 4065 0
4086 4065 -4065 0
-4087 4086 4067 0
-4087 -4086 -4067 0
4087 -4086 4067 0
4087 4086 -4067 0
-4088 4087 4069 0
-4088 -4087 -4069 0
4088 -4087 4069 0
4088 4087 -4069 0
-4089 4088 4067 0
-4089 -4088 -4067 0
4089 -4088 4067 0
4089 4088 -4067 0
-4090 4089 4069 0
-4090 -4089 -4069 0
4090 -4089 4069 0
4090 4089 -4069 0
-4091 4090 4071 0
-4091 -4090 -4071 0
4091 -4090 4071 0
4091 4090 -4071 0
-4092 4091 4071 0
-4092 -4091 -4071 0
4092 -4091 4071 0
4092 4091 -4071 0
-4093 4092 4073 0
-4093 -4092 -4073 0
4093 -4092 4073 0
4093 4092 -4073 0
-4094 4093 4075 0
-4094 -4093 -4075 0
4094 -4093 4075 0
4094 4093 -4075 0
-4095 4094 4073 0
-4095 -4094 -4073 0
4095 -4094 4073 0
4095 4094 -4073 0
-4096 4095 4075 0
-4096 -4095 -4075 0
4096 -4095 4075 0
4096 4095 -4075 0
-4097 4096 4077 0
-4097 -4096 -4077 0
4097 -4096 4077 0
4097 4096 -4077 0
-4098 4097 4079 0
-4098 -4097 -4079 0
4098 -4097 4079 0
4098 4097 -4079 0
-4099 4098 4081 0
-4099 -4098 -4081 0
4099 -4098 4081 0
4099 4098 -4081 0
-4100 4099 4083 0
-4100 -4099 -4083 0
4100 -4099 4083 0
4100 4099 -4083 0
-4101 4100 4085 0
-4101 -4100 -4085 0
4101 -4100 4085 0
4101 4100 -4085 0
-4101 0
-4102 4064 0
-4102 34 0
4102 -4064 -34 0
-4103 4064 0
-4103 36 0
4103 -4064 -36 0
-4104 4066 0
-4104 34 0
4104 -4066 -34 0
-4105 4068 0
-4105 36 0
4105 -4068 -36 0
-4106 4066 0
-4106 35 0
4106 -4066 -35 0
-4107 4068 0
-4107 35 0
4107 -4068 -35 0
-4108 4070 0
-4108 37 0
4108 -4070 -37 0
-4109 4070 0
-4109 45 0
4109 -4070 -45 0
-4110 4072 0
-4110 37 0
4110 -4072 -37 0
-4111 4074 0
-4111 45 0
4111 -4074 -45 0
-4112 4072 0
-4112 41 0
4112 -4072 -41 0
-4113 4074 0
-4113 41 0
4113 -4074 -41 0
-4114 4076 0
-4114 82 0
4114 -4076 -82 0
-4115 4078 0
-4115 85 0
4115 -4078 -85 0
-4116 4080 0
-4116 130 0
4116 -4080 -130 0
-4117 4082 0
-4117 133 0
4117 -4082 -133 0
-4118 4084 0
-4118 178 0
4118 -4084 -178 0
-4119 4102 4103 0
-4119 -4102 -4103 0
4119 -4102 4103 0
4119 4102 -4103 0
-4120 4119 4104 0
-4120 -4119 -4104 0
4120 -4119 4104 0
4120 4119 -4104 0
-4121 4120 4105 0
-4121 -4120 -4105 0
4121 -4120 4105 0
4121 4120 -4105 0
-4122 4121 4106 0
-4122 -4121 -4106 0
4122 -4121 4106 0
4122 4121 -4106 0
-4123 4122 4107 0
-4123 -4122 -4107 0
4123 -4122 4107 0
4123 4122 -4107 0
-4124 4123 4108 0
-4124 -4123 -4108 0
4124 -4123 4108 0
4124 4123 -4108 0
-4125 4124 4109 0
-4125 -4124 -4109 0
4125 -4124 4109 0
4125 4124 -4109 0
-4126 4125 4110 0
-4126 -4125 -4110 0
4126 -4125 4110 0
4126 4125 -4110 0
-4127 4126 4111 0
-4127 -4126 -4111 0
4127 -4126 4111 0
4127 4126 -4111 0
-4128 4127 4112 0
-4128 -4127 -4112 0
4128 -4127 4112 0
4128 4127 -4112 0
-4129 4128 4113 0
-4129 -4128 -4113 0
4129 -4128 4113 0
4129 4128 -4113 0
-4130 4129 4114 0
-4130 -4129 -4114 0
4130 -4129 4114 0
4130 4129 -4114 0
-4131 4130 4115 0
-4131 -4130 -4115 0
4131 -4130 4115 0
4131 4130 -4115 0
-4132 4131 4116 0
-4132 -4131 -4116 0
4132 -4131 4116 0
4132 4131 -4116 0
-4133 4132 4117 0
-4133 -4132 -4117 0
4133 -4132 4117 0
4133 4132 -4117 0
-4134 4133 4118 0
-4134 -4133 -4118 0
4134 -4133 4118 0
4134 4133 -4118 0
-4134 0
-4135 4064 0
-4135 35 0
4135 -4064 -35 0
-4136 4066 0
-4136 36 0
4136 -4066 -36 0
-4137 4068 0
-4137 34 0
4137 -4068 -34 0
-4138 4070 0
-4138 41 0
4138 -4070 -41 0
-4139 4072 0
-4139 45 0
4139 -4072 -45 0
-4140 4074 0
-4140 37 0
4140 -4074 -37 0
-4141 4076 0
-4141 83 0
4141 -4076 -83 0
-4142 4078 0
-4142 89 0
4142 -4078 -89 0
-4143 4080 0
-4143 131 0
4143 -4080 -131 0
-4144 4082 0
-4144 137 0
4144 -4082 -137 0
-4145 4084 0
-4145 179 0
4145 -4084 -179 0
-4146 4135 4135 0
-4146 -4135 -4135 0
4146 -4135 4135 0
4146 4135 -4135 0
-4147 4146 4136 0
-4147 -4146 -4136 0
4147 -4146 4136 0
4147 4146 -4136 0
-4148 4147 4137 0
-4148 -4147 -4137 0
4148 -4147 4137 0
4148 4147 -4137 0
-4149 4148 4136 0
-4149 -4148 -4136 0
4149 -4148 4136 0
4149 4148 -4136 0
-4150 4149 4137 0
-4150 -4149 -4137 0
4150 -4149 4137 0
4150 4149 -4137 0
-4151 4150 4138 0
-4151 -4150 -4138 0
4151 -4150 4138 0
4151 4150 -4138 0
-4152 4151 4138 0
-4152 -4151 -4138 0
4152 -4151 4138 0
4152 4151 -4138 0
-4153 4152 4139 0
-4153 -4152 -4139 0
4153 -4152 4139 0
4153 4152 -4139 0
-4154 4153 4140 0
-4154 -4153 -4140 0
4154 -4153 4140 0
4154 4153 -4140 0
-4155 4154 4139 0
-4155 -4154 -4139 0
4155 -4154 4139 0
4155 4154 -4139 0
-4156 4155 4140 0
-4156 -4155 -4140 0
4156 -4155 4140 0
4156 4155 -4140 0
-4157 4156 4141 0
-4157 -4156 -4141 0
4157 -4156 4141 0
4157 4156 -4141 0
-4158 4157 4142 0
-4158 -4157 -4142 0
4158 -4157 4142 0
4158 4157 -4142 0
-4159 4158 4143 0
-4159 -4158 -4143 0
4159 -4158 4143 0
4159 4158 -4143 0
-4160 4159 4144 0
-4160 -4159 -4144 0
4160 -4159 4144 0
4160 4159 -4144 0
-4161 4160 4145 0
-4161 -4160 -4145 0
4161 -4160 4145 0
4161 4160 -4145 0
-4161 0
-4162 4064 0
-4162 37 0
4162 -4064 -37 0
-4163 4064 0
-4163 45 0
4163 -4064 -45 0
-4164 4066 0
-4164 37 0
4164 -4066 -37 0
-4165 4068 0
-4165 45 0
4165 -4068 -45 0
-4166 4066 0
-4166 41 0
4166 -4066 -41 0
-4167 4068 0
-4167 41 0
4167 -4068 -41 0
-4168 4070 0
-4168 34 0
4168 -4070 -34 0
-4169 4070 0
-4169 36 0
4169 -4070 -36 0
-4170 4072 0
-4170 34 0
4170 -4072 -34 0
-4171 4074 0
-4171 36 0
4171 -4074 -36 0
-4172 4072 0
-4172 35 0
4172 -4072 -35 0
-4173 4074 0
-4173 35 0
4173 -4074 -35 0
-4174 4076 0
-4174 85 0
4174 -4076 -85 0
-4175 4078 0
-4175 82 0
4175 -4078 -82 0
-4176 4080 0
-4176 133 0
4176 -4080 -133 0
-4177 4082 0
-4177 130 0
4177 -4082 -130 0
-4178 4084 0
-4178 181 0
4178 -4084 -181 0
-4179 4162 4163 0
-4179 -4162 -4163 0
4179 -4162 4163 0
4179 4162 -4163 0
-4180 4179 4164 0
-4180 -4179 -4164 0
4180 -4179 4164 0
4180 4179 -4164 0
-4181 4180 4165 0
-4181 -4180 -4165 0
4181 -4180 4165 0
4181 4180 -4165 0
-4182 4181 4166 0
-4182 -4181 -4166 0
4182 -4181 4166 0
4182 4181 -4166 0
-4183 4182 4167 0
-4183 -4182 -4167 0
4183 -4182 4167 0
4183 4182 -4167 0
-4184 4183 4168 0
-4184 -4183 -4168 0
4184 -4183 4168 0
4184 4183 -4168 0
-4185 4184 4169 0
-4185 -4184 -4169 0
4185 -4184 4169 0
4185 4184 -4169 0
-4186 4185 4170 0
-4186 -4185 -4170 0
4186 -4185 4170 0
4186 4185 -4170 0
-4187 4186 4171 0
-4187 -4186 -4171 0
4187 -4186 4171 0
4187 4186 -4171 0
-4188 4187 4172 0
-4188 -4187 -4172 0
4188 -4187 4172 0
4188 4187 -4172 0
-4189 4188 4173 0
-4189 -4188 -4173 0
4189 -4188 4173 0
4189 4188 -4173 0
-4190 4189 4174 0
-4190 -4189 -4174 0
4190 -4189 4174 0
4190 4189 -4174 0
-4191 4190 4175 0
-4191 -4190 -4175 0
4191 -4190 4175 0
4191 4190 -4175 0
-4192 4191 4176 0
-4192 -4191 -4176 0
4192 -4191 4176 0
4192 4191 -4176 0
-4193 4192 4177 0
-4193 -4192 -4177 0
4193 -4192 4177 0
4193 4192 -4177 0
-4194 4193 4178 0
-4194 -4193 -4178 0
4194 -4193 4178 0
4194 4193 -4178 0
-4194 0
-4195 4064 0
-4195 38 0
4195 -4064 -38 0
-4196 4064 0
-4196 48 0
4196 -4064 -48 0
-4197 4066 0
-4197 38 0
4197 -4066 -38 0
-4198 4068 0
-4198 48 0
4198 -4068 -48 0
-4199 4066 0
-4199 43 0
4199 -4066 -43 0
-4200 4068 0
-4200 43 0
4200 -4068 -43 0
-4201 4070 0
-4201 38 0
4201 -4070 -38 0
-4202 4070 0
-4202 48 0
4202 -4070 -48 0
-4203 4072 0
-4203 38 0
4203 -4072 -38 0
-4204 4074 0
-4204 48 0
4204 -4074 -48 0
-4205 4072 0
-4205 43 0
4205 -4072 -43 0
-4206 4074 0
-4206 43 0
4206 -4074 -43 0
-4207 4076 0
-4207 86 0
4207 -4076 -86 0
-4208 4078 0
-4208 86 0
4208 -4078 -86 0
-4209 4080 0
-4209 134 0
4209 -4080 -134 0
-4210 4082 0
-4210 134 0
4210 -4082 -134 0
-4211 4084 0
-4211 182 0
4211 -4084 -182 0
-4212 4195 4196 0
-4212 -4195 -4196 0
4212 -4195 4196 0
4212 4195 -4196 0
-4213 4212 4197 0
-4213 -4212 -4197 0
4213 -4212 4197 0
4213 4212 -4197 0
-4214 4213 4198 0
-4214 -4213 -4198 0
4214 -4213 4198 0
4214 4213 -4198 0
-4215 4214 4199 0
-4215 -4214 -4199 0
4215 -4214 4199 0
4215 4214 -4199 0
-4216 4215 4200 0
-4216 -4215 -4200 0
4216 -4215 4200 0
4216 4215 -4200 0
-4217 4216 4201 0
-4217 -4216 -4201 0
4217 -4216 4201 0
4217 4216 -4201 0
-4218 4217 4202 0
-4218 -4217 -4202 0
4218 -4217 4202 0
4218 4217 -4202 0
-4219 4218 4203 0
-4219 -4218 -4203 0
4219 -4218 4203 0
4219 4218 -4203 0
-4220 4219 4204 0
-4220 -4219 -4204 0
4220 -4219 4204 0
4220 4219 -4204 0
-4221 4220 4205 0
-4221 -4220 -4205 0
4221 -4220 4205 0
4221 4220 -4205 0
-4222 4221 4206 0
-4222 -4221 -4206 0
4222 -4221 4206 0
4222 4221 -4206 0
-4223 4222 4207 0
-4223 -4222 -4207 0
4223 -4222 4207 0
4223 4222 -4207 0
-4224 4223 4208 0
-4224 -4223 -4208 0
4224 -4223 4208 0
4224 4223 -4208 0
-4225 4224 4209 0
-4225 -4224 -4209 0
4225 -4224 4209 0
4225 4224 -4209 0
-4226 4225 4210 0
-4226 -4225 -4210 0
4226 -4225 4210 0
4226 4225 -4210 0
-4227 4226 4211 0
-4227 -4226 -4211 0
4227 -4226 4211 0
4227 4226 -4211 0
-4227 0
-4228 4064 0
-4228 39 0
4228 -4064 -39 0
-4229 4064 0
-4229 47 0
4229 -4064 -47 0
-4230 4066 0
-4230 40 0
4230 -4066 -40 0
-4231 4068 0
-4231 46 0
4231 -4068 -46 0
-4232 4066 0
-4232 44 0
4232 -4066 -44 0
-4233 4068 0
-4233 42 0
4233 -4068 -42 0
-4234 4070 0
-4234 42 0
4234 -4070 -42 0
-4235 4070 0
-4235 44 0
4235 -4070 -44 0
-4236 4072 0
-4236 46 0
4236 -4072 -46 0
-4237 4074 0
-4237 40 0
4237 -4074 -40 0
-4238 4072 0
-4238 47 0
4238 -4072 -47 0
-4239 4074 0
-4239 39 0
4239 -4074 -39 0
-4240 4076 0
-4240 87 0
4240 -4076 -87 0
-4241 4078 0
-4241 90 0
4241 -4078 -90 0
-4242 4080 0
-4242 135 0
4242 -4080 -135 0
-4243 4082 0
-4243 138 0
4243 -4082 -138 0
-4244 4084 0
-4244 183 0
4244 -4084 -183 0
-4245 4228 4229 0
-4245 -4228 -4229 0
4245 -4228 4229 0
4245 4228 -4229 0
-4246 4245 4230 0
-4246 -4245 -4230 0
4246 -4245 4230 0
4246 4245 -4230 0
-4247 4246 4231 0
-4247 -4246 -4231 0
4247 -4246 4231 0
4247 4246 -4231 0
-4248 4247 4232 0
-4248 -4247 -4232 0
4248 -4247 4232 0
4248 4247 -4232 0
-4249 4248 4233 0
-4249 -4248 -4233 0
4249 -4248 4233 0
4249 4248 -4233 0
-4250 4249 4234 0
-4250 -4249 -4234 0
4250 -4249 4234 0
4250 4249 -4234 0
-4251 4250 4235 0
-4251 -4250 -4235 0
4251 -4250 4235 0
4251 4250 -4235 0
-4252 4251 4236 0
-4252 -4251 -4236 0
4252 -4251 4236 0
4252 4251 -4236 0
-4253 4252 4237 0
-4253 -4252 -4237 0
4253 -4252 4237 0
4253 4252 -4237 0
-4254 4253 4238 0
-4254 -4253 -4238 0
4254 -4253 4238 0
4254 4253 -4238 0
-4255 4254 4239 0
-4255 -4254 -4239 0
4255 -4254 4239 0
4255 4254 -4239 0
-4256 4255 4240 0
-4256 -4255 -4240 0
4256 -4255 4240 0
4256 4255 -4240 0
-4257 4256 4241 0
-4257 -4256 -4241 0
4257 -4256 4241 0
4257 4256 -4241 0
-4258 4257 4242 0
-4258 -4257 -4242 0
4258 -4257 4242 0
4258 4257 -4242 0
-4259 4258 4243 0
-4259 -4258 -4243 0
4259 -4258 4243 0
4259 4258 -4243 0
-4260 4259 4244 0
-4260 -4259 -4244 0
4260 -4259 4244 0
4260 4259 -4244 0
-4260 0
-4261 4064 0
-4261 40 0
4261 -4064 -40 0
-4262 4064 0
-4262 46 0
4262 -4064 -46 0
-4263 4066 0
-4263 39 0
4263 -4066 -39 0
-4264 4068 0
-4264 47 0
4264 -4068 -47 0
-4265 4066 0
-4265 42 0
4265 -4066 -42 0
-4266 4068 0
-4266 44 0
4266 -4068 -44 0
-4267 4070 0
-4267 46 0
4267 -4070 -46 0
-4268 4070 0
-4268 40 0
4268 -4070 -40 0
-4269 4072 0
-4269 42 0
4269 -4072 -42 0
-4270 4074 0
-4270 44 0
4270 -4074 -44 0
-4271 4072 0
-4271 39 0
4271 -4072 -39 0
-4272 4074 0
-4272 47 0
4272 -4074 -47 0
-4273 4076 0
-4273 88 0
4273 -4076 -88 0
-4274 4078 0
-4274 94 0
4274 -4078 -94 0
-4275 4080 0
-4275 136 0
4275 -4080 -136 0
-4276 4082 0
-4276 142 0
4276 -4082 -142 0
-4277 4084 0
-4277 184 0
4277 -4084 -184 0
-4278 4261 4262 0
-4278 -4261 -4262 0
4278 -4261 4262 0
4278 4261 -4262 0
-4279 4278 4263 0
-4279 -4278 -4263 0
4279 -4278 4263 0
4279 4278 -4263 0
-4280 4279 4264 0
-4280 -4279 -4264 0
4280 -4279 4264 0
4280 4279 -4264 0
-4281 4280 4265 0
-4281 -4280 -4265 0
4281 -4280 4265 0
4281 4280 -4265 0
-4282 4281 4266 0
-4282 -4281 -4266 0
4282 -4281 4266 0
4282 4281 -4266 0
-4283 4282 4267 0
-4283 -4282 -4267 0
4283 -4282 4267 0
4283 4282 -4267 0
-4284 4283 4268 0
-4284 -4283 -4268 0
4284 -4283 4268 0
4284 4283 -4268 0
-4285 4284 4269 0
-4285 -4284 -4269 0
4285 -4284 4269 0
4285 4284 -4269 0
-4286 4285 4270 0
-4286 -4285 -4270 0
4286 -4285 4270 0
4286 4285 -4270 0
-4287 4286 4271 0
-4287 -4286 -4271 0
4287 -4286 4271 0
4287 4286 -4271 0
-4288 4287 4272 0
-4288 -4287 -4272 0
4288 -4287 4272 0
4288 4287 -4272 0
-4289 4288 4273 0
-4289 -4288 -4273 0
4289 -4288 4273 0
4289 4288 -4273 0
-4290 4289 4274 0
-4290 -4289 -4274 0
4290 -4289 4274 0
4290 4289 -4274 0
-4291 4290 4275 0
-4291 -4290 -4275 0
4291 -4290 4275 0
4291 4290 -4275 0
-4292 4291 4276 0
-4292 -4291 -4276 0
4292 -4291 4276 0
4292 4291 -4276 0
-4293 4292 4277 0
-4293 -4292 -4277 0
4293 -4292 4277 0
4293 4292 -4277 0
-4293 0
-4294 4064 0
-4294 41 0
4294 -4064 -41 0
-4295 4066 0
-4295 45 0
4295 -4066 -45 0
-4296 4068 0
-4296 37 0
4296 -4068 -37 0
-4297 4070 0
-4297 35 0
4297 -4070 -35 0
-4298 4072 0
-4298 36 0
4298 -4072 -36 0
-4299 4074 0
-4299 34 0
4299 -4074 -34 0
-4300 4076 0
-4300 89 0
4300 -4076 -89 0
-4301 4078 0
-4301 83 0
4301 -4078 -83 0
-4302 4080 0
-4302 137 0
4302 -4080 -137 0
-4303 4082 0
-4303 131 0
4303 -4082 -131 0
-4304 4084 0
-4304 185 0
4304 -4084 -185 0
-4305 4294 4294 0
-4305 -4294 -4294 0
4305 -4294 4294 0
4305 4294 -4294 0
-4306 4305 4295 0
-4306 -4305 -4295 0
4306 -4305 4295 0
4306 4305 -4295 0
-4307 4306 4296 0
-4307 -4306 -4296 0
4307 -4306 4296 0
4307 4306 -4296 0
-4308 4307 4295 0
-4308 -4307 -4295 0
4308 -4307 4295 0
4308 4307 -4295 0
-4309 4308 4296 0
-4309 -4308 -4296 0
4309 -4308 4296 0
4309 4308 -4296 0
-4310 4309 4297 0
-4310 -4309 -4297 0
4310 -4309 4297 0
4310 4309 -4297 0
-4311 4310 4297 0
-4311 -4310 -4297 0
4311 -4310 4297 0
4311 4310 -4297 0
-4312 4311 4298 0
-4312 -4311 -4298 0
4312 -4311 4298 0
4312 4311 -4298 0
-4313 4312 4299 0
-4313 -4312 -4299 0
4313 -4312 4299 0
4313 4312 -4299 0
-4314 4313 4298 0
-4314 -4313 -4298 0
4314 -4313 4298 0
4314 4313 -4298 0
-4315 4314 4299 0
-4315 -4314 -4299 0
4315 -4314 4299 0
4315 4314 -4299 0
-4316 4315 4300 0
-4316 -4315 -4300 0
4316 -4315 4300 0
4316 4315 -4300 0
-4317 4316 4301 0
-4317 -4316 -4301 0
4317 -4316 4301 0
4317 4316 -4301 0
-4318 4317 4302 0
-4318 -4317 -4302 0
4318 -4317 4302 0
4318 4317 -4302 0
-4319 4318 4303 0
-4319 -4318 -4303 0
4319 -4318 4303 0
4319 4318 -4303 0
-4320 4319 4304 0
-4320 -4319 -4304 0
4320 -4319 4304 0
4320 4319 -4304 0
-4320 0
-4321 4064 0
-4321 42 0
4321 -4064 -42 0
-4322 4064 0
-4322 44 0
4322 -4064 -44 0
-4323 4066 0
-4323 46 0
4323 -4066 -46 0
-4324 4068 0
-4324 40 0
4324 -4068 -40 0
-4325 4066 0
-4325 47 0
4325 -4066 -47 0
-4326 4068 0
-4326 39 0
4326 -4068 -39 0
-4327 4070 0
-4327 39 0
4327 -4070 -39 0
-4328 4070 0
-4328 47 0
4328 -4070 -47 0
-4329 4072 0
-4329 40 0
4329 -4072 -40 0
-4330 4074 0
-4330 46 0
4330 -4074 -46 0
-4331 4072 0
-4331 44 0
4331 -4072 -44 0
-4332 4074 0
-4332 42 0
4332 -4074 -42 0
-4333 4076 0
-4333 90 0
4333 -4076 -90 0
-4334 4078 0
-4334 87 0
4334 -4078 -87 0
-4335 4080 0
-4335 138 0
4335 -4080 -138 0
-4336 4082 0
-4336 135 0
4336 -4082 -135 0
-4337 4084 0
-4337 186 0
4337 -4084 -186 0
-4338 4321 4322 0
-4338 -4321 -4322 0
4338 -4321 4322 0
4338 4321 -4322 0
-4339 4338 4323 0
-4339 -4338 -4323 0
4339 -4338 4323 0
4339 4338 -4323 0
-4340 4339 4324 0
-4340 -4339 -4324 0
4340 -4339 4324 0
4340 4339 -4324 0
-4341 4340 4325 0
-4341 -4340 -4325 0
4341 -4340 4325 0
4341 4340 -4325 0
-4342 4341 4326 0
-4342 -4341 -4326 0
4342 -4341 4326 0
4342 4341 -4326 0
-4343 4342 4327 0
-4343 -4342 -4327 0
4343 -4342 4327 0
4343 4342 -4327 0
-4344 4343 4328 0
-4344 -4343 -4328 0
4344 -4343 4328 0
4344 4343 -4328 0
-4345 4344 4329 0
-4345 -4344 -4329 0
4345 -4344 4329 0
4345 4344 -4329 0
-4346 4345 4330 0
-4346 -4345 -4330 0
4346 -4345 4330 0
4346 4345 -4330 0
-4347 4346 4331 0
-4347 -4346 -4331 0
4347 -4346 4331 0
4347 4346 -4331 0
-4348 4347 4332 0
-4348 -4347 -4332 0
4348 -4347 4332 0
4348 4347 -4332 0
-4349 4348 4333 0
-4349 -4348 -4333 0
4349 -4348 4333 0
4349 4348 -4333 0
-4350 4349 4334 0
-4350 -4349 -4334 0
4350 -4349 4334 0
4350 4349 -4334 0
-4351 4350 4335 0
-4351 -4350 -4335 0
4351 -4350 4335 0
4351 4350 -4335 0
-4352 4351 4336 0
-4352 -4351 -4336 0
4352 -4351 4336 0
4352 4351 -4336 0
-4353 4352 4337 0
-4353 -4352 -4337 0
4353 -4352 4337 0
4353 4352 -4337 0
-4353 0
-4354 4064 0
-4354 43 0
4354 -4064 -43 0
-4355 4066 0
-4355 48 0
4355 -4066 -48 0
-4356 4068 0
-4356 38 0
4356 -4068 -38 0
-4357 4070 0
-4357 43 0
4357 -4070 -43 0
-4358 4072 0
-4358 48 0
4358 -4072 -48 0
-4359 4074 0
-4359 38 0
4359 -4074 -38 0
-4360 4076 0
-4360 91 0
4360 -4076 -91 0
-4361 4078 0
-4361 91 0
4361 -4078 -91 0
-4362 4080 0
-4362 139 0
4362 -4080 -139 0
-4363 4082 0
-4363 139 0
4363 -4082 -139 0
-4364 4084 0
-4364 187 0
4364 -4084 -187 0
-4365 4354 4354 0
-4365 -4354 -4354 0
4365 -4354 4354 0
4365 4354 -4354 0
-4366 4365 4355 0
-4366 -4365 -4355 0
4366 -4365 4355 0
4366 4365 -4355 0
-4367 4366 4356 0
-4367 -4366 -4356 0
4367 -4366 4356 0
4367 4366 -4356 0
-4368 4367 4355 0
-4368 -4367 -4355 0
4368 -4367 4355 0
4368 4367 -4355 0
-4369 4368 4356 0
-4369 -4368 -4356 0
4369 -4368 4356 0
4369 4368 -4356 0
-4370 4369 4357 0
-4370 -4369 -4357 0
4370 -4369 4357 0
4370 4369 -4357 0
-4371 4370 4357 0
-4371 -4370 -4357 0
4371 -4370 4357 0
4371 4370 -4357 0
-4372 4371 4358 0
-4372 -4371 -4358 0
4372 -4371 4358 0
4372 4371 -4358 0
-4373 4372 4359 0
-4373 -4372 -4359 0
4373 -4372 4359 0
4373 4372 -4359 0
-4374 4373 4358 0
-4374 -4373 -4358 0
4374 -4373 4358 0
4374 4373 -4358 0
-4375 4374 4359 0
-4375 -4374 -4359 0
4375 -4374 4359 0
4375 4374 -4359 0
-4376 4375 4360 0
-4376 -4375 -4360 0
4376 -4375 4360 0
4376 4375 -4360 0
-4377 4376 4361 0
-4377 -4376 -4361 0
4377 -4376 4361 0
4377 4376 -4361 0
-4378 4377 4362 0
-4378 -4377 -4362 0
4378 -4377 4362 0
4378 4377 -4362 0
-4379 4378 4363 0
-4379 -4378 -4363 0
4379 -4378 4363 0
4379 4378 -4363 0
-4380 4379 4364 0
-4380 -4379 -4364 0
4380 -4379 4364 0
4380 4379 -4364 0
-4380 0
-4381 4 0
-4381 18 0
4381 -4 -18 0
-4382 4381 0
-4382 33 0
4382 -4381 -33 0
-4383 4 0
-4383 20 0
4383 -4 -20 0
-4384 4383 0
-4384 33 0
4384 -4383 -33 0
-4385 4 0
-4385 22 0
4385 -4 -22 0
-4386 4385 0
-4386 33 0
4386 -4385 -33 0
-4387 4 0
-4387 28 0
4387 -4 -28 0
-4388 4387 0
-4388 33 0
4388 -4387 -33 0
-4389 4 0
-4389 23 0
4389 -4 -23 0
-4390 4389 0
-4390 33 0
4390 -4389 -33 0
-4391 4 0
-4391 27 0
4391 -4 -27 0
-4392 4391 0
-4392 33 0
4392 -4391 -33 0
-4393 29 0
-4393 5 0
4393 -29 -5 0
-4394 4393 0
-4394 33 0
4394 -4393 -33 0
-4395 29 0
-4395 13 0
4395 -29 -13 0
-4396 4395 0
-4396 33 0
4396 -4395 -33 0
-4397 29 0
-4397 6 0
4397 -29 -6 0
-4398 4397 0
-4398 33 0
4398 -4397 -33 0
-4399 29 0
-4399 15 0
4399 -29 -15 0
-4400 4399 0
-4400 33 0
4400 -4399 -33 0
-4401 29 0
-4401 10 0
4401 -29 -10 0
-4402 4401 0
-4402 33 0
4402 -4401 -33 0
-4403 29 0
-4403 11 0
4403 -29 -11 0
-4404 4403 0
-4404 33 0
4404 -4403 -33 0
-4405 52 0
-4405 66 0
4405 -52 -66 0
-4406 4405 0
-4406 81 0
4406 -4405 -81 0
-4407 77 0
-4407 53 0
4407 -77 -53 0
-4408 4407 0
-4408 81 0
4408 -4407 -81 0
-4409 100 0
-4409 114 0
4409 -100 -114 0
-4410 4409 0
-4410 129 0
4410 -4409 -129 0
-4411 125 0
-4411 101 0
4411 -125 -101 0
-4412 4411 0
-4412 129 0
4412 -4411 -129 0
-4413 148 0
-4413 162 0
4413 -148 -162 0
-4414 4413 0
-4414 177 0
4414 -4413 -177 0
-4415 4382 4384 0
-4415 -4382 -4384 0
4415 -4382 4384 0
4415 4382 -4384 0
-4416 4415 4386 0
-4416 -4415 -4386 0
4416 -4415 4386 0
4416 4415 -4386 0
-4417 4416 4388 0
-4417 -4416 -4388 0
4417 -4416 4388 0
4417 4416 -4388 0
-4418 4417 4390 0
-4418 -4417 -4390 0
4418 -4417 4390 0
4418 4417 -4390 0
-4419 4418 4392 0
-4419 -4418 -4392 0
4419 -4418 4392 0
4419 4418 -4392 0
-4420 4419 4394 0
-4420 -4419 -4394 0
4420 -4419 4394 0
4420 4419 -4394 0
-4421 4420 4396 0
-4421 -4420 -4396 0
4421 -4420 4396 0
4421 4420 -4396 0
-4422 4421 4398 0
-4422 -4421 -4398 0
4422 -4421 4398 0
4422 4421 -4398 0
-4423 4422 4400 0
-4423 -4422 -4400 0
4423 -4422 4400 0
4423 4422 -4400 0
-4424 4423 4402 0
-4424 -4423 -4402 0
4424 -4423 4402 0
4424 4423 -4402 0
-4425 4424 4404 0
-4425 -4424 -4404 0
4425 -4424 4404 0
4425 4424 -4404 0
-4426 4425 4406 0
-4426 -4425 -4406 0
4426 -4425 4406 0
4426 4425 -4406 0
-4427 4426 4408 0
-4427 -4426 -4408 0
4427 -4426 4408 0
4427 4426 -4408 0
-4428 4427 4410 0
-4428 -4427 -4410 0
4428 -4427 4410 0
4428 4427 -4410 0
-4429 4428 4412 0
-4429 -4428 -4412 0
4429 -4428 4412 0
4429 4428 -4412 0
-4430 4429 4414 0
-4430 -4429 -4414 0
4430 -4429 4414 0
4430 4429 -4414 0
-4430 0
-4431 4381 0
-4431 34 0
4431 -4381 -34 0
-4432 4383 0
-4432 36 0
4432 -4383 -36 0
-4433 4385 0
-4433 34 0
4433 -4385 -34 0
-4434 4387 0
-4434 36 0
4434 -4387 -36 0
-4435 4389 0
-4435 35 0
4435 -4389 -35 0
-4436 4391 0
-4436 35 0
4436 -4391 -35 0
-4437 4393 0
-4437 37 0
4437 -4393 -37 0
-4438 4395 0
-4438 45 0
4438 -4395 -45 0
-4439 4397 0
-4439 37 0
4439 -4397 -37 0
-4440 4399 0
-4440 45 0
4440 -4399 -45 0
-4441 4401 0
-4441 41 0
4441 -4401 -41 0
-4442 4403 0
-4442 41 0
4442 -4403 -41 0
-4443 4405 0
-4443 82 0
4443 -4405 -82 0
-4444 4407 0
-4444 85 0
4444 -4407 -85 0
-4445 4409 0
-4445 130 0
4445 -4409 -130 0
-4446 4411 0
-4446 133 0
4446 -4411 -133 0
-4447 4413 0
-4447 178 0
4447 -4413 -178 0
-4448 4431 4432 0
-4448 -4431 -4432 0
4448 -4431 4432 0
4448 4431 -4432 0
-4449 4448 4433 0
-4449 -4448 -4433 0
4449 -4448 4433 0
4449 4448 -4433 0
-4450 4449 4434 0
-4450 -4449 -4434 0
4450 -4449 4434 0
4450 4449 -4434 0
-4451 4450 4435 0
-4451 -4450 -4435 0
4451 -4450 4435 0
4451 4450 -4435 0
-4452 4451 4436 0
-4452 -4451 -4436 0
4452 -4451 4436 0
4452 4451 -4436 0
-4453 4452 4437 0
-4453 -4452 -4437 0
4453 -4452 4437 0
4453 4452 -4437 0
-4454 4453 4438 0
-4454 -4453 -4438 0
4454 -4453 4438 0
4454 4453 -4438 0
-4455 4454 4439 0
-4455 -4454 -4439 0
4455 -4454 4439 0
4455 4454 -4439 0
-4456 4455 4440 0
-4456 -4455 -4440 0
4456 -4455 4440 0
4456 4455 -4440 0
-4457 4456 4441 0
-4457 -4456 -4441 0
4457 -4456 4441 0
4457 4456 -4441 0
-4458 4457 4442 0
-4458 -4457 -4442 0
4458 -4457 4442 0
4458 4457 -4442 0
-4459 4458 4443 0
-4459 -4458 -4443 0
4459 -4458 4443 0
4459 4458 -4443 0
-4460 4459 4444 0
-4460 -4459 -4444 0
4460 -4459 4444 0
4460 4459 -4444 0
-4461 4460 4445 0
-4461 -4460 -4445 0
4461 -4460 4445 0
4461 4460 -4445 0
-4462 4461 4446 0
-4462 -4461 -4446 0
4462 -4461 4446 0
4462 4461 -4446 0
-4463 4462 4447 0
-4463 -4462 -4447 0
4463 -4462 4447 0
4463 4462 -4447 0
-4463 0
-4464 4381 0
-4464 35 0
4464 -4381 -35 0
-4465 4383 0
-4465 35 0
4465 -4383 -35 0
-4466 4385 0
-4466 36 0
4466 -4385 -36 0
-4467 4387 0
-4467 34 0
4467 -4387 -34 0
-4468 4389 0
-4468 36 0
4468 -4389 -36 0
-4469 4391 0
-4469 34 0
4469 -4391 -34 0
-4470 4393 0
-4470 41 0
4470 -4393 -41 0
-4471 4395 0
-4471 41 0
4471 -4395 -41 0
-4472 4397 0
-4472 45 0
4472 -4397 -45 0
-4473 4399 0
-4473 37 0
4473 -4399 -37 0
-4474 4401 0
-4474 45 0
4474 -4401 -45 0
-4475 4403 0
-4475 37 0
4475 -4403 -37 0
-4476 4405 0
-4476 83 0
4476 -4405 -83 0
-4477 4407 0
-4477 89 0
4477 -4407 -89 0
-4478 4409 0
-4478 131 0
4478 -4409 -131 0
-4479 4411 0
-4479 137 0
4479 -4411 -137 0
-4480 4413 0
-4480 179 0
4480 -4413 -179 0
-4481 4464 4465 0
-4481 -4464 -4465 0
4481 -4464 4465 0
4481 4464 -4465 0
-4482 4481 4466 0
-4482 -4481 -4466 0
4482 -4481 4466 0
4482 4481 -4466 0
-4483 4482 4467 0
-4483 -4482 -4467 0
4483 -4482 4467 0
4483 4482 -4467 0
-4484 4483 4468 0
-4484 -4483 -4468 0
4484 -4483 4468 0
4484 4483 -4468 0
-4485 4484 4469 0
-4485 -4484 -4469 0
4485 -4484 4469 0
4485 4484 -4469 0
-4486 4485 4470 0
-4486 -4485 -4470 0
4486 -4485 4470 0
4486 4485 -4470 0
-4487 4486 4471 0
-4487 -4486 -4471 0
4487 -4486 4471 0
4487 4486 -4471 0
-4488 4487 4472 0
-4488 -4487 -4472 0
4488 -4487 4472 0
4488 4487 -4472 0
-4489 4488 4473 0
-4489 -4488 -4473 0
4489 -4488 4473 0
4489 4488 -4473 0
-4490 4489 4474 0
-4490 -4489 -4474 0
4490 -4489 4474 0
4490 4489 -4474 0
-4491 4490 4475 0
-4491 -4490 -4475 0
4491 -4490 4475 0
4491 4490 -4475 0
-4492 4491 4476 0
-4492 -4491 -4476 0
4492 -4491 4476 0
4492 4491 -4476 0
-4493 4492 4477 0
-4493 -4492 -4477 0
4493 -4492 4477 0
4493 4492 -4477 0
-4494 4493 4478 0
-4494 -4493 -4478 0
4494 -4493 4478 0
4494 4493 -4478 0
-4495 4494 4479 0
-4495 -4494 -4479 0
4495 -4494 4479 0
4495 4494 -4479 0
-4496 4495 4480 0
-4496 -4495 -4480 0
4496 -4495 4480 0
4496 4495 -4480 0
-4496 0
-4497 4381 0
-4497 36 0
4497 -4381 -36 0
-4498 4383 0
-4498 34 0
4498 -4383 -34 0
-4499 4385 0
-4499 35 0
4499 -4385 -35 0
-4500 4387 0
-4500 35 0
4500 -4387 -35 0
-4501 4389 0
-4501 34 0
4501 -4389 -34 0
-4502 4391 0
-4502 36 0
4502 -4391 -36 0
-4503 4393 0
-4503 45 0
4503 -4393 -45 0
-4504 4395 0
-4504 37 0
4504 -4395 -37 0
-4505 4397 0
-4505 41 0
4505 -4397 -41 0
-4506 4399 0
-4506 41 0
4506 -4399 -41 0
-4507 4401 0
-4507 37 0
4507 -4401 -37 0
-4508 4403 0
-4508 45 0
4508 -4403 -45 0
-4509 4405 0
-4509 84 0
4509 -4405 -84 0
-4510 4407 0
-4510 93 0
4510 -4407 -93 0
-4511 4409 0
-4511 132 0
4511 -4409 -132 0
-4512 4411 0
-4512 141 0
4512 -4411 -141 0
-4513 4413 0
-4513 180 0
4513 -4413 -180 0
-4514 4497 4498 0
-4514 -4497 -4498 0
4514 -4497 4498 0
4514 4497 -4498 0
-4515 4514 4499 0
-4515 -4514 -4499 0
4515 -4514 4499 0
4515 4514 -4499 0
-4516 4515 4500 0
-4516 -4515 -4500 0
4516 -4515 4500 0
4516 4515 -4500 0
-4517 4516 4501 0
-4517 -4516 -4501 0
4517 -4516 4501 0
4517 4516 -4501 0
-4518 4517 4502 0
-4518 -4517 -4502 0
4518 -4517 4502 0
4518 4517 -4502 0
-4519 4518 4503 0
-4519 -4518 -4503 0
4519 -4518 4503 0
4519 4518 -4503 0
-4520 4519 4504 0
-4520 -4519 -4504 0
4520 -4519 4504 0
4520 4519 -4504 0
-4521 4520 4505 0
-4521 -4520 -4505 0
4521 -4520 4505 0
4521 4520 -4505 0
-4522 4521 4506 0
-4522 -4521 -4506 0
4522 -4521 4506 0
4522 4521 -4506 0
-4523 4522 4507 0
-4523 -4522 -4507 0
4523 -4522 4507 0
4523 4522 -4507 0
-4524 4523 4508 0
-4524 -4523 -4508 0
4524 -4523 4508 0
4524 4523 -4508 0
-4525 4524 4509 0
-4525 -4524 -4509 0
4525 -4524 4509 0
4525 4524 -4509 0
-4526 4525 4510 0
-4526 -4525 -4510 0
4526 -4525 4510 0
4526 4525 -4510 0
-4527 4526 4511 0
-4527 -4526 -4511 0
4527 -4526 4511 0
4527 4526 -4511 0
-4528 4527 4512 0
-4528 -4527 -4512 0
4528 -4527 4512 0
4528 4527 -4512 0
-4529 4528 4513 0
-4529 -4528 -4513 0
4529 -4528 4513 0
4529 4528 -4513 0
-4529 0
-4530 4381 0
-4530 37 0
4530 -4381 -37 0
-4531 4383 0
-4531 45 0
4531 -4383 -45 0
-4532 4385 0
-4532 37 0
4532 -4385 -37 0
-4533 4387 0
-4533 45 0
4533 -4387 -45 0
-4534 4389 0
-4534 41 0
4534 -4389 -41 0
-4535 4391 0
-4535 41 0
4535 -4391 -41 0
-4536 4393 0
-4536 34 0
4536 -4393 -34 0
-4537 4395 0
-4537 36 0
4537 -4395 -36 0
-4538 4397 0
-4538 34 0
4538 -4397 -34 0
-4539 4399 0
-4539 36 0
4539 -4399 -36 0
-4540 4401 0
-4540 35 0
4540 -4401 -35 0
-4541 4403 0
-4541 35 0
4541 -4403 -35 0
-4542 4405 0
-4542 85 0
4542 -4405 -85 0
-4543 4407 0
-4543 82 0
4543 -4407 -82 0
-4544 4409 0
-4544 133 0
4544 -4409 -133 0
-4545 4411 0
-4545 130 0
4545 -4411 -130 0
-4546 4413 0
-4546 181 0
4546 -4413 -181 0
-4547 4530 4531 0
-4547 -4530 -4531 0
4547 -4530 4531 0
4547 4530 -4531 0
-4548 4547 4532 0
-4548 -4547 -4532 0
4548 -4547 4532 0
4548 4547 -4532 0
-4549 4548 4533 0
-4549 -4548 -4533 0
4549 -4548 4533 0
4549 4548 -4533 0
-4550 4549 4534 0
-4550 -4549 -4534 0
4550 -4549 4534 0
4550 4549 -4534 0
-4551 4550 4535 0
-4551 -4550 -4535 0
4551 -4550 4535 0
4551 4550 -4535 0
-4552 4551 4536 0
-4552 -4551 -4536 0
4552 -4551 4536 0
4552 4551 -4536 0
-4553 4552 4537 0
-4553 -4552 -4537 0
4553 -4552 4537 0
4553 4552 -4537 0
-4554 4553 4538 0
-4554 -4553 -4538 0
4554 -4553 4538 0
4554 4553 -4538 0
-4555 4554 4539 0
-4555 -4554 -4539 0
4555 -4554 4539 0
4555 4554 -4539 0
-4556 4555 4540 0
-4556 -4555 -4540 0
4556 -4555 4540 0
4556 4555 -4540 0
-4557 4556 4541 0
-4557 -4556 -4541 0
4557 -4556 4541 0
4557 4556 -4541 0
-4558 4557 4542 0
-4558 -4557 -4542 0
4558 -4557 4542 0
4558 4557 -4542 0
-4559 4558 4543 0
-4559 -4558 -4543 0
4559 -4558 4543 0
4559 4558 -4543 0
-4560 4559 4544 0
-4560 -4559 -4544 0
4560 -4559 4544 0
4560 4559 -4544 0
-4561 4560 4545 0
-4561 -4560 -4545 0
4561 -4560 4545 0
4561 4560 -4545 0
-4562 4561 4546 0
-4562 -4561 -4546 0
4562 -4561 4546 0
4562 4561 -4546 0
4562 0
-4563 4381 0
-4563 38 0
4563 -4381 -38 0
-4564 4383 0
-4564 48 0
4564 -4383 -48 0
-4565 4385 0
-4565 38 0
4565 -4385 -38 0
-4566 4387 0
-4566 48 0
4566 -4387 -48 0
-4567 4389 0
-4567 43 0
4567 -4389 -43 0
-4568 4391 0
-4568 43 0
4568 -4391 -43 0
-4569 4393 0
-4569 38 0
4569 -4393 -38 0
-4570 4395 0
-4570 48 0
4570 -4395 -48 0
-4571 4397 0
-4571 38 0
4571 -4397 -38 0
-4572 4399 0
-4572 48 0
4572 -4399 -48 0
-4573 4401 0
-4573 43 0
4573 -4401 -43 0
-4574 4403 0
-4574 43 0
4574 -4403 -43 0
-4575 4405 0
-4575 86 0
4575 -4405 -86 0
-4576 4407 0
-4576 86 0
4576 -4407 -86 0
-4577 4409 0
-4577 134 0
4577 -4409 -134 0
-4578 4411 0
-4578 134 0
4578 -4411 -134 0
-4579 4413 0
-4579 182 0
4579 -4413 -182 0
-4580 4563 4564 0
-4580 -4563 -4564 0
4580 -4563 4564 0
4580 4563 -4564 0
-4581 4580 4565 0
-4581 -4580 -4565 0
4581 -4580 4565 0
4581 4580 -4565 0
-4582 4581 4566 0
-4582 -4581 -4566 0
4582 -4581 4566 0
4582 4581 -4566 0
-4583 4582 4567 0
-4583 -4582 -4567 0
4583 -4582 4567 0
4583 4582 -4567 0
-4584 4583 4568 0
-4584 -4583 -4568 0
4584 -4583 4568 0
4584 4583 -4568 0
-4585 4584 4569 0
-4585 -4584 -4569 0
4585 -4584 4569 0
4585 4584 -4569 0
-4586 4585 4570 0
-4586 -4585 -4570 0
4586 -4585 4570 0
4586 4585 -4570 0
-4587 4586 4571 0
-4587 -4586 -4571 0
4587 -4586 4571 0
4587 4586 -4571 0
-4588 4587 4572 0
-4588 -4587 -4572 0
4588 -4587 4572 0
4588 4587 -4572 0
-4589 4588 4573 0
-4589 -4588 -4573 0
4589 -4588 4573 0
4589 4588 -4573 0
-4590 4589 4574 0
-4590 -4589 -4574 0
4590 -4589 4574 0
4590 4589 -4574 0
-4591 4590 4575 0
-4591 -4590 -4575 0
4591 -4590 4575 0
4591 4590 -4575 0
-4592 4591 4576 0
-4592 -4591 -4576 0
4592 -4591 4576 0
4592 4591 -4576 0
-4593 4592 4577 0
-4593 -4592 -4577 0
4593 -4592 4577 0
4593 4592 -4577 0
-4594 4593 4578 0
-4594 -4593 -4578 0
4594 -4593 4578 0
4594 4593 -4578 0
-4595 4594 4579 0
-4595 -4594 -4579 0
4595 -4594 4579 0
4595 4594 -4579 0
-4595 0
-4596 4381 0
-4596 39 0
4596 -4381 -39 0
-4597 4383 0
-4597 47 0
4597 -4383 -47 0
-4598 4385 0
-4598 40 0
4598 -4385 -40 0
-4599 4387 0
-4599 46 0
4599 -4387 -46 0
-4600 4389 0
-4600 44 0
4600 -4389 -44 0
-4601 4391 0
-4601 42 0
4601 -4391 -42 0
-4602 4393 0
-4602 42 0
4602 -4393 -42 0
-4603 4395 0
-4603 44 0
4603 -4395 -44 0
-4604 4397 0
-4604 46 0
4604 -4397 -46 0
-4605 4399 0
-4605 40 0
4605 -4399 -40 0
-4606 4401 0
-4606 47 0
4606 -4401 -47 0
-4607 4403 0
-4607 39 0
4607 -4403 -39 0
-4608 4405 0
-4608 87 0
4608 -4405 -87 0
-4609 4407 0
-4609 90 0
4609 -4407 -90 0
-4610 4409 0
-4610 135 0
4610 -4409 -135 0
-4611 4411 0
-4611 138 0
4611 -4411 -138 0
-4612 4413 0
-4612 183 0
4612 -4413 -183 0
-4613 4596 4597 0
-4613 -4596 -4597 0
4613 -4596 4597 0
4613 4596 -4597 0
-4614 4613 4598 0
-4614 -4613 -4598 0
4614 -4613 4598 0
4614 4613 -4598 0
-4615 4614 4599 0
-4615 -4614 -4599 0
4615 -4614 4599 0
4615 4614 -4599 0
-4616 4615 4600 0
-4616 -4615 -4600 0
4616 -4615 4600 0
4616 4615 -4600 0
-4617 4616 4601 0
-4617 -4616 -4601 0
4617 -4616 4601 0
4617 4616 -4601 0
-4618 4617 4602 0
-4618 -4617 -4602 0
4618 -4617 4602 0
4618 4617 -4602 0
-4619 4618 4603 0
-4619 -4618 -4603 0
4619 -4618 4603 0
4619 4618 -4603 0
-4620 4619 4604 0
-4620 -4619 -4604 0
4620 -4619 4604 0
4620 4619 -4604 0
-4621 4620 4605 0
-4621 -4620 -4605 0
4621 -4620 4605 0
4621 4620 -4605 0
-4622 4621 4606 0
-4622 -4621 -4606 0
4622 -4621 4606 0
4622 4621 -4606 0
-4623 4622 4607 0
-4623 -4622 -4607 0
4623 -4622 4607 0
4623 4622 -4607 0
-4624 4623 4608 0
-4624 -4623 -4608 0
4624 -4623 4608 0
4624 4623 -4608 0
-4625 4624 4609 0
-4625 -4624 -4609 0
4625 -4624 4609 0
4625 4624 -4609 0
-4626 4625 4610 0
-4626 -4625 -4610 0
4626 -4625 4610 0
4626 4625 -4610 0
-4627 4626 4611 0
-4627 -4626 -4611 0
4627 -4626 4611 0
4627 4626 -4611 0
-4628 4627 4612 0
-4628 -4627 -4612 0
4628 -4627 4612 0
4628 4627 -4612 0
4628 0
-4629 4381 0
-4629 40 0
4629 -4381 -40 0
-4630 4383 0
-4630 46 0
4630 -4383 -46 0
-4631 4385 0
-4631 39 0
4631 -4385 -39 0
-4632 4387 0
-4632 47 0
4632 -4387 -47 0
-4633 4389 0
-4633 42 0
4633 -4389 -42 0
-4634 4391 0
-4634 44 0
4634 -4391 -44 0
-4635 4393 0
-4635 46 0
4635 -4393 -46 0
-4636 4395 0
-4636 40 0
4636 -4395 -40 0
-4637 4397 0
-4637 42 0
4637 -4397 -42 0
-4638 4399 0
-4638 44 0
4638 -4399 -44 0
-4639 4401 0
-4639 39 0
4639 -4401 -39 0
-4640 4403 0
-4640 47 0
4640 -4403 -47 0
-4641 4405 0
-4641 88 0
4641 -4405 -88 0
-4642 4407 0
-4642 94 0
4642 -4407 -94 0
-4643 4409 0
-4643 136 0
4643 -4409 -136 0
-4644 4411 0
-4644 142 0
4644 -4411 -142 0
-4645 4413 0
-4645 184 0
4645 -4413 -184 0
-4646 4629 4630 0
-4646 -4629 -4630 0
4646 -4629 4630 0
4646 4629 -4630 0
-4647 4646 4631 0
-4647 -4646 -4631 0
4647 -4646 4631 0
4647 4646 -4631 0
-4648 4647 4632 0
-4648 -4647 -4632 0
4648 -4647 4632 0
4648 4647 -4632 0
-4649 4648 4633 0
-4649 -4648 -4633 0
4649 -4648 4633 0
4649 4648 -4633 0
-4650 4649 4634 0
-4650 -4649 -4634 0
4650 -4649 4634 0
4650 4649 -4634 0
-4651 4650 4635 0
-4651 -4650 -4635 0
4651 -4650 4635 0
4651 4650 -4635 0
-4652 4651 4636 0
-4652 -4651 -4636 0
4652 -4651 4636 0
4652 4651 -4636 0
-4653 4652 4637 0
-4653 -4652 -4637 0
4653 -4652 4637 0
4653 4652 -4637 0
-4654 4653 4638 0
-4654 -4653 -4638 0
4654 -4653 4638 0
4654 4653 -4638 0
-4655 4654 4639 0
-4655 -4654 -4639 0
4655 -4654 4639 0
4655 4654 -4639 0
-4656 4655 4640 0
-4656 -4655 -4640 0
4656 -4655 4640 0
4656 4655 -4640 0
-4657 4656 4641 0
-4657 -4656 -4641 0
4657 -4656 4641 0
4657 4656 -4641 0
-4658 4657 4642 0
-4658 -4657 -4642 0
4658 -4657 4642 0
4658 4657 -4642 0
-4659 4658 4643 0
-4659 -4658 -4643 0
4659 -4658 4643 0
4659 4658 -4643 0
-4660 4659 4644 0
-4660 -4659 -4644 0
4660 -4659 4644 0
4660 4659 -4644 0
-4661 4660 4645 0
-4661 -4660 -4645 0
4661 -4660 4645 0
4661 4660 -4645 0
-4661 0
-4662 4381 0
-4662 41 0
4662 -4381 -41 0
-4663 4383 0
-4663 41 0
4663 -4383 -41 0
-4664 4385 0
-4664 45 0
4664 -4385 -45 0
-4665 4387 0
-4665 37 0
4665 -4387 -37 0
-4666 4389 0
-4666 45 0
4666 -4389 -45 0
-4667 4391 0
-4667 37 0
4667 -4391 -37 0
-4668 4393 0
-4668 35 0
4668 -4393 -35 0
-4669 4395 0
-4669 35 0
4669 -4395 -35 0
-4670 4397 0
-4670 36 0
4670 -4397 -36 0
-4671 4399 0
-4671 34 0
4671 -4399 -34 0
-4672 4401 0
-4672 36 0
4672 -4401 -36 0
-4673 4403 0
-4673 34 0
4673 -4403 -34 0
-4674 4405 0
-4674 89 0
4674 -4405 -89 0
-4675 4407 0
-4675 83 0
4675 -4407 -83 0
-4676 4409 0
-4676 137 0
4676 -4409 -137 0
-4677 4411 0
-4677 131 0
4677 -4411 -131 0
-4678 4413 0
-4678 185 0
4678 -4413 -185 0
-4679 4662 4663 0
-4679 -4662 -4663 0
4679 -4662 4663 0
4679 4662 -4663 0
-4680 4679 4664 0
-4680 -4679 -4664 0
4680 -4679 4664 0
4680 4679 -4664 0
-4681 4680 4665 0
-4681 -4680 -4665 0
4681 -4680 4665 0
4681 4680 -4665 0
-4682 4681 4666 0
-4682 -4681 -4666 0
4682 -4681 4666 0
4682 4681 -4666 0
-4683 4682 4667 0
-4683 -4682 -4667 0
4683 -4682 4667 0
4683 4682 -4667 0
-4684 4683 4668 0
-4684 -4683 -4668 0
4684 -4683 4668 0
4684 4683 -4668 0
-4685 4684 4669 0
-4685 -4684 -4669 0
4685 -4684 4669 0
4685 4684 -4669 0
-4686 4685 4670 0
-4686 -4685 -4670 0
4686 -4685 4670 0
4686 4685 -4670 0
-4687 4686 4671 0
-4687 -4686 -4671 0
4687 -4686 4671 0
4687 4686 -4671 0
-4688 4687 4672 0
-4688 -4687 -4672 0
4688 -4687 4672 0
4688 4687 -4672 0
-4689 4688 4673 0
-4689 -4688 -4673 0
4689 -4688 4673 0
4689 4688 -4673 0
-4690 4689 4674 0
-4690 -4689 -4674 0
4690 -4689 4674 0
4690 4689 -4674 0
-4691 4690 4675 0
-4691 -4690 -4675 0
4691 -4690 4675 0
4691 4690 -4675 0
-4692 4691 4676 0
-4692 -4691 -4676 0
4692 -4691 4676 0
4692 4691 -4676 0
-4693 4692 4677 0
-4693 -4692 -4677 0
4693 -4692 4677 0
4693 4692 -4677 0
-4694 4693 4678 0
-4694 -4693 -4678 0
4694 -4693 4678 0
4694 4693 -4678 0
-4694 0
-4695 4381 0
-4695 42 0
4695 -4381 -42 0
-4696 4383 0
-4696 44 0
4696 -4383 -44 0
-4697 4385 0
-4697 46 0
4697 -4385 -46 0
-4698 4387 0
-4698 40 0
4698 -4387 -40 0
-4699 4389 0
-4699 47 0
4699 -4389 -47 0
-4700 4391 0
-4700 39 0
4700 -4391 -39 0
-4701 4393 0
-4701 39 0
4701 -4393 -39 0
-4702 4395 0
-4702 47 0
4702 -4395 -47 0
-4703 4397 0
-4703 40 0
4703 -4397 -40 0
-4704 4399 0
-4704 46 0
4704 -4399 -46 0
-4705 4401 0
-4705 44 0
4705 -4401 -44 0
-4706 4403 0
-4706 42 0
4706 -4403 -42 0
-4707 4405 0
-4707 90 0
4707 -4405 -90 0
-4708 4407 0
-4708 87 0
4708 -4407 -87 0
-4709 4409 0
-4709 138 0
4709 -4409 -138 0
-4710 4411 0
-4710 135 0
4710 -4411 -135 0
-4711 4413 0
-4711 186 0
4711 -4413 -186 0
-4712 4695 4696 0
-4712 -4695 -4696 0
4712 -4695 4696 0
4712 4695 -4696 0
-4713 4712 4697 0
-4713 -4712 -4697 0
4713 -4712 4697 0
4713 4712 -4697 0
-4714 4713 4698 0
-4714 -4713 -4698 0
4714 -4713 4698 0
4714 4713 -4698 0
-4715 4714 4699 0
-4715 -4714 -4699 0
4715 -4714 4699 0
4715 4714 -4699 0
-4716 4715 4700 0
-4716 -4715 -4700 0
4716 -4715 4700 0
4716 4715 -4700 0
-4717 4716 4701 0
-4717 -4716 -4701 0
4717 -4716 4701 0
4717 4716 -4701 0
-4718 4717 4702 0
-4718 -4717 -4702 0
4718 -4717 4702 0
4718 4717 -4702 0
-4719 4718 4703 0
-4719 -4718 -4703 0
4719 -4718 4703 0
4719 4718 -4703 0
-4720 4719 4704 0
-4720 -4719 -4704 0
4720 -4719 4704 0
4720 4719 -4704 0
-4721 4720 4705 0
-4721 -4720 -4705 0
4721 -4720 4705 0
4721 4720 -4705 0
-4722 4721 4706 0
-4722 -4721 -4706 0
4722 -4721 4706 0
4722 4721 -4706 0
-4723 4722 4707 0
-4723 -4722 -4707 0
4723 -4722 4707 0
4723 4722 -4707 0
-4724 4723 4708 0
-4724 -4723 -4708 0
4724 -4723 4708 0
4724 4723 -4708 0
-4725 4724 4709 0
-4725 -4724 -4709 0
4725 -4724 4709 0
4725 4724 -4709 0
-4726 4725 4710 0
-4726 -4725 -4710 0
4726 -4725 4710 0
4726 4725 -4710 0
-4727 4726 4711 0
-4727 -4726 -4711 0
4727 -4726 4711 0
4727 4726 -4711 0
-4727 0
-4728 4381 0
-4728 43 0
4728 -4381 -43 0
-4729 4383 0
-4729 43 0
4729 -4383 -43 0
-4730 4385 0
-4730 48 0
4730 -4385 -48 0
-4731 4387 0
-4731 38 0
4731 -4387 -38 0
-4732 4389 0
-4732 48 0
4732 -4389 -48 0
-4733 4391 0
-4733 38 0
4733 -4391 -38 0
-4734 4393 0
-4734 43 0
4734 -4393 -43 0
-4735 4395 0
-4735 43 0
4735 -4395 -43 0
-4736 4397 0
-4736 48 0
4736 -4397 -48 0
-4737 4399 0
-4737 38 0
4737 -4399 -38 0
-4738 4401 0
-4738 48 0
4738 -4401 -48 0
-4739 4403 0
-4739 38 0
4739 -4403 -38 0
-4740 4405 0
-4740 91 0
4740 -4405 -91 0
-4741 4407 0
-4741 91 0
4741 -4407 -91 0
-4742 4409 0
-4742 139 0
4742 -4409 -139 0
-4743 4411 0
-4743 139 0
4743 -4411 -139 0
-4744 4413 0
-4744 187 0
4744 -4413 -187 0
-4745 4728 4729 0
-4745 -4728 -4729 0
4745 -4728 4729 0
4745 4728 -4729 0
-4746 4745 4730 0
-4746 -4745 -4730 0
4746 -4745 4730 0
4746 4745 -4730 0
-4747 4746 4731 0
-4747 -4746 -4731 0
4747 -4746 4731 0
4747 4746 -4731 0
-4748 4747 4732 0
-4748 -4747 -4732 0
4748 -4747 4732 0
4748 4747 -4732 0
-4749 4748 4733 0
-4749 -4748 -4733 0
4749 -4748 4733 0
4749 4748 -4733 0
-4750 4749 4734 0
-4750 -4749 -4734 0
4750 -4749 4734 0
4750 4749 -4734 0
-4751 4750 4735 0
-4751 -4750 -4735 0
4751 -4750 4735 0
4751 4750 -4735 0
-4752 4751 4736 0
-4752 -4751 -4736 0
4752 -4751 4736 0
4752 4751 -4736 0
-4753 4752 4737 0
-4753 -4752 -4737 0
4753 -4752 4737 0
4753 4752 -4737 0
-4754 4753 4738 0
-4754 -4753 -4738 0
4754 -4753 4738 0
4754 4753 -4738 0
-4755 4754 4739 0
-4755 -4754 -4739 0
4755 -4754 4739 0
4755 4754 -4739 0
-4756 4755 4740 0
-4756 -4755 -4740 0
4756 -4755 4740 0
4756 4755 -4740 0
-4757 4756 4741 0
-4757 -4756 -4741 0
4757 -4756 4741 0
4757 4756 -4741 0
-4758 4757 4742 0
-4758 -4757 -4742 0
4758 -4757 4742 0
4758 4757 -4742 0
-4759 4758 4743 0
-4759 -4758 -4743 0
4759 -4758 4743 0
4759 4758 -4743 0
-4760 4759 4744 0
-4760 -4759 -4744 0
4760 -4759 4744 0
4760 4759 -4744 0
4760 0
-4761 4381 0
-4761 44 0
4761 -4381 -44 0
-4762 4383 0
-4762 42 0
4762 -4383 -42 0
-4763 4385 0
-4763 47 0
4763 -4385 -47 0
-4764 4387 0
-4764 39 0
4764 -4387 -39 0
-4765 4389 0
-4765 46 0
4765 -4389 -46 0
-4766 4391 0
-4766 40 0
4766 -4391 -40 0
-4767 4393 0
-4767 47 0
4767 -4393 -47 0
-4768 4395 0
-4768 39 0
4768 -4395 -39 0
-4769 4397 0
-4769 44 0
4769 -4397 -44 0
-4770 4399 0
-4770 42 0
4770 -4399 -42 0
-4771 4401 0
-4771 40 0
4771 -4401 -40 0
-4772 4403 0
-4772 46 0
4772 -4403 -46 0
-4773 4405 0
-4773 92 0
4773 -4405 -92 0
-4774 4407 0
-4774 95 0
4774 -4407 -95 0
-4775 4409 0
-4775 140 0
4775 -4409 -140 0
-4776 4411 0
-4776 143 0
4776 -4411 -143 0
-4777 4413 0
-4777 188 0
4777 -4413 -188 0
-4778 4761 4762 0
-4778 -4761 -4762 0
4778 -4761 4762 0
4778 4761 -4762 0
-4779 4778 4763 0
-4779 -4778 -4763 0
4779 -4778 4763 0
4779 4778 -4763 0
-4780 4779 4764 0
-4780 -4779 -4764 0
4780 -4779 4764 0
4780 4779 -4764 0
-4781 4780 4765 0
-4781 -4780 -4765 0
4781 -4780 4765 0
4781 4780 -4765 0
-4782 4781 4766 0
-4782 -4781 -4766 0
4782 -4781 4766 0
4782 4781 -4766 0
-4783 4782 4767 0
-4783 -4782 -4767 0
4783 -4782 4767 0
4783 4782 -4767 0
-4784 4783 4768 0
-4784 -4783 -4768 0
4784 -4783 4768 0
4784 4783 -4768 0
-4785 4784 4769 0
-4785 -4784 -4769 0
4785 -4784 4769 0
4785 4784 -4769 0
-4786 4785 4770 0
-4786 -4785 -4770 0
4786 -4785 4770 0
4786 4785 -4770 0
-4787 4786 4771 0
-4787 -4786 -4771 0
4787 -4786 4771 0
4787 4786 -4771 0
-4788 4787 4772 0
-4788 -4787 -4772 0
4788 -4787 4772 0
4788 4787 -4772 0
-4789 4788 4773 0
-4789 -4788 -4773 0
4789 -4788 4773 0
4789 4788 -4773 0
-4790 4789 4774 0
-4790 -4789 -4774 0
4790 -4789 4774 0
4790 4789 -4774 0
-4791 4790 4775 0
-4791 -4790 -4775 0
4791 -4790 4775 0
4791 4790 -4775 0
-4792 4791 4776 0
-4792 -4791 -4776 0
4792 -4791 4776 0
4792 4791 -4776 0
-4793 4792 4777 0
-4793 -4792 -4777 0
4793 -4792 4777 0
4793 4792 -4777 0
-4793 0
-4794 4381 0
-4794 45 0
4794 -4381 -45 0
-4795 4383 0
-4795 37 0
4795 -4383 -37 0
-4796 4385 0
-4796 41 0
4796 -4385 -41 0
-4797 4387 0
-4797 41 0
4797 -4387 -41 0
-4798 4389 0
-4798 37 0
4798 -4389 -37 0
-4799 4391 0
-4799 45 0
4799 -4391 -45 0
-4800 4393 0
-4800 36 0
4800 -4393 -36 0
-4801 4395 0
-4801 34 0
4801 -4395 -34 0
-4802 4397 0
-4802 35 0
4802 -4397 -35 0
-4803 4399 0
-4803 35 0
4803 -4399 -35 0
-4804 4401 0
-4804 34 0
4804 -4401 -34 0
-4805 4403 0
-4805 36 0
4805 -4403 -36 0
-4806 4405 0
-4806 93 0
4806 -4405 -93 0
-4807 4407 0
-4807 84 0
4807 -4407 -84 0
-4808 4409 0
-4808 141 0
4808 -4409 -141 0
-4809 4411 0
-4809 132 0
4809 -4411 -132 0
-4810 4413 0
-4810 189 0
4810 -4413 -189 0
-4811 4794 4795 0
-4811 -4794 -4795 0
4811 -4794 4795 0
4811 4794 -4795 0
-4812 4811 4796 0
-4812 -4811 -4796 0
4812 -4811 4796 0
4812 4811 -4796 0
-4813 4812 4797 0
-4813 -4812 -4797 0
4813 -4812 4797 0
4813 4812 -4797 0
-4814 4813 4798 0
-4814 -4813 -4798 0
4814 -4813 4798 0
4814 4813 -4798 0
-4815 4814 4799 0
-4815 -4814 -4799 0
4815 -4814 4799 0
4815 4814 -4799 0
-4816 4815 4800 0
-4816 -4815 -4800 0
4816 -4815 4800 0
4816 4815 -4800 0
-4817 4816 4801 0
-4817 -4816 -4801 0
4817 -4816 4801 0
4817 4816 -4801 0
-4818 4817 4802 0
-4818 -4817 -4802 0
4818 -4817 4802 0
4818 4817 -4802 0
-4819 4818 4803 0
-4819 -4818 -4803 0
4819 -4818 4803 0
4819 4818 -4803 0
-4820 4819 4804 0
-4820 -4819 -4804 0
4820 -4819 4804 0
4820 4819 -4804 0
-4821 4820 4805 0
-4821 -4820 -4805 0
4821 -4820 4805 0
4821 4820 -4805 0
-4822 4821 4806 0
-4822 -4821 -4806 0
4822 -4821 4806 0
4822 4821 -4806 0
-4823 4822 4807 0
-4823 -4822 -4807 0
4823 -4822 4807 0
4823 4822 -4807 0
-4824 4823 4808 0
-4824 -4823 -4808 0
4824 -4823 4808 0
4824 4823 -4808 0
-4825 4824 4809 0
-4825 -4824 -4809 0
4825 -4824 4809 0
4825 4824 -4809 0
-4826 4825 4810 0
-4826 -4825 -4810 0
4826 -4825 4810 0
4826 4825 -4810 0
-4826 0
-4827 4381 0
-4827 46 0
4827 -4381 -46 0
-4828 4383 0
-4828 40 0
4828 -4383 -40 0
-4829 4385 0
-4829 42 0
4829 -4385 -42 0
-4830 4387 0
-4830 44 0
4830 -4387 -44 0
-4831 4389 0
-4831 39 0
4831 -4389 -39 0
-4832 4391 0
-4832 47 0
4832 -4391 -47 0
-4833 4393 0
-4833 40 0
4833 -4393 -40 0
-4834 4395 0
-4834 46 0
4834 -4395 -46 0
-4835 4397 0
-4835 39 0
4835 -4397 -39 0
-4836 4399 0
-4836 47 0
4836 -4399 -47 0
-4837 4401 0
-4837 42 0
4837 -4401 -42 0
-4838 4403 0
-4838 44 0
4838 -4403 -44 0
-4839 4405 0
-4839 94 0
4839 -4405 -94 0
-4840 4407 0
-4840 88 0
4840 -4407 -88 0
-4841 4409 0
-4841 142 0
4841 -4409 -142 0
-4842 4411 0
-4842 136 0
4842 -4411 -136 0
-4843 4413 0
-4843 190 0
4843 -4413 -190 0
-4844 4827 4828 0
-4844 -4827 -4828 0
4844 -4827 4828 0
4844 4827 -4828 0
-4845 4844 4829 0
-4845 -4844 -4829 0
4845 -4844 4829 0
4845 4844 -4829 0
-4846 4845 4830 0
-4846 -4845 -4830 0
4846 -4845 4830 0
4846 4845 -4830 0
-4847 4846 4831 0
-4847 -4846 -4831 0
4847 -4846 4831 0
4847 4846 -4831 0
-4848 4847 4832 0
-4848 -4847 -4832 0
4848 -4847 4832 0
4848 4847 -4832 0
-4849 4848 4833 0
-4849 -4848 -4833 0
4849 -4848 4833 0
4849 4848 -4833 0
-4850 4849 4834 0
-4850 -4849 -4834 0
4850 -4849 4834 0
4850 4849 -4834 0
-4851 4850 4835 0
-4851 -4850 -4835 0
4851 -4850 4835 0
4851 4850 -4835 0
-4852 4851 4836 0
-4852 -4851 -4836 0
4852 -4851 4836 0
4852 4851 -4836 0
-4853 4852 4837 0
-4853 -4852 -4837 0
4853 -4852 4837 0
4853 4852 -4837 0
-4854 4853 4838 0
-4854 -4853 -4838 0
4854 -4853 4838 0
4854 4853 -4838 0
-4855 4854 4839 0
-4855 -4854 -4839 0
4855 -4854 4839 0
4855 4854 -4839 0
-4856 4855 4840 0
-4856 -4855 -4840 0
4856 -4855 4840 0
4856 4855 -4840 0
-4857 4856 4841 0
-4857 -4856 -4841 0
4857 -4856 4841 0
4857 4856 -4841 0
-4858 4857 4842 0
-4858 -4857 -4842 0
4858 -4857 4842 0
4858 4857 -4842 0
-4859 4858 4843 0
-4859 -4858 -4843 0
4859 -4858 4843 0
4859 4858 -4843 0
-4859 0
-4860 4381 0
-4860 47 0
4860 -4381 -47 0
-4861 4383 0
-4861 39 0
4861 -4383 -39 0
-4862 4385 0
-4862 44 0
4862 -4385 -44 0
-4863 4387 0
-4863 42 0
4863 -4387 -42 0
-4864 4389 0
-4864 40 0
4864 -4389 -40 0
-4865 4391 0
-4865 46 0
4865 -4391 -46 0
-4866 4393 0
-4866 44 0
4866 -4393 -44 0
-4867 4395 0
-4867 42 0
4867 -4395 -42 0
-4868 4397 0
-4868 47 0
4868 -4397 -47 0
-4869 4399 0
-4869 39 0
4869 -4399 -39 0
-4870 4401 0
-4870 46 0
4870 -4401 -46 0
-4871 4403 0
-4871 40 0
4871 -4403 -40 0
-4872 4405 0
-4872 95 0
4872 -4405 -95 0
-4873 4407 0
-4873 92 0
4873 -4407 -92 0
-4874 4409 0
-4874 143 0
4874 -4409 -143 0
-4875 4411 0
-4875 140 0
4875 -4411 -140 0
-4876 4413 0
-4876 191 0
4876 -4413 -191 0
-4877 4860 4861 0
-4877 -4860 -4861 0
4877 -4860 4861 0
4877 4860 -4861 0
-4878 4877 4862 0
-4878 -4877 -4862 0
4878 -4877 4862 0
4878 4877 -4862 0
-4879 4878 4863 0
-4879 -4878 -4863 0
4879 -4878 4863 0
4879 4878 -4863 0
-4880 4879 4864 0
-4880 -4879 -4864 0
4880 -4879 4864 0
4880 4879 -4864 0
-4881 4880 4865 0
-4881 -4880 -4865 0
4881 -4880 4865 0
4881 4880 -4865 0
-4882 4881 4866 0
-4882 -4881 -4866 0
4882 -4881 4866 0
4882 4881 -4866 0
-4883 4882 4867 0
-4883 -4882 -4867 0
4883 -4882 4867 0
4883 4882 -4867 0
-4884 4883 4868 0
-4884 -4883 -4868 0
4884 -4883 4868 0
4884 4883 -4868 0
-4885 4884 4869 0
-4885 -4884 -4869 0
4885 -4884 4869 0
4885 4884 -4869 0
-4886 4885 4870 0
-4886 -4885 -4870 0
4886 -4885 4870 0
4886 4885 -4870 0
-4887 4886 4871 0
-4887 -4886 -4871 0
4887 -4886 4871 0
4887 4886 -4871 0
-4888 4887 4872 0
-4888 -4887 -4872 0
4888 -4887 4872 0
4888 4887 -4872 0
-4889 4888 4873 0
-4889 -4888 -4873 0
4889 -4888 4873 0
4889 4888 -4873 0
-4890 4889 4874 0
-4890 -4889 -4874 0
4890 -4889 4874 0
4890 4889 -4874 0
-4891 4890 4875 0
-4891 -4890 -4875 0
4891 -4890 4875 0
4891 4890 -4875 0
-4892 4891 4876 0
-4892 -4891 -4876 0
4892 -4891 4876 0
4892 4891 -4876 0
-4892 0
-4893 4381 0
-4893 48 0
4893 -4381 -48 0
-4894 4383 0
-4894 38 0
4894 -4383 -38 0
-4895 4385 0
-4895 43 0
4895 -4385 -43 0
-4896 4387 0
-4896 43 0
4896 -4387 -43 0
-4897 4389 0
-4897 38 0
4897 -4389 -38 0
-4898 4391 0
-4898 48 0
4898 -4391 -48 0
-4899 4393 0
-4899 48 0
4899 -4393 -48 0
-4900 4395 0
-4900 38 0
4900 -4395 -38 0
-4901 4397 0
-4901 43 0
4901 -4397 -43 0
-4902 4399 0
-4902 43 0
4902 -4399 -43 0
-4903 4401 0
-4903 38 0
4903 -4401 -38 0
-4904 4403 0
-4904 48 0
4904 -4403 -48 0
-4905 4405 0
-4905 96 0
4905 -4405 -96 0
-4906 4407 0
-4906 96 0
4906 -4407 -96 0
-4907 4409 0
-4907 144 0
4907 -4409 -144 0
-4908 4411 0
-4908 144 0
4908 -4411 -144 0
-4909 4413 0
-4909 192 0
4909 -4413 -192 0
-4910 4893 4894 0
-4910 -4893 -4894 0
4910 -4893 4894 0
4910 4893 -4894 0
-4911 4910 4895 0
-4911 -4910 -4895 0
4911 -4910 4895 0
4911 4910 -4895 0
-4912 4911 4896 0
-4912 -4911 -4896 0
4912 -4911 4896 0
4912 4911 -4896 0
-4913 4912 4897 0
-4913 -4912 -4897 0
4913 -4912 4897 0
4913 4912 -4897 0
-4914 4913 4898 0
-4914 -4913 -4898 0
4914 -4913 4898 0
4914 4913 -4898 0
-4915 4914 4899 0
-4915 -4914 -4899 0
4915 -4914 4899 0
4915 4914 -4899 0
-4916 4915 4900 0
-4916 -4915 -4900 0
4916 -4915 4900 0
4916 4915 -4900 0
-4917 4916 4901 0
-4917 -4916 -4901 0
4917 -4916 4901 0
4917 4916 -4901 0
-4918 4917 4902 0
-4918 -4917 -4902 0
4918 -4917 4902 0
4918 4917 -4902 0
-4919 4918 4903 0
-4919 -4918 -4903 0
4919 -4918 4903 0
4919 4918 -4903 0
-4920 4919 4904 0
-4920 -4919 -4904 0
4920 -4919 4904 0
4920 4919 -4904 0
-4921 4920 4905 0
-4921 -4920 -4905 0
4921 -4920 4905 0
4921 4920 -4905 0
-4922 4921 4906 0
-4922 -4921 -4906 0
4922 -4921 4906 0
4922 4921 -4906 0
-4923 4922 4907 0
-4923 -4922 -4907 0
4923 -4922 4907 0
4923 4922 -4907 0
-4924 4923 4908 0
-4924 -4923 -4908 0
4924 -4923 4908 0
4924 4923 -4908 0
-4925 4924 4909 0
-4925 -4924 -4909 0
4925 -4924 4909 0
4925 4924 -4909 0
-4925 0
-4926 4 0
-4926 19 0
4926 -4 -19 0
-4927 4926 0
-4927 33 0
4927 -4926 -33 0
-4928 4 0
-4928 24 0
4928 -4 -24 0
-4929 4928 0
-4929 33 0
4929 -4928 -33 0
-4930 4 0
-4930 26 0
4930 -4 -26 0
-4931 4930 0
-4931 33 0
4931 -4930 -33 0
-4932 29 0
-4932 9 0
4932 -29 -9 0
-4933 4932 0
-4933 33 0
4933 -4932 -33 0
-4934 29 0
-4934 14 0
4934 -29 -14 0
-4935 4934 0
-4935 33 0
4935 -4934 -33 0
-4936 29 0
-4936 7 0
4936 -29 -7 0
-4937 4936 0
-4937 33 0
4937 -4936 -33 0
-4938 52 0
-4938 67 0
4938 -52 -67 0
-4939 4938 0
-4939 81 0
4939 -4938 -81 0
-4940 77 0
-4940 57 0
4940 -77 -57 0
-4941 4940 0
-4941 81 0
4941 -4940 -81 0
-4942 100 0
-4942 115 0
4942 -100 -115 0
-4943 4942 0
-4943 129 0
4943 -4942 -129 0
-4944 125 0
-4944 105 0
4944 -125 -105 0
-4945 4944 0
-4945 129 0
4945 -4944 -129 0
-4946 148 0
-4946 163 0
4946 -148 -163 0
-4947 4946 0
-4947 177 0
4947 -4946 -177 0
-4948 4927 4927 0
-4948 -4927 -4927 0
4948 -4927 4927 0
4948 4927 -4927 0
-4949 4948 4929 0
-4949 -4948 -4929 0
4949 -4948 4929 0
4949 4948 -4929 0
-4950 4949 4931 0
-4950 -4949 -4931 0
4950 -4949 4931 0
4950 4949 -4931 0
-4951 4950 4929 0
-4951 -4950 -4929 0
4951 -4950 4929 0
4951 4950 -4929 0
-4952 4951 4931 0
-4952 -4951 -4931 0
4952 -4951 4931 0
4952 4951 -4931 0
-4953 4952 4933 0
-4953 -4952 -4933 0
4953 -4952 4933 0
4953 4952 -4933 0
-4954 4953 4933 0
-4954 -4953 -4933 0
4954 -4953 4933 0
4954 4953 -4933 0
-4955 4954 4935 0
-4955 -4954 -4935 0
4955 -4954 4935 0
4955 4954 -4935 0
-4956 4955 4937 0
-4956 -4955 -4937 0
4956 -4955 4937 0
4956 4955 -4937 0
-4957 4956 4935 0
-4957 -4956 -4935 0
4957 -4956 4935 0
4957 4956 -4935 0
-4958 4957 4937 0
-4958 -4957 -4937 0
4958 -4957 4937 0
4958 4957 -4937 0
-4959 4958 4939 0
-4959 -4958 -4939 0
4959 -4958 4939 0
4959 4958 -4939 0
-4960 4959 4941 0
-4960 -4959 -4941 0
4960 -4959 4941 0
4960 4959 -4941 0
-4961 4960 4943 0
-4961 -4960 -4943 0
4961 -4960 4943 0
4961 4960 -4943 0
-4962 4961 4945 0
-4962 -4961 -4945 0
4962 -4961 4945 0
4962 4961 -4945 0
-4963 4962 4947 0
-4963 -4962 -4947 0
4963 -4962 4947 0
4963 4962 -4947 0
-4963 0
-4964 4926 0
-4964 34 0
4964 -4926 -34 0
-4965 4926 0
-4965 36 0
4965 -4926 -36 0
-4966 4928 0
-4966 34 0
4966 -4928 -34 0
-4967 4930 0
-4967 36 0
4967 -4930 -36 0
-4968 4928 0
-4968 35 0
4968 -4928 -35 0
-4969 4930 0
-4969 35 0
4969 -4930 -35 0
-4970 4932 0
-4970 37 0
4970 -4932 -37 0
-4971 4932 0
-4971 45 0
4971 -4932 -45 0
-4972 4934 0
-4972 37 0
4972 -4934 -37 0
-4973 4936 0
-4973 45 0
4973 -4936 -45 0
-4974 4934 0
-4974 41 0
4974 -4934 -41 0
-4975 4936 0
-4975 41 0
4975 -4936 -41 0
-4976 4938 0
-4976 82 0
4976 -4938 -82 0
-4977 4940 0
-4977 85 0
4977 -4940 -85 0
-4978 4942 0
-4978 130 0
4978 -4942 -130 0
-4979 4944 0
-4979 133 0
4979 -4944 -133 0
-4980 4946 0
-4980 178 0
4980 -4946 -178 0
-4981 4964 4965 0
-4981 -4964 -4965 0
4981 -4964 4965 0
4981 4964 -4965 0
-4982 4981 4966 0
-4982 -4981 -4966 0
4982 -4981 4966 0
4982 4981 -4966 0
-4983 4982 4967 0
-4983 -4982 -4967 0
4983 -4982 4967 0
4983 4982 -4967 0
-4984 4983 4968 0
-4984 -4983 -4968 0
4984 -4983 4968 0
4984 4983 -4968 0
-4985 4984 4969 0
-4985 -4984 -4969 0
4985 -4984 4969 0
4985 4984 -4969 0
-4986 4985 4970 0
-4986 -4985 -4970 0
4986 -4985 4970 0
4986 4985 -4970 0
-4987 4986 4971 0
-4987 -4986 -4971 0
4987 -4986 4971 0
4987 4986 -4971 0
-4988 4987 4972 0
-4988 -4987 -4972 0
4988 -4987 4972 0
4988 4987 -4972 0
-4989 4988 4973 0
-4989 -4988 -4973 0
4989 -4988 4973 0
4989 4988 -4973 0
-4990 4989 4974 0
-4990 -4989 -4974 0
4990 -4989 4974 0
4990 4989 -4974 0
-4991 4990 4975 0
-4991 -4990 -4975 0
4991 -4990 4975 0
4991 4990 -4975 0
-4992 4991 4976 0
-4992 -4991 -4976 0
4992 -4991 4976 0
4992 4991 -4976 0
-4993 4992 4977 0
-4993 -4992 -4977 0
4993 -4992 4977 0
4993 4992 -4977 0
-4994 4993 4978 0
-4994 -4993 -4978 0
4994 -4993 4978 0
4994 4993 -4978 0
-4995 4994 4979 0
-4995 -4994 -4979 0
4995 -4994 4979 0
4995 4994 -4979 0
-4996 4995 4980 0
-4996 -4995 -4980 0
4996 -4995 4980 0
4996 4995 -4980 0
-4996 0
-4997 4926 0
-4997 35 0
4997 -4926 -35 0
-4998 4928 0
-4998 36 0
4998 -4928 -36 0
-4999 4930 0
-4999 34 0
4999 -4930 -34 0
-5000 4932 0
-5000 41 0
5000 -4932 -41 0
-5001 4934 0
-5001 45 0
5001 -4934 -45 0
-5002 4936 0
-5002 37 0
5002 -4936 -37 0
-5003 4938 0
-5003 83 0
5003 -4938 -83 0
-5004 4940 0
-5004 89 0
5004 -4940 -89 0
-5005 4942 0
-5005 131 0
5005 -4942 -131 0
-5006 4944 0
-5006 137 0
5006 -4944 -137 0
-5007 4946 0
-5007 179 0
5007 -4946 -179 0
-5008 4997 4997 0
-5008 -4997 -4997 0
5008 -4997 4997 0
5008 4997 -4997 0
-5009 5008 4998 0
-5009 -5008 -4998 0
5009 -5008 4998 0
5009 5008 -4998 0
-5010 5009 4999 0
-5010 -5009 -4999 0
5010 -5009 4999 0
5010 5009 -4999 0
-5011 5010 4998 0
-5011 -5010 -4998 0
5011 -5010 4998 0
5011 5010 -4998 0
-5012 5011 4999 0
-5012 -5011 -4999 0
5012 -5011 4999 0
5012 5011 -4999 0
-5013 5012 5000 0
-5013 -5012 -5000 0
5013 -5012 5000 0
5013 5012 -5000 0
-5014 5013 5000 0
-5014 -5013 -5000 0
5014 -5013 5000 0
5014 5013 -5000 0
-5015 5014 5001 0
-5015 -5014 -5001 0
5015 -5014 5001 0
5015 5014 -5001 0
-5016 5015 5002 0
-5016 -5015 -5002 0
5016 -5015 5002 0
5016 5015 -5002 0
-5017 5016 5001 0
-5017 -5016 -5001 0
5017 -5016 5001 0
5017 5016 -5001 0
-5018 5017 5002 0
-5018 -5017 -5002 0
5018 -5017 5002 0
5018 5017 -5002 0
-5019 5018 5003 0
-5019 -5018 -5003 0
5019 -5018 5003 0
5019 5018 -5003 0
-5020 5019 5004 0
-5020 -5019 -5004 0
5020 -5019 5004 0
5020 5019 -5004 0
-5021 5020 5005 0
-5021 -5020 -5005 0
5021 -5020 5005 0
5021 5020 -5005 0
-5022 5021 5006 0
-5022 -5021 -5006 0
5022 -5021 5006 0
5022 5021 -5006 0
-5023 5022 5007 0
-5023 -5022 -5007 0
5023 -5022 5007 0
5023 5022 -5007 0
-5023 0
-5024 4926 0
-5024 37 0
5024 -4926 -37 0
-5025 4926 0
-5025 45 0
5025 -4926 -45 0
-5026 4928 0
-5026 37 0
5026 -4928 -37 0
-5027 4930 0
-5027 45 0
5027 -4930 -45 0
-5028 4928 0
-5028 41 0
5028 -4928 -41 0
-5029 4930 0
-5029 41 0
5029 -4930 -41 0
-5030 4932 0
-5030 34 0
5030 -4932 -34 0
-5031 4932 0
-5031 36 0
5031 -4932 -36 0
-5032 4934 0
-5032 34 0
5032 -4934 -34 0
-5033 4936 0
-5033 36 0
5033 -4936 -36 0
-5034 4934 0
-5034 35 0
5034 -4934 -35 0
-5035 4936 0
-5035 35 0
5035 -4936 -35 0
-5036 4938 0
-5036 85 0
5036 -4938 -85 0
-5037 4940 0
-5037 82 0
5037 -4940 -82 0
-5038 4942 0
-5038 133 0
5038 -4942 -133 0
-5039 4944 0
-5039 130 0
5039 -4944 -130 0
-5040 4946 0
-5040 181 0
5040 -4946 -181 0
-5041 5024 5025 0
-5041 -5024 -5025 0
5041 -5024 5025 0
5041 5024 -5025 0
-5042 5041 5026 0
-5042 -5041 -5026 0
5042 -5041 5026 0
5042 5041 -5026 0
-5043 5042 5027 0
-5043 -5042 -5027 0
5043 -5042 5027 0
5043 5042 -5027 0
-5044 5043 5028 0
-5044 -5043 -5028 0
5044 -5043 5028 0
5044 5043 -5028 0
-5045 5044 5029 0
-5045 -5044 -5029 0
5045 -5044 5029 0
5045 5044 -5029 0
-5046 5045 5030 0
-5046 -5045 -5030 0
5046 -5045 5030 0
5046 5045 -5030 0
-5047 5046 5031 0
-5047 -5046 -5031 0
5047 -5046 5031 0
5047 5046 -5031 0
-5048 5047 5032 0
-5048 -5047 -5032 0
5048 -5047 5032 0
5048 5047 -5032 0
-5049 5048 5033 0
-5049 -5048 -5033 0
5049 -5048 5033 0
5049 5048 -5033 0
-5050 5049 5034 0
-5050 -5049 -5034 0
5050 -5049 5034 0
5050 5049 -5034 0
-5051 5050 5035 0
-5051 -5050 -5035 0
5051 -5050 5035 0
5051 5050 -5035 0
-5052 5051 5036 0
-5052 -5051 -5036 0
5052 -5051 5036 0
5052 5051 -5036 0
-5053 5052 5037 0
-5053 -5052 -5037 0
5053 -5052 5037 0
5053 5052 -5037 0
-5054 5053 5038 0
-5054 -5053 -5038 0
5054 -5053 5038 0
5054 5053 -5038 0
-5055 5054 5039 0
-5055 -5054 -5039 0
5055 -5054 5039 0
5055 5054 -5039 0
-5056 5055 5040 0
-5056 -5055 -5040 0
5056 -5055 5040 0
5056 5055 -5040 0
-5056 0
-5057 4926 0
-5057 38 0
5057 -4926 -38 0
-5058 4926 0
-5058 48 0
5058 -4926 -48 0
-5059 4928 0
-5059 38 0
5059 -4928 -38 0
-5060 4930 0
-5060 48 0
5060 -4930 -48 0
-5061 4928 0
-5061 43 0
5061 -4928 -43 0
-5062 4930 0
-5062 43 0
5062 -4930 -43 0
-5063 4932 0
-5063 38 0
5063 -4932 -38 0
-5064 4932 0
-5064 48 0
5064 -4932 -48 0
-5065 4934 0
-5065 38 0
5065 -4934 -38 0
-5066 4936 0
-5066 48 0
5066 -4936 -48 0
-5067 4934 0
-5067 43 0
5067 -4934 -43 0
-5068 4936 0
-5068 43 0
5068 -4936 -43 0
-5069 4938 0
-5069 86 0
5069 -4938 -86 0
-5070 4940 0
-5070 86 0
5070 -4940 -86 0
-5071 4942 0
-5071 134 0
5071 -4942 -134 0
-5072 4944 0
-5072 134 0
5072 -4944 -134 0
-5073 4946 0
-5073 182 0
5073 -4946 -182 0
-5074 5057 5058 0
-5074 -5057 -5058 0
5074 -5057 5058 0
5074 5057 -5058 0
-5075 5074 5059 0
-5075 -5074 -5059 0
5075 -5074 5059 0
5075 5074 -5059 0
-5076 5075 5060 0
-5076 -5075 -5060 0
5076 -5075 5060 0
5076 5075 -5060 0
-5077 5076 5061 0
-5077 -5076 -5061 0
5077 -5076 5061 0
5077 5076 -5061 0
-5078 5077 5062 0
-5078 -5077 -5062 0
5078 -5077 5062 0
5078 5077 -5062 0
-5079 5078 5063 0
-5079 -5078 -5063 0
5079 -5078 5063 0
5079 5078 -5063 0
-5080 5079 5064 0
-5080 -5079 -5064 0
5080 -5079 5064 0
5080 5079 -5064 0
-5081 5080 5065 0
-5081 -5080 -5065 0
5081 -5080 5065 0
5081 5080 -5065 0
-5082 5081 5066 0
-5082 -5081 -5066 0
5082 -5081 5066 0
5082 5081 -5066 0
-5083 5082 5067 0
-5083 -5082 -5067 0
5083 -5082 5067 0
5083 5082 -5067 0
-5084 5083 5068 0
-5084 -5083 -5068 0
5084 -5083 5068 0
5084 5083 -5068 0
-5085 5084 5069 0
-5085 -5084 -5069 0
5085 -5084 5069 0
5085 5084 -5069 0
-5086 5085 5070 0
-5086 -5085 -5070 0
5086 -5085 5070 0
5086 5085 -5070 0
-5087 5086 5071 0
-5087 -5086 -5071 0
5087 -5086 5071 0
5087 5086 -5071 0
-5088 5087 5072 0
-5088 -5087 -5072 0
5088 -5087 5072 0
5088 5087 -5072 0
-5089 5088 5073 0
-5089 -5088 -5073 0
5089 -5088 5073 0
5089 5088 -5073 0
-5089 0
-5090 4926 0
-5090 39 0
5090 -4926 -39 0
-5091 4926 0
-5091 47 0
5091 -4926 -47 0
-5092 4928 0
-5092 40 0
5092 -4928 -40 0
-5093 4930 0
-5093 46 0
5093 -4930 -46 0
-5094 4928 0
-5094 44 0
5094 -4928 -44 0
-5095 4930 0
-5095 42 0
5095 -4930 -42 0
-5096 4932 0
-5096 42 0
5096 -4932 -42 0
-5097 4932 0
-5097 44 0
5097 -4932 -44 0
-5098 4934 0
-5098 46 0
5098 -4934 -46 0
-5099 4936 0
-5099 40 0
5099 -4936 -40 0
-5100 4934 0
-5100 47 0
5100 -4934 -47 0
-5101 4936 0
-5101 39 0
5101 -4936 -39 0
-5102 4938 0
-5102 87 0
5102 -4938 -87 0
-5103 4940 0
-5103 90 0
5103 -4940 -90 0
-5104 4942 0
-5104 135 0
5104 -4942 -135 0
-5105 4944 0
-5105 138 0
5105 -4944 -138 0
-5106 4946 0
-5106 183 0
5106 -4946 -183 0
-5107 5090 5091 0
-5107 -5090 -5091 0
5107 -5090 5091 0
5107 5090 -5091 0
-5108 5107 5092 0
-5108 -5107 -5092 0
5108 -5107 5092 0
5108 5107 -5092 0
-5109 5108 5093 0
-5109 -5108 -5093 0
5109 -5108 5093 0
5109 5108 -5093 0
-5110 5109 5094 0
-5110 -5109 -5094 0
5110 -5109 5094 0
5110 5109 -5094 0
-5111 5110 5095 0
-5111 -5110 -5095 0
5111 -5110 5095 0
5111 5110 -5095 0
-5112 5111 5096 0
-5112 -5111 -5096 0
5112 -5111 5096 0
5112 5111 -5096 0
-5113 5112 5097 0
-5113 -5112 -5097 0
5113 -5112 5097 0
5113 5112 -5097 0
-5114 5113 5098 0
-5114 -5113 -5098 0
5114 -5113 5098 0
5114 5113 -5098 0
-5115 5114 5099 0
-5115 -5114 -5099 0
5115 -5114 5099 0
5115 5114 -5099 0
-5116 5115 5100 0
-5116 -5115 -5100 0
5116 -5115 5100 0
5116 5115 -5100 0
-5117 5116 5101 0
-5117 -5116 -5101 0
5117 -5116 5101 0
5117 5116 -5101 0
-5118 5117 5102 0
-5118 -5117 -5102 0
5118 -5117 5102 0
5118 5117 -5102 0
-5119 5118 5103 0
-5119 -5118 -5103 0
5119 -5118 5103 0
5119 5118 -5103 0
-5120 5119 5104 0
-5120 -5119 -5104 0
5120 -5119 5104 0
5120 5119 -5104 0
-5121 5120 5105 0
-5121 -5120 -5105 0
5121 -5120 5105 0
5121 5120 -5105 0
-5122 5121 5106 0
-5122 -5121 -5106 0
5122 -5121 5106 0
5122 5121 -5106 0
-5122 0
-5123 4926 0
-5123 40 0
5123 -4926 -40 0
-5124 4926 0
-5124 46 0
5124 -4926 -46 0
-5125 4928 0
-5125 39 0
5125 -4928 -39 0
-5126 4930 0
-5126 47 0
5126 -4930 -47 0
-5127 4928 0
-5127 42 0
5127 -4928 -42 0
-5128 4930 0
-5128 44 0
5128 -4930 -44 0
-5129 4932 0
-5129 46 0
5129 -4932 -46 0
-5130 4932 0
-5130 40 0
5130 -4932 -40 0
-5131 4934 0
-5131 42 0
5131 -4934 -42 0
-5132 4936 0
-5132 44 0
5132 -4936 -44 0
-5133 4934 0
-5133 39 0
5133 -4934 -39 0
-5134 4936 0
-5134 47 0
5134 -4936 -47 0
-5135 4938 0
-5135 88 0
5135 -4938 -88 0
-5136 4940 0
-5136 94 0
5136 -4940 -94 0
-5137 4942 0
-5137 136 0
5137 -4942 -136 0
-5138 4944 0
-5138 142 0
5138 -4944 -142 0
-5139 4946 0
-5139 184 0
5139 -4946 -184 0
-5140 5123 5124 0
-5140 -5123 -5124 0
5140 -5123 5124 0
5140 5123 -5124 0
-5141 5140 5125 0
-5141 -5140 -5125 0
5141 -5140 5125 0
5141 5140 -5125 0
-5142 5141 5126 0
-5142 -5141 -5126 0
5142 -5141 5126 0
5142 5141 -5126 0
-5143 5142 5127 0
-5143 -5142 -5127 0
5143 -5142 5127 0
5143 5142 -5127 0
-5144 5143 5128 0
-5144 -5143 -5128 0
5144 -5143 5128 0
5144 5143 -5128 0
-5145 5144 5129 0
-5145 -5144 -5129 0
5145 -5144 5129 0
5145 5144 -5129 0
-5146 5145 5130 0
-5146 -5145 -5130 0
5146 -5145 5130 0
5146 5145 -5130 0
-5147 5146 5131 0
-5147 -5146 -5131 0
5147 -5146 5131 0
5147 5146 -5131 0
-5148 5147 5132 0
-5148 -5147 -5132 0
5148 -5147 5132 0
5148 5147 -5132 0
-5149 5148 5133 0
-5149 -5148 -5133 0
5149 -5148 5133 0
5149 5148 -5133 0
-5150 5149 5134 0
-5150 -5149 -5134 0
5150 -5149 5134 0
5150 5149 -5134 0
-5151 5150 5135 0
-5151 -5150 -5135 0
5151 -5150 5135 0
5151 5150 -5135 0
-5152 5151 5136 0
-5152 -5151 -5136 0
5152 -5151 5136 0
5152 5151 -5136 0
-5153 5152 5137 0
-5153 -5152 -5137 0
5153 -5152 5137 0
5153 5152 -5137 0
-5154 5153 5138 0
-5154 -5153 -5138 0
5154 -5153 5138 0
5154 5153 -5138 0
-5155 5154 5139 0
-5155 -5154 -5139 0
5155 -5154 5139 0
5155 5154 -5139 0
-5155 0
-5156 4926 0
-5156 41 0
5156 -4926 -41 0
-5157 4928 0
-5157 45 0
5157 -4928 -45 0
-5158 4930 0
-5158 37 0
5158 -4930 -37 0
-5159 4932 0
-5159 35 0
5159 -4932 -35 0
-5160 4934 0
-5160 36 0
5160 -4934 -36 0
-5161 4936 0
-5161 34 0
5161 -4936 -34 0
-5162 4938 0
-5162 89 0
5162 -4938 -89 0
-5163 4940 0
-5163 83 0
5163 -4940 -83 0
-5164 4942 0
-5164 137 0
5164 -4942 -137 0
-5165 4944 0
-5165 131 0
5165 -4944 -131 0
-5166 4946 0
-5166 185 0
5166 -4946 -185 0
-5167 5156 5156 0
-5167 -5156 -5156 0
5167 -5156 5156 0
5167 5156 -5156 0
-5168 5167 5157 0
-5168 -5167 -5157 0
5168 -5167 5157 0
5168 5167 -5157 0
-5169 5168 5158 0
-5169 -5168 -5158 0
5169 -5168 5158 0
5169 5168 -5158 0
-5170 5169 5157 0
-5170 -5169 -5157 0
5170 -5169 5157 0
5170 5169 -5157 0
-5171 5170 5158 0
-5171 -5170 -5158 0
5171 -5170 5158 0
5171 5170 -5158 0
-5172 5171 5159 0
-5172 -5171 -5159 0
5172 -5171 5159 0
5172 5171 -5159 0
-5173 5172 5159 0
-5173 -5172 -5159 0
5173 -5172 5159 0
5173 5172 -5159 0
-5174 5173 5160 0
-5174 -5173 -5160 0
5174 -5173 5160 0
5174 5173 -5160 0
-5175 5174 5161 0
-5175 -5174 -5161 0
5175 -5174 5161 0
5175 5174 -5161 0
-5176 5175 5160 0
-5176 -5175 -5160 0
5176 -5175 5160 0
5176 5175 -5160 0
-5177 5176 5161 0
-5177 -5176 -5161 0
5177 -5176 5161 0
5177 5176 -5161 0
-5178 5177 5162 0
-5178 -5177 -5162 0
5178 -5177 5162 0
5178 5177 -5162 0
-5179 5178 5163 0
-5179 -5178 -5163 0
5179 -5178 5163 0
5179 5178 -5163 0
-5180 5179 5164 0
-5180 -5179 -5164 0
5180 -5179 5164 0
5180 5179 -5164 0
-5181 5180 5165 0
-5181 -5180 -5165 0
5181 -5180 5165 0
5181 5180 -5165 0
-5182 5181 5166 0
-5182 -5181 -5166 0
5182 -5181 5166 0
5182 5181 -5166 0
-5182 0
-5183 4926 0
-5183 42 0
5183 -4926 -42 0
-5184 4926 0
-5184 44 0
5184 -4926 -44 0
-5185 4928 0
-5185 46 0
5185 -4928 -46 0
-5186 4930 0
-5186 40 0
5186 -4930 -40 0
-5187 4928 0
-5187 47 0
5187 -4928 -47 0
-5188 4930 0
-5188 39 0
5188 -4930 -39 0
-5189 4932 0
-5189 39 0
5189 -4932 -39 0
-5190 4932 0
-5190 47 0
5190 -4932 -47 0
-5191 4934 0
-5191 40 0
5191 -4934 -40 0
-5192 4936 0
-5192 46 0
5192 -4936 -46 0
-5193 4934 0
-5193 44 0
5193 -4934 -44 0
-5194 4936 0
-5194 42 0
5194 -4936 -42 0
-5195 4938 0
-5195 90 0
5195 -4938 -90 0
-5196 4940 0
-5196 87 0
5196 -4940 -87 0
-5197 4942 0
-5197 138 0
5197 -4942 -138 0
-5198 4944 0
-5198 135 0
5198 -4944 -135 0
-5199 4946 0
-5199 186 0
5199 -4946 -186 0
-5200 5183 5184 0
-5200 -5183 -5184 0
5200 -5183 5184 0
5200 5183 -5184 0
-5201 5200 5185 0
-5201 -5200 -5185 0
5201 -5200 5185 0
5201 5200 -5185 0
-5202 5201 5186 0
-5202 -5201 -5186 0
5202 -5201 5186 0
5202 5201 -5186 0
-5203 5202 5187 0
-5203 -5202 -5187 0
5203 -5202 5187 0
5203 5202 -5187 0
-5204 5203 5188 0
-5204 -5203 -5188 0
5204 -5203 5188 0
5204 5203 -5188 0
-5205 5204 5189 0
-5205 -5204 -5189 0
5205 -5204 5189 0
5205 5204 -5189 0
-5206 5205 5190 0
-5206 -5205 -5190 0
5206 -5205 5190 0
5206 5205 -5190 0
-5207 5206 5191 0
-5207 -5206 -5191 0
5207 -5206 5191 0
5207 5206 -5191 0
-5208 5207 5192 0
-5208 -5207 -5192 0
5208 -5207 5192 0
5208 5207 -5192 0
-5209 5208 5193 0
-5209 -5208 -5193 0
5209 -5208 5193 0
5209 5208 -5193 0
-5210 5209 5194 0
-5210 -5209 -5194 0
5210 -5209 5194 0
5210 5209 -5194 0
-5211 5210 5195 0
-5211 -5210 -5195 0
5211 -5210 5195 0
5211 5210 -5195 0
-5212 5211 5196 0
-5212 -5211 -5196 0
5212 -5211 5196 0
5212 5211 -5196 0
-5213 5212 5197 0
-5213 -5212 -5197 0
5213 -5212 5197 0
5213 5212 -5197 0
-5214 5213 5198 0
-5214 -5213 -5198 0
5214 -5213 5198 0
5214 5213 -5198 0
-5215 5214 5199 0
-5215 -5214 -5199 0
5215 -5214 5199 0
5215 5214 -5199 0
-5215 0
-5216 4926 0
-5216 43 0
5216 -4926 -43 0
-5217 4928 0
-5217 48 0
5217 -4928 -48 0
-5218 4930 0
-5218 38 0
5218 -4930 -38 0
-5219 4932 0
-5219 43 0
5219 -4932 -43 0
-5220 4934 0
-5220 48 0
5220 -4934 -48 0
-5221 4936 0
-5221 38 0
5221 -4936 -38 0
-5222 4938 0
-5222 91 0
5222 -4938 -91 0
-5223 4940 0
-5223 91 0
5223 -4940 -91 0
-5224 4942 0
-5224 139 0
5224 -4942 -139 0
-5225 4944 0
-5225 139 0
5225 -4944 -139 0
-5226 4946 0
-5226 187 0
5226 -4946 -187 0
-5227 5216 5216 0
-5227 -5216 -5216 0
5227 -5216 5216 0
5227 5216 -5216 0
-5228 5227 5217 0
-5228 -5227 -5217 0
5228 -5227 5217 0
5228 5227 -5217 0
-5229 5228 5218 0
-5229 -5228 -5218 0
5229 -5228 5218 0
5229 5228 -5218 0
-5230 5229 5217 0
-5230 -5229 -5217 0
5230 -5229 5217 0
5230 5229 -5217 0
-5231 5230 5218 0
-5231 -5230 -5218 0
5231 -5230 5218 0
5231 5230 -5218 0
-5232 5231 5219 0
-5232 -5231 -5219 0
5232 -5231 5219 0
5232 5231 -5219 0
-5233 5232 5219 0
-5233 -5232 -5219 0
5233 -5232 5219 0
5233 5232 -5219 0
-5234 5233 5220 0
-5234 -5233 -5220 0
5234 -5233 5220 0
5234 5233 -5220 0
-5235 5234 5221 0
-5235 -5234 -5221 0
5235 -5234 5221 0
5235 5234 -5221 0
-5236 5235 5220 0
-5236 -5235 -5220 0
5236 -5235 5220 0
5236 5235 -5220 0
-5237 5236 5221 0
-5237 -5236 -5221 0
5237 -5236 5221 0
5237 5236 -5221 0
-5238 5237 5222 0
-5238 -5237 -5222 0
5238 -5237 5222 0
5238 5237 -5222 0
-5239 5238 5223 0
-5239 -5238 -5223 0
5239 -5238 5223 0
5239 5238 -5223 0
-5240 5239 5224 0
-5240 -5239 -5224 0
5240 -5239 5224 0
5240 5239 -5224 0
-5241 5240 5225 0
-5241 -5240 -5225 0
5241 -5240 5225 0
5241 5240 -5225 0
-5242 5241 5226 0
-5242 -5241 -5226 0
5242 -5241 5226 0
5242 5241 -5226 0
-5242 0
-5243 4 0
-5243 29 0
5243 -4 -29 0
-5244 5243 0
-5244 33 0
5244 -5243 -33 0
-5245 52 0
-5245 77 0
5245 -52 -77 0
-5246 5245 0
-5246 81 0
5246 -5245 -81 0
-5247 100 0
-5247 125 0
5247 -100 -125 0
-5248 5247 0
-5248 129 0
5248 -5247 -129 0
-5249 148 0
-5249 173 0
5249 -148 -173 0
-5250 5249 0
-5250 177 0
5250 -5249 -177 0
-5251 5244 5244 0
-5251 -5244 -5244 0
5251 -5244 5244 0
5251 5244 -5244 0
-5252 5251 5244 0
-5252 -5251 -5244 0
5252 -5251 5244 0
5252 5251 -5244 0
-5253 5252 5244 0
-5253 -5252 -5244 0
5253 -5252 5244 0
5253 5252 -5244 0
-5254 5253 5244 0
-5254 -5253 -5244 0
5254 -5253 5244 0
5254 5253 -5244 0
-5255 5254 5244 0
-5255 -5254 -5244 0
5255 -5254 5244 0
5255 5254 -5244 0
-5256 5255 5244 0
-5256 -5255 -5244 0
5256 -5255 5244 0
5256 5255 -5244 0
-5257 5256 5244 0
-5257 -5256 -5244 0
5257 -5256 5244 0
5257 5256 -5244 0
-5258 5257 5244 0
-5258 -5257 -5244 0
5258 -5257 5244 0
5258 5257 -5244 0
-5259 5258 5244 0
-5259 -5258 -5244 0
5259 -5258 5244 0
5259 5258 -5244 0
-5260 5259 5244 0
-5260 -5259 -5244 0
5260 -5259 5244 0
5260 5259 -5244 0
-5261 5260 5244 0
-5261 -5260 -5244 0
5261 -5260 5244 0
5261 5260 -5244 0
-5262 5261 5246 0
-5262 -5261 -5246 0
5262 -5261 5246 0
5262 5261 -5246 0
-5263 5262 5246 0
-5263 -5262 -5246 0
5263 -5262 5246 0
5263 5262 -5246 0
-5264 5263 5248 0
-5264 -5263 -5248 0
5264 -5263 5248 0
5264 5263 -5248 0
-5265 5264 5248 0
-5265 -5264 -5248 0
5265 -5264 5248 0
5265 5264 -5248 0
-5266 5265 5250 0
-5266 -5265 -5250 0
5266 -5265 5250 0
5266 5265 -5250 0
-5266 0
-5267 5243 0
-5267 34 0
5267 -5243 -34 0
-5268 5243 0
-5268 36 0
5268 -5243 -36 0
-5269 5243 0
-5269 35 0
5269 -5243 -35 0
-5270 5243 0
-5270 37 0
5270 -5243 -37 0
-5271 5243 0
-5271 45 0
5271 -5243 -45 0
-5272 5243 0
-5272 41 0
5272 -5243 -41 0
-5273 5245 0
-5273 82 0
5273 -5245 -82 0
-5274 5245 0
-5274 85 0
5274 -5245 -85 0
-5275 5247 0
-5275 130 0
5275 -5247 -130 0
-5276 5247 0
-5276 133 0
5276 -5247 -133 0
-5277 5249 0
-5277 178 0
5277 -5249 -178 0
-5278 5267 5268 0
-5278 -5267 -5268 0
5278 -5267 5268 0
5278 5267 -5268 0
-5279 5278 5267 0
-5279 -5278 -5267 0
5279 -5278 5267 0
5279 5278 -5267 0
-5280 5279 5268 0
-5280 -5279 -5268 0
5280 -5279 5268 0
5280 5279 -5268 0
-5281 5280 5269 0
-5281 -5280 -5269 0
5281 -5280 5269 0
5281 5280 -5269 0
-5282 5281 5269 0
-5282 -5281 -5269 0
5282 -5281 5269 0
5282 5281 -5269 0
-5283 5282 5270 0
-5283 -5282 -5270 0
5283 -5282 5270 0
5283 5282 -5270 0
-5284 5283 5271 0
-5284 -5283 -5271 0
5284 -5283 5271 0
5284 5283 -5271 0
-5285 5284 5270 0
-5285 -5284 -5270 0
5285 -5284 5270 0
5285 5284 -5270 0
-5286 5285 5271 0
-5286 -5285 -5271 0
5286 -5285 5271 0
5286 5285 -5271 0
-5287 5286 5272 0
-5287 -5286 -5272 0
5287 -5286 5272 0
5287 5286 -5272 0
-5288 5287 5272 0
-5288 -5287 -5272 0
5288 -5287 5272 0
5288 5287 -5272 0
-5289 5288 5273 0
-5289 -5288 -5273 0
5289 -5288 5273 0
5289 5288 -5273 0
-5290 5289 5274 0
-5290 -5289 -5274 0
5290 -5289 5274 0
5290 5289 -5274 0
-5291 5290 5275 0
-5291 -5290 -5275 0
5291 -5290 5275 0
5291 5290 -5275 0
-5292 5291 5276 0
-5292 -5291 -5276 0
5292 -5291 5276 0
5292 5291 -5276 0
-5293 5292 5277 0
-5293 -5292 -5277 0
5293 -5292 5277 0
5293 5292 -5277 0
-5293 0
-5294 5243 0
-5294 38 0
5294 -5243 -38 0
-5295 5243 0
-5295 48 0
5295 -5243 -48 0
-5296 5243 0
-5296 43 0
5296 -5243 -43 0
-5297 5245 0
-5297 86 0
5297 -5245 -86 0
-5298 5247 0
-5298 134 0
5298 -5247 -134 0
-5299 5249 0
-5299 182 0
5299 -5249 -182 0
-5300 5294 5295 0
-5300 -5294 -5295 0
5300 -5294 5295 0
5300 5294 -5295 0
-5301 5300 5294 0
-5301 -5300 -5294 0
5301 -5300 5294 0
5301 5300 -5294 0
-5302 5301 5295 0
-5302 -5301 -5295 0
5302 -5301 5295 0
5302 5301 -5295 0
-5303 5302 5296 0
-5303 -5302 -5296 0
5303 -5302 5296 0
5303 5302 -5296 0
-5304 5303 5296 0
-5304 -5303 -5296 0
5304 -5303 5296 0
5304 5303 -5296 0
-5305 5304 5294 0
-5305 -5304 -5294 0
5305 -5304 5294 0
5305 5304 -5294 0
-5306 5305 5295 0
-5306 -5305 -5295 0
5306 -5305 5295 0
5306 5305 -5295 0
-5307 5306 5294 0
-5307 -5306 -5294 0
5307 -5306 5294 0
5307 5306 -5294 0
-5308 5307 5295 0
-5308 -5307 -5295 0
5308 -5307 5295 0
5308 5307 -5295 0
-5309 5308 5296 0
-5309 -5308 -5296 0
5309 -5308 5296 0
5309 5308 -5296 0
-5310 5309 5296 0
-5310 -5309 -5296 0
5310 -5309 5296 0
5310 5309 -5296 0
-5311 5310 5297 0
-5311 -5310 -5297 0
5311 -5310 5297 0
5311 5310 -5297 0
-5312 5311 5297 0
-5312 -5311 -5297 0
5312 -5311 5297 0
5312 5311 -5297 0
-5313 5312 5298 0
-5313 -5312 -5298 0
5313 -5312 5298 0
5313 5312 -5298 0
-5314 5313 5298 0
-5314 -5313 -5298 0
5314 -5313 5298 0
5314 5313 -5298 0
-5315 5314 5299 0
-5315 -5314 -5299 0
5315 -5314 5299 0
5315 5314 -5299 0
-5315 0
-5316 5243 0
-5316 39 0
5316 -5243 -39 0
-5317 5243 0
-5317 47 0
5317 -5243 -47 0
-5318 5243 0
-5318 40 0
5318 -5243 -40 0
-5319 5243 0
-5319 46 0
5319 -5243 -46 0
-5320 5243 0
-5320 44 0
5320 -5243 -44 0
-5321 5243 0
-5321 42 0
5321 -5243 -42 0
-5322 5245 0
-5322 87 0
5322 -5245 -87 0
-5323 5245 0
-5323 90 0
5323 -5245 -90 0
-5324 5247 0
-5324 135 0
5324 -5247 -135 0
-5325 5247 0
-5325 138 0
5325 -5247 -138 0
-5326 5249 0
-5326 183 0
5326 -5249 -183 0
-5327 5316 5317 0
-5327 -5316 -5317 0
5327 -5316 5317 0
5327 5316 -5317 0
-5328 5327 5318 0
-5328 -5327 -5318 0
5328 -5327 5318 0
5328 5327 -5318 0
-5329 5328 5319 0
-5329 -5328 -5319 0
5329 -5328 5319 0
5329 5328 -5319 0
-5330 5329 5320 0
-5330 -5329 -5320 0
5330 -5329 5320 0
5330 5329 -5320 0
-5331 5330 5321 0
-5331 -5330 -5321 0
5331 -5330 5321 0
5331 5330 -5321 0
-5332 5331 5321 0
-5332 -5331 -5321 0
5332 -5331 5321 0
5332 5331 -5321 0
-5333 5332 5320 0
-5333 -5332 -5320 0
5333 -5332 5320 0
5333 5332 -5320 0
-5334 5333 5319 0
-5334 -5333 -5319 0
5334 -5333 5319 0
5334 5333 -5319 0
-5335 5334 5318 0
-5335 -5334 -5318 0
5335 -5334 5318 0
5335 5334 -5318 0
-5336 5335 5317 0
-5336 -5335 -5317 0
5336 -5335 5317 0
5336 5335 -5317 0
-5337 5336 5316 0
-5337 -5336 -5316 0
5337 -5336 5316 0
5337 5336 -5316 0
-5338 5337 5322 0
-5338 -5337 -5322 0
5338 -5337 5322 0
5338 5337 -5322 0
-5339 5338 5323 0
-5339 -5338 -5323 0
5339 -5338 5323 0
5339 5338 -5323 0
-5340 5339 5324 0
-5340 -5339 -5324 0
5340 -5339 5324 0
5340 5339 -5324 0
-5341 5340 5325 0
-5341 -5340 -5325 0
5341 -5340 5325 0
5341 5340 -5325 0
-5342 5341 5326 0
-5342 -5341 -5326 0
5342 -5341 5326 0
5342 5341 -5326 0
-5342 0
-5343 4 0
-5343 30 0
5343 -4 -30 0
-5344 5343 0
-5344 33 0
5344 -5343 -33 0
-5345 4 0
-5345 32 0
5345 -4 -32 0
-5346 5345 0
-5346 33 0
5346 -5345 -33 0
-5347 4 0
-5347 31 0
5347 -4 -31 0
-5348 5347 0
-5348 33 0
5348 -5347 -33 0
-5349 29 0
-5349 8 0
5349 -29 -8 0
-5350 5349 0
-5350 33 0
5350 -5349 -33 0
-5351 29 0
-5351 16 0
5351 -29 -16 0
-5352 5351 0
-5352 33 0
5352 -5351 -33 0
-5353 29 0
-5353 12 0
5353 -29 -12 0
-5354 5353 0
-5354 33 0
5354 -5353 -33 0
-5355 52 0
-5355 78 0
5355 -52 -78 0
-5356 5355 0
-5356 81 0
5356 -5355 -81 0
-5357 77 0
-5357 56 0
5357 -77 -56 0
-5358 5357 0
-5358 81 0
5358 -5357 -81 0
-5359 100 0
-5359 126 0
5359 -100 -126 0
-5360 5359 0
-5360 129 0
5360 -5359 -129 0
-5361 125 0
-5361 104 0
5361 -125 -104 0
-5362 5361 0
-5362 129 0
5362 -5361 -129 0
-5363 148 0
-5363 174 0
5363 -148 -174 0
-5364 5363 0
-5364 177 0
5364 -5363 -177 0
-5365 5344 5346 0
-5365 -5344 -5346 0
5365 -5344 5346 0
5365 5344 -5346 0
-5366 5365 5344 0
-5366 -5365 -5344 0
5366 -5365 5344 0
5366 5365 -5344 0
-5367 5366 5346 0
-5367 -5366 -5346 0
5367 -5366 5346 0
5367 5366 -5346 0
-5368 5367 5348 0
-5368 -5367 -5348 0
5368 -5367 5348 0
5368 5367 -5348 0
-5369 5368 5348 0
-5369 -5368 -5348 0
5369 -5368 5348 0
5369 5368 -5348 0
-5370 5369 5350 0
-5370 -5369 -5350 0
5370 -5369 5350 0
5370 5369 -5350 0
-5371 5370 5352 0
-5371 -5370 -5352 0
5371 -5370 5352 0
5371 5370 -5352 0
-5372 5371 5350 0
-5372 -5371 -5350 0
5372 -5371 5350 0
5372 5371 -5350 0
-5373 5372 5352 0
-5373 -5372 -5352 0
5373 -5372 5352 0
5373 5372 -5352 0
-5374 5373 5354 0
-5374 -5373 -5354 0
5374 -5373 5354 0
5374 5373 -5354 0
-5375 5374 5354 0
-5375 -5374 -5354 0
5375 -5374 5354 0
5375 5374 -5354 0
-5376 5375 5356 0
-5376 -5375 -5356 0
5376 -5375 5356 0
5376 5375 -5356 0
-5377 5376 5358 0
-5377 -5376 -5358 0
5377 -5376 5358 0
5377 5376 -5358 0
-5378 5377 5360 0
-5378 -5377 -5360 0
5378 -5377 5360 0
5378 5377 -5360 0
-5379 5378 5362 0
-5379 -5378 -5362 0
5379 -5378 5362 0
5379 5378 -5362 0
-5380 5379 5364 0
-5380 -5379 -5364 0
5380 -5379 5364 0
5380 5379 -5364 0
-5380 0
-5381 5343 0
-5381 34 0
5381 -5343 -34 0
-5382 5345 0
-5382 36 0
5382 -5345 -36 0
-5383 5347 0
-5383 35 0
5383 -5347 -35 0
-5384 5349 0
-5384 37 0
5384 -5349 -37 0
-5385 5351 0
-5385 45 0
5385 -5351 -45 0
-5386 5353 0
-5386 41 0
5386 -5353 -41 0
-5387 5355 0
-5387 82 0
5387 -5355 -82 0
-5388 5357 0
-5388 85 0
5388 -5357 -85 0
-5389 5359 0
-5389 130 0
5389 -5359 -130 0
-5390 5361 0
-5390 133 0
5390 -5361 -133 0
-5391 5363 0
-5391 178 0
5391 -5363 -178 0
-5392 5381 5382 0
-5392 -5381 -5382 0
5392 -5381 5382 0
5392 5381 -5382 0
-5393 5392 5381 0
-5393 -5392 -5381 0
5393 -5392 5381 0
5393 5392 -5381 0
-5394 5393 5382 0
-5394 -5393 -5382 0
5394 -5393 5382 0
5394 5393 -5382 0
-5395 5394 5383 0
-5395 -5394 -5383 0
5395 -5394 5383 0
5395 5394 -5383 0
-5396 5395 5383 0
-5396 -5395 -5383 0
5396 -5395 5383 0
5396 5395 -5383 0
-5397 5396 5384 0
-5397 -5396 -5384 0
5397 -5396 5384 0
5397 5396 -5384 0
-5398 5397 5385 0
-5398 -5397 -5385 0
5398 -5397 5385 0
5398 5397 -5385 0
-5399 5398 5384 0
-5399 -5398 -5384 0
5399 -5398 5384 0
5399 5398 -5384 0
-5400 5399 5385 0
-5400 -5399 -5385 0
5400 -5399 5385 0
5400 5399 -5385 0
-5401 5400 5386 0
-5401 -5400 -5386 0
5401 -5400 5386 0
5401 5400 -5386 0
-5402 5401 5386 0
-5402 -5401 -5386 0
5402 -5401 5386 0
5402 5401 -5386 0
-5403 5402 5387 0
-5403 -5402 -5387 0
5403 -5402 5387 0
5403 5402 -5387 0
-5404 5403 5388 0
-5404 -5403 -5388 0
5404 -5403 5388 0
5404 5403 -5388 0
-5405 5404 5389 0
-5405 -5404 -5389 0
5405 -5404 5389 0
5405 5404 -5389 0
-5406 5405 5390 0
-5406 -5405 -5390 0
5406 -5405 5390 0
5406 5405 -5390 0
-5407 5406 5391 0
-5407 -5406 -5391 0
5407 -5406 5391 0
5407 5406 -5391 0
-5407 0
-5408 5343 0
-5408 35 0
5408 -5343 -35 0
-5409 5345 0
-5409 35 0
5409 -5345 -35 0
-5410 5343 0
-5410 36 0
5410 -5343 -36 0
-5411 5345 0
-5411 34 0
5411 -5345 -34 0
-5412 5347 0
-5412 36 0
5412 -5347 -36 0
-5413 5347 0
-5413 34 0
5413 -5347 -34 0
-5414 5349 0
-5414 41 0
5414 -5349 -41 0
-5415 5351 0
-5415 41 0
5415 -5351 -41 0
-5416 5349 0
-5416 45 0
5416 -5349 -45 0
-5417 5351 0
-5417 37 0
5417 -5351 -37 0
-5418 5353 0
-5418 45 0
5418 -5353 -45 0
-5419 5353 0
-5419 37 0
5419 -5353 -37 0
-5420 5355 0
-5420 83 0
5420 -5355 -83 0
-5421 5357 0
-5421 89 0
5421 -5357 -89 0
-5422 5359 0
-5422 131 0
5422 -5359 -131 0
-5423 5361 0
-5423 137 0
5423 -5361 -137 0
-5424 5363 0
-5424 179 0
5424 -5363 -179 0
-5425 5408 5409 0
-5425 -5408 -5409 0
5425 -5408 5409 0
5425 5408 -5409 0
-5426 5425 5410 0
-5426 -5425 -5410 0
5426 -5425 5410 0
5426 5425 -5410 0
-5427 5426 5411 0
-5427 -5426 -5411 0
5427 -5426 5411 0
5427 5426 -5411 0
-5428 5427 5412 0
-5428 -5427 -5412 0
5428 -5427 5412 0
5428 5427 -5412 0
-5429 5428 5413 0
-5429 -5428 -5413 0
5429 -5428 5413 0
5429 5428 -5413 0
-5430 5429 5414 0
-5430 -5429 -5414 0
5430 -5429 5414 0
5430 5429 -5414 0
-5431 5430 5415 0
-5431 -5430 -5415 0
5431 -5430 5415 0
5431 5430 -5415 0
-5432 5431 5416 0
-5432 -5431 -5416 0
5432 -5431 5416 0
5432 5431 -5416 0
-5433 5432 5417 0
-5433 -5432 -5417 0
5433 -5432 5417 0
5433 5432 -5417 0
-5434 5433 5418 0
-5434 -5433 -5418 0
5434 -5433 5418 0
5434 5433 -5418 0
-5435 5434 5419 0
-5435 -5434 -5419 0
5435 -5434 5419 0
5435 5434 -5419 0
-5436 5435 5420 0
-5436 -5435 -5420 0
5436 -5435 5420 0
5436 5435 -5420 0
-5437 5436 5421 0
-5437 -5436 -5421 0
5437 -5436 5421 0
5437 5436 -5421 0
-5438 5437 5422 0
-5438 -5437 -5422 0
5438 -5437 5422 0
5438 5437 -5422 0
-5439 5438 5423 0
-5439 -5438 -5423 0
5439 -5438 5423 0
5439 5438 -5423 0
-5440 5439 5424 0
-5440 -5439 -5424 0
5440 -5439 5424 0
5440 5439 -5424 0
-5440 0
-5441 5343 0
-5441 37 0
5441 -5343 -37 0
-5442 5345 0
-5442 45 0
5442 -5345 -45 0
-5443 5347 0
-5443 41 0
5443 -5347 -41 0
-5444 5349 0
-5444 34 0
5444 -5349 -34 0
-5445 5351 0
-5445 36 0
5445 -5351 -36 0
-5446 5353 0
-5446 35 0
5446 -5353 -35 0
-5447 5355 0
-5447 85 0
5447 -5355 -85 0
-5448 5357 0
-5448 82 0
5448 -5357 -82 0
-5449 5359 0
-5449 133 0
5449 -5359 -133 0
-5450 5361 0
-5450 130 0
5450 -5361 -130 0
-5451 5363 0
-5451 181 0
5451 -5363 -181 0
-5452 5441 5442 0
-5452 -5441 -5442 0
5452 -5441 5442 0
5452 5441 -5442 0
-5453 5452 5441 0
-5453 -5452 -5441 0
5453 -5452 5441 0
5453 5452 -5441 0
-5454 5453 5442 0
-5454 -5453 -5442 0
5454 -5453 5442 0
5454 5453 -5442 0
-5455 5454 5443 0
-5455 -5454 -5443 0
5455 -5454 5443 0
5455 5454 -5443 0
-5456 5455 5443 0
-5456 -5455 -5443 0
5456 -5455 5443 0
5456 5455 -5443 0
-5457 5456 5444 0
-5457 -5456 -5444 0
5457 -5456 5444 0
5457 5456 -5444 0
-5458 5457 5445 0
-5458 -5457 -5445 0
5458 -5457 5445 0
5458 5457 -5445 0
-5459 5458 5444 0
-5459 -5458 -5444 0
5459 -5458 5444 0
5459 5458 -5444 0
-5460 5459 5445 0
-5460 -5459 -5445 0
5460 -5459 5445 0
5460 5459 -5445 0
-5461 5460 5446 0
-5461 -5460 -5446 0
5461 -5460 5446 0
5461 5460 -5446 0
-5462 5461 5446 0
-5462 -5461 -5446 0
5462 -5461 5446 0
5462 5461 -5446 0
-5463 5462 5447 0
-5463 -5462 -5447 0
5463 -5462 5447 0
5463 5462 -5447 0
-5464 5463 5448 0
-5464 -5463 -5448 0
5464 -5463 5448 0
5464 5463 -5448 0
-5465 5464 5449 0
-5465 -5464 -5449 0
5465 -5464 5449 0
5465 5464 -5449 0
-5466 5465 5450 0
-5466 -5465 -5450 0
5466 -5465 5450 0
5466 5465 -5450 0
-5467 5466 5451 0
-5467 -5466 -5451 0
5467 -5466 5451 0
5467 5466 -5451 0
-5467 0
-5468 5343 0
-5468 38 0
5468 -5343 -38 0
-5469 5345 0
-5469 48 0
5469 -5345 -48 0
-5470 5347 0
-5470 43 0
5470 -5347 -43 0
-5471 5349 0
-5471 38 0
5471 -5349 -38 0
-5472 5351 0
-5472 48 0
5472 -5351 -48 0
-5473 5353 0
-5473 43 0
5473 -5353 -43 0
-5474 5355 0
-5474 86 0
5474 -5355 -86 0
-5475 5357 0
-5475 86 0
5475 -5357 -86 0
-5476 5359 0
-5476 134 0
5476 -5359 -134 0
-5477 5361 0
-5477 134 0
5477 -5361 -134 0
-5478 5363 0
-5478 182 0
5478 -5363 -182 0
-5479 5468 5469 0
-5479 -5468 -5469 0
5479 -5468 5469 0
5479 5468 -5469 0
-5480 5479 5468 0
-5480 -5479 -5468 0
5480 -5479 5468 0
5480 5479 -5468 0
-5481 5480 5469 0
-5481 -5480 -5469 0
5481 -5480 5469 0
5481 5480 -5469 0
-5482 5481 5470 0
-5482 -5481 -5470 0
5482 -5481 5470 0
5482 5481 -5470 0
-5483 5482 5470 0
-5483 -5482 -5470 0
5483 -5482 5470 0
5483 5482 -5470 0
-5484 5483 5471 0
-5484 -5483 -5471 0
5484 -5483 5471 0
5484 5483 -5471 0
-5485 5484 5472 0
-5485 -5484 -5472 0
5485 -5484 5472 0
5485 5484 -5472 0
-5486 5485 5471 0
-5486 -5485 -5471 0
5486 -5485 5471 0
5486 5485 -5471 0
-5487 5486 5472 0
-5487 -5486 -5472 0
5487 -5486 5472 0
5487 5486 -5472 0
-5488 5487 5473 0
-5488 -5487 -5473 0
5488 -5487 5473 0
5488 5487 -5473 0
-5489 5488 5473 0
-5489 -5488 -5473 0
5489 -5488 5473 0
5489 5488 -5473 0
-5490 5489 5474 0
-5490 -5489 -5474 0
5490 -5489 5474 0
5490 5489 -5474 0
-5491 5490 5475 0
-5491 -5490 -5475 0
5491 -5490 5475 0
5491 5490 -5475 0
-5492 5491 5476 0
-5492 -5491 -5476 0
5492 -5491 5476 0
5492 5491 -5476 0
-5493 5492 5477 0
-5493 -5492 -5477 0
5493 -5492 5477 0
5493 5492 -5477 0
-5494 5493 5478 0
-5494 -5493 -5478 0
5494 -5493 5478 0
5494 5493 -5478 0
-5494 0
-5495 5343 0
-5495 39 0
5495 -5343 -39 0
-5496 5345 0
-5496 47 0
5496 -5345 -47 0
-5497 5343 0
-5497 40 0
5497 -5343 -40 0
-5498 5345 0
-5498 46 0
5498 -5345 -46 0
-5499 5347 0
-5499 44 0
5499 -5347 -44 0
-5500 5347 0
-5500 42 0
5500 -5347 -42 0
-5501 5349 0
-5501 42 0
5501 -5349 -42 0
-5502 5351 0
-5502 44 0
5502 -5351 -44 0
-5503 5349 0
-5503 46 0
5503 -5349 -46 0
-5504 5351 0
-5504 40 0
5504 -5351 -40 0
-5505 5353 0
-5505 47 0
5505 -5353 -47 0
-5506 5353 0
-5506 39 0
5506 -5353 -39 0
-5507 5355 0
-5507 87 0
5507 -5355 -87 0
-5508 5357 0
-5508 90 0
5508 -5357 -90 0
-5509 5359 0
-5509 135 0
5509 -5359 -135 0
-5510 5361 0
-5510 138 0
5510 -5361 -138 0
-5511 5363 0
-5511 183 0
5511 -5363 -183 0
-5512 5495 5496 0
-5512 -5495 -5496 0
5512 -5495 5496 0
5512 5495 -5496 0
-5513 5512 5497 0
-5513 -5512 -5497 0
5513 -5512 5497 0
5513 5512 -5497 0
-5514 5513 5498 0
-5514 -5513 -5498 0
5514 -5513 5498 0
5514 5513 -5498 0
-5515 5514 5499 0
-5515 -5514 -5499 0
5515 -5514 5499 0
5515 5514 -5499 0
-5516 5515 5500 0
-5516 -5515 -5500 0
5516 -5515 5500 0
5516 5515 -5500 0
-5517 5516 5501 0
-5517 -5516 -5501 0
5517 -5516 5501 0
5517 5516 -5501 0
-5518 5517 5502 0
-5518 -5517 -5502 0
5518 -5517 5502 0
5518 5517 -5502 0
-5519 5518 5503 0
-5519 -5518 -5503 0
5519 -5518 5503 0
5519 5518 -5503 0
-5520 5519 5504 0
-5520 -5519 -5504 0
5520 -5519 5504 0
5520 5519 -5504 0
-5521 5520 5505 0
-5521 -5520 -5505 0
5521 -5520 5505 0
5521 5520 -5505 0
-5522 5521 5506 0
-5522 -5521 -5506 0
5522 -5521 5506 0
5522 5521 -5506 0
-5523 5522 5507 0
-5523 -5522 -5507 0
5523 -5522 5507 0
5523 5522 -5507 0
-5524 5523 5508 0
-5524 -5523 -5508 0
5524 -5523 5508 0
5524 5523 -5508 0
-5525 5524 5509 0
-5525 -5524 -5509 0
5525 -5524 5509 0
5525 5524 -5509 0
-5526 5525 5510 0
-5526 -5525 -5510 0
5526 -5525 5510 0
5526 5525 -5510 0
-5527 5526 5511 0
-5527 -5526 -5511 0
5527 -5526 5511 0
5527 5526 -5511 0
-5527 0
-5528 5343 0
-5528 41 0
5528 -5343 -41 0
-5529 5345 0
-5529 41 0
5529 -5345 -41 0
-5530 5343 0
-5530 45 0
5530 -5343 -45 0
-5531 5345 0
-5531 37 0
5531 -5345 -37 0
-5532 5347 0
-5532 45 0
5532 -5347 -45 0
-5533 5347 0
-5533 37 0
5533 -5347 -37 0
-5534 5349 0
-5534 35 0
5534 -5349 -35 0
-5535 5351 0
-5535 35 0
5535 -5351 -35 0
-5536 5349 0
-5536 36 0
5536 -5349 -36 0
-5537 5351 0
-5537 34 0
5537 -5351 -34 0
-5538 5353 0
-5538 36 0
5538 -5353 -36 0
-5539 5353 0
-5539 34 0
5539 -5353 -34 0
-5540 5355 0
-5540 89 0
5540 -5355 -89 0
-5541 5357 0
-5541 83 0
5541 -5357 -83 0
-5542 5359 0
-5542 137 0
5542 -5359 -137 0
-5543 5361 0
-5543 131 0
5543 -5361 -131 0
-5544 5363 0
-5544 185 0
5544 -5363 -185 0
-5545 5528 5529 0
-5545 -5528 -5529 0
5545 -5528 5529 0
5545 5528 -5529 0
-5546 5545 5530 0
-5546 -5545 -5530 0
5546 -5545 5530 0
5546 5545 -5530 0
-5547 5546 5531 0
-5547 -5546 -5531 0
5547 -5546 5531 0
5547 5546 -5531 0
-5548 5547 5532 0
-5548 -5547 -5532 0
5548 -5547 5532 0
5548 5547 -5532 0
-5549 5548 5533 0
-5549 -5548 -5533 0
5549 -5548 5533 0
5549 5548 -5533 0
-5550 5549 5534 0
-5550 -5549 -5534 0
5550 -5549 5534 0
5550 5549 -5534 0
-5551 5550 5535 0
-5551 -5550 -5535 0
5551 -5550 5535 0
5551 5550 -5535 0
-5552 5551 5536 0
-5552 -5551 -5536 0
5552 -5551 5536 0
5552 5551 -5536 0
-5553 5552 5537 0
-5553 -5552 -5537 0
5553 -5552 5537 0
5553 5552 -5537 0
-5554 5553 5538 0
-5554 -5553 -5538 0
5554 -5553 5538 0
5554 5553 -5538 0
-5555 5554 5539 0
-5555 -5554 -5539 0
5555 -5554 5539 0
5555 5554 -5539 0
-5556 5555 5540 0
-5556 -5555 -5540 0
5556 -5555 5540 0
5556 5555 -5540 0
-5557 5556 5541 0
-5557 -5556 -5541 0
5557 -5556 5541 0
5557 5556 -5541 0
-5558 5557 5542 0
-5558 -5557 -5542 0
5558 -5557 5542 0
5558 5557 -5542 0
-5559 5558 5543 0
-5559 -5558 -5543 0
5559 -5558 5543 0
5559 5558 -5543 0
-5560 5559 5544 0
-5560 -5559 -5544 0
5560 -5559 5544 0
5560 5559 -5544 0
-5560 0
-5561 5343 0
-5561 42 0
5561 -5343 -42 0
-5562 5345 0
-5562 44 0
5562 -5345 -44 0
-5563 5343 0
-5563 46 0
5563 -5343 -46 0
-5564 5345 0
-5564 40 0
5564 -5345 -40 0
-5565 5347 0
-5565 47 0
5565 -5347 -47 0
-5566 5347 0
-5566 39 0
5566 -5347 -39 0
-5567 5349 0
-5567 39 0
5567 -5349 -39 0
-5568 5351 0
-5568 47 0
5568 -5351 -47 0
-5569 5349 0
-5569 40 0
5569 -5349 -40 0
-5570 5351 0
-5570 46 0
5570 -5351 -46 0
-5571 5353 0
-5571 44 0
5571 -5353 -44 0
-5572 5353 0
-5572 42 0
5572 -5353 -42 0
-5573 5355 0
-5573 90 0
5573 -5355 -90 0
-5574 5357 0
-5574 87 0
5574 -5357 -87 0
-5575 5359 0
-5575 138 0
5575 -5359 -138 0
-5576 5361 0
-5576 135 0
5576 -5361 -135 0
-5577 5363 0
-5577 186 0
5577 -5363 -186 0
-5578 5561 5562 0
-5578 -5561 -5562 0
5578 -5561 5562 0
5578 5561 -5562 0
-5579 5578 5563 0
-5579 -5578 -5563 0
5579 -5578 5563 0
5579 5578 -5563 0
-5580 5579 5564 0
-5580 -5579 -5564 0
5580 -5579 5564 0
5580 5579 -5564 0
-5581 5580 5565 0
-5581 -5580 -5565 0
5581 -5580 5565 0
5581 5580 -5565 0
-5582 5581 5566 0
-5582 -5581 -5566 0
5582 -5581 5566 0
5582 5581 -5566 0
-5583 5582 5567 0
-5583 -5582 -5567 0
5583 -5582 5567 0
5583 5582 -5567 0
-5584 5583 5568 0
-5584 -5583 -5568 0
5584 -5583 5568 0
5584 5583 -5568 0
-5585 5584 5569 0
-5585 -5584 -5569 0
5585 -5584 5569 0
5585 5584 -5569 0
-5586 5585 5570 0
-5586 -5585 -5570 0
5586 -5585 5570 0
5586 5585 -5570 0
-5587 5586 5571 0
-5587 -5586 -5571 0
5587 -5586 5571 0
5587 5586 -5571 0
-5588 5587 5572 0
-5588 -5587 -5572 0
5588 -5587 5572 0
5588 5587 -5572 0
-5589 5588 5573 0
-5589 -5588 -5573 0
5589 -5588 5573 0
5589 5588 -5573 0
-5590 5589 5574 0
-5590 -5589 -5574 0
5590 -5589 5574 0
5590 5589 -5574 0
-5591 5590 5575 0
-5591 -5590 -5575 0
5591 -5590 5575 0
5591 5590 -5575 0
-5592 5591 5576 0
-5592 -5591 -5576 0
5592 -5591 5576 0
5592 5591 -5576 0
-5593 5592 5577 0
-5593 -5592 -5577 0
5593 -5592 5577 0
5593 5592 -5577 0
-5593 0
-5594 5343 0
-5594 43 0
5594 -5343 -43 0
-5595 5345 0
-5595 43 0
5595 -5345 -43 0
-5596 5343 0
-5596 48 0
5596 -5343 -48 0
-5597 5345 0
-5597 38 0
5597 -5345 -38 0
-5598 5347 0
-5598 48 0
5598 -5347 -48 0
-5599 5347 0
-5599 38 0
5599 -5347 -38 0
-5600 5349 0
-5600 43 0
5600 -5349 -43 0
-5601 5351 0
-5601 43 0
5601 -5351 -43 0
-5602 5349 0
-5602 48 0
5602 -5349 -48 0
-5603 5351 0
-5603 38 0
5603 -5351 -38 0
-5604 5353 0
-5604 48 0
5604 -5353 -48 0
-5605 5353 0
-5605 38 0
5605 -5353 -38 0
-5606 5355 0
-5606 91 0
5606 -5355 -91 0
-5607 5357 0
-5607 91 0
5607 -5357 -91 0
-5608 5359 0
-5608 139 0
5608 -5359 -139 0
-5609 5361 0
-5609 139 0
5609 -5361 -139 0
-5610 5363 0
-5610 187 0
5610 -5363 -187 0
-5611 5594 5595 0
-5611 -5594 -5595 0
5611 -5594 5595 0
5611 5594 -5595 0
-5612 5611 5596 0
-5612 -5611 -5596 0
5612 -5611 5596 0
5612 5611 -5596 0
-5613 5612 5597 0
-5613 -5612 -5597 0
5613 -5612 5597 0
5613 5612 -5597 0
-5614 5613 5598 0
-5614 -5613 -5598 0
5614 -5613 5598 0
5614 5613 -5598 0
-5615 5614 5599 0
-5615 -5614 -5599 0
5615 -5614 5599 0
5615 5614 -5599 0
-5616 5615 5600 0
-5616 -5615 -5600 0
5616 -5615 5600 0
5616 5615 -5600 0
-5617 5616 5601 0
-5617 -5616 -5601 0
5617 -5616 5601 0
5617 5616 -5601 0
-5618 5617 5602 0
-5618 -5617 -5602 0
5618 -5617 5602 0
5618 5617 -5602 0
-5619 5618 5603 0
-5619 -5618 -5603 0
5619 -5618 5603 0
5619 5618 -5603 0
-5620 5619 5604 0
-5620 -5619 -5604 0
5620 -5619 5604 0
5620 5619 -5604 0
-5621 5620 5605 0
-5621 -5620 -5605 0
5621 -5620 5605 0
5621 5620 -5605 0
-5622 5621 5606 0
-5622 -5621 -5606 0
5622 -5621 5606 0
5622 5621 -5606 0
-5623 5622 5607 0
-5623 -5622 -5607 0
5623 -5622 5607 0
5623 5622 -5607 0
-5624 5623 5608 0
-5624 -5623 -5608 0
5624 -5623 5608 0
5624 5623 -5608 0
-5625 5624 5609 0
-5625 -5624 -5609 0
5625 -5624 5609 0
5625 5624 -5609 0
-5626 5625 5610 0
-5626 -5625 -5610 0
5626 -5625 5610 0
5626 5625 -5610 0
-5626 0
-5627 5343 0
-5627 44 0
5627 -5343 -44 0
-5628 5345 0
-5628 42 0
5628 -5345 -42 0
-5629 5343 0
-5629 47 0
5629 -5343 -47 0
-5630 5345 0
-5630 39 0
5630 -5345 -39 0
-5631 5347 0
-5631 46 0
5631 -5347 -46 0
-5632 5347 0
-5632 40 0
5632 -5347 -40 0
-5633 5349 0
-5633 47 0
5633 -5349 -47 0
-5634 5351 0
-5634 39 0
5634 -5351 -39 0
-5635 5349 0
-5635 44 0
5635 -5349 -44 0
-5636 5351 0
-5636 42 0
5636 -5351 -42 0
-5637 5353 0
-5637 40 0
5637 -5353 -40 0
-5638 5353 0
-5638 46 0
5638 -5353 -46 0
-5639 5355 0
-5639 92 0
5639 -5355 -92 0
-5640 5357 0
-5640 95 0
5640 -5357 -95 0
-5641 5359 0
-5641 140 0
5641 -5359 -140 0
-5642 5361 0
-5642 143 0
5642 -5361 -143 0
-5643 5363 0
-5643 188 0
5643 -5363 -188 0
-5644 5627 5628 0
-5644 -5627 -5628 0
5644 -5627 5628 0
5644 5627 -5628 0
-5645 5644 5629 0
-5645 -5644 -5629 0
5645 -5644 5629 0
5645 5644 -5629 0
-5646 5645 5630 0
-5646 -5645 -5630 0
5646 -5645 5630 0
5646 5645 -5630 0
-5647 5646 5631 0
-5647 -5646 -5631 0
5647 -5646 5631 0
5647 5646 -5631 0
-5648 5647 5632 0
-5648 -5647 -5632 0
5648 -5647 5632 0
5648 5647 -5632 0
-5649 5648 5633 0
-5649 -5648 -5633 0
5649 -5648 5633 0
5649 5648 -5633 0
-5650 5649 5634 0
-5650 -5649 -5634 0
5650 -5649 5634 0
5650 5649 -5634 0
-5651 5650 5635 0
-5651 -5650 -5635 0
5651 -5650 5635 0
5651 5650 -5635 0
-5652 5651 5636 0
-5652 -5651 -5636 0
5652 -5651 5636 0
5652 5651 -5636 0
-5653 5652 5637 0
-5653 -5652 -5637 0
5653 -5652 5637 0
5653 5652 -5637 0
-5654 5653 5638 0
-5654 -5653 -5638 0
5654 -5653 5638 0
5654 5653 -5638 0
-5655 5654 5639 0
-5655 -5654 -5639 0
5655 -5654 5639 0
5655 5654 -5639 0
-5656 5655 5640 0
-5656 -5655 -5640 0
5656 -5655 5640 0
5656 5655 -5640 0
-5657 5656 5641 0
-5657 -5656 -5641 0
5657 -5656 5641 0
5657 5656 -5641 0
-5658 5657 5642 0
-5658 -5657 -5642 0
5658 -5657 5642 0
5658 5657 -5642 0
-5659 5658 5643 0
-5659 -5658 -5643 0
5659 -5658 5643 0
5659 5658 -5643 0
-5659 0
-5660 5 0
-5660 18 0
5660 -5 -18 0
-5661 5660 0
-5661 33 0
5661 -5660 -33 0
-5662 13 0
-5662 20 0
5662 -13 -20 0
-5663 5662 0
-5663 33 0
5663 -5662 -33 0
-5664 6 0
-5664 22 0
5664 -6 -22 0
-5665 5664 0
-5665 33 0
5665 -5664 -33 0
-5666 15 0
-5666 28 0
5666 -15 -28 0
-5667 5666 0
-5667 33 0
5667 -5666 -33 0
-5668 10 0
-5668 23 0
5668 -10 -23 0
-5669 5668 0
-5669 33 0
5669 -5668 -33 0
-5670 11 0
-5670 27 0
5670 -11 -27 0
-5671 5670 0
-5671 33 0
5671 -5670 -33 0
-5672 53 0
-5672 66 0
5672 -53 -66 0
-5673 5672 0
-5673 81 0
5673 -5672 -81 0
-5674 101 0
-5674 114 0
5674 -101 -114 0
-5675 5674 0
-5675 129 0
5675 -5674 -129 0
-5676 149 0
-5676 162 0
5676 -149 -162 0
-5677 5676 0
-5677 177 0
5677 -5676 -177 0
-5678 5661 5663 0
-5678 -5661 -5663 0
5678 -5661 5663 0
5678 5661 -5663 0
-5679 5678 5665 0
-5679 -5678 -5665 0
5679 -5678 5665 0
5679 5678 -5665 0
-5680 5679 5667 0
-5680 -5679 -5667 0
5680 -5679 5667 0
5680 5679 -5667 0
-5681 5680 5669 0
-5681 -5680 -5669 0
5681 -5680 5669 0
5681 5680 -5669 0
-5682 5681 5671 0
-5682 -5681 -5671 0
5682 -5681 5671 0
5682 5681 -5671 0
-5683 5682 5661 0
-5683 -5682 -5661 0
5683 -5682 5661 0
5683 5682 -5661 0
-5684 5683 5663 0
-5684 -5683 -5663 0
5684 -5683 5663 0
5684 5683 -5663 0
-5685 5684 5665 0
-5685 -5684 -5665 0
5685 -5684 5665 0
5685 5684 -5665 0
-5686 5685 5667 0
-5686 -5685 -5667 0
5686 -5685 5667 0
5686 5685 -5667 0
-5687 5686 5669 0
-5687 -5686 -5669 0
5687 -5686 5669 0
5687 5686 -5669 0
-5688 5687 5671 0
-5688 -5687 -5671 0
5688 -5687 5671 0
5688 5687 -5671 0
-5689 5688 5673 0
-5689 -5688 -5673 0
5689 -5688 5673 0
5689 5688 -5673 0
-5690 5689 5673 0
-5690 -5689 -5673 0
5690 -5689 5673 0
5690 5689 -5673 0
-5691 5690 5675 0
-5691 -5690 -5675 0
5691 -5690 5675 0
5691 5690 -5675 0
-5692 5691 5675 0
-5692 -5691 -5675 0
5692 -5691 5675 0
5692 5691 -5675 0
-5693 5692 5677 0
-5693 -5692 -5677 0
5693 -5692 5677 0
5693 5692 -5677 0
-5693 0
-5694 5660 0
-5694 34 0
5694 -5660 -34 0
-5695 5662 0
-5695 36 0
5695 -5662 -36 0
-5696 5664 0
-5696 34 0
5696 -5664 -34 0
-5697 5666 0
-5697 36 0
5697 -5666 -36 0
-5698 5668 0
-5698 35 0
5698 -5668 -35 0
-5699 5670 0
-5699 35 0
5699 -5670 -35 0
-5700 5660 0
-5700 37 0
5700 -5660 -37 0
-5701 5662 0
-5701 45 0
5701 -5662 -45 0
-5702 5664 0
-5702 37 0
5702 -5664 -37 0
-5703 5666 0
-5703 45 0
5703 -5666 -45 0
-5704 5668 0
-5704 41 0
5704 -5668 -41 0
-5705 5670 0
-5705 41 0
5705 -5670 -41 0
-5706 5672 0
-5706 82 0
5706 -5672 -82 0
-5707 5672 0
-5707 85 0
5707 -5672 -85 0
-5708 5674 0
-5708 130 0
5708 -5674 -130 0
-5709 5674 0
-5709 133 0
5709 -5674 -133 0
-5710 5676 0
-5710 178 0
5710 -5676 -178 0
-5711 5694 5695 0
-5711 -5694 -5695 0
5711 -5694 5695 0
5711 5694 -5695 0
-5712 5711 5696 0
-5712 -5711 -5696 0
5712 -5711 5696 0
5712 5711 -5696 0
-5713 5712 5697 0
-5713 -5712 -5697 0
5713 -5712 5697 0
5713 5712 -5697 0
-5714 5713 5698 0
-5714 -5713 -5698 0
5714 -5713 5698 0
5714 5713 -5698 0
-5715 5714 5699 0
-5715 -5714 -5699 0
5715 -5714 5699 0
5715 5714 -5699 0
-5716 5715 5700 0
-5716 -5715 -5700 0
5716 -5715 5700 0
5716 5715 -5700 0
-5717 5716 5701 0
-5717 -5716 -5701 0
5717 -5716 5701 0
5717 5716 -5701 0
-5718 5717 5702 0
-5718 -5717 -5702 0
5718 -5717 5702 0
5718 5717 -5702 0
-5719 5718 5703 0
-5719 -5718 -5703 0
5719 -5718 5703 0
5719 5718 -5703 0
-5720 5719 5704 0
-5720 -5719 -5704 0
5720 -5719 5704 0
5720 5719 -5704 0
-5721 5720 5705 0
-5721 -5720 -5705 0
5721 -5720 5705 0
5721 5720 -5705 0
-5722 5721 5706 0
-5722 -5721 -5706 0
5722 -5721 5706 0
5722 5721 -5706 0
-5723 5722 5707 0
-5723 -5722 -5707 0
5723 -5722 5707 0
5723 5722 -5707 0
-5724 5723 5708 0
-5724 -5723 -5708 0
5724 -5723 5708 0
5724 5723 -5708 0
-5725 5724 5709 0
-5725 -5724 -5709 0
5725 -5724 5709 0
5725 5724 -5709 0
-5726 5725 5710 0
-5726 -5725 -5710 0
5726 -5725 5710 0
5726 5725 -5710 0
-5726 0
-5727 5660 0
-5727 35 0
5727 -5660 -35 0
-5728 5662 0
-5728 35 0
5728 -5662 -35 0
-5729 5664 0
-5729 36 0
5729 -5664 -36 0
-5730 5666 0
-5730 34 0
5730 -5666 -34 0
-5731 5668 0
-5731 36 0
5731 -5668 -36 0
-5732 5670 0
-5732 34 0
5732 -5670 -34 0
-5733 5660 0
-5733 41 0
5733 -5660 -41 0
-5734 5662 0
-5734 41 0
5734 -5662 -41 0
-5735 5664 0
-5735 45 0
5735 -5664 -45 0
-5736 5666 0
-5736 37 0
5736 -5666 -37 0
-5737 5668 0
-5737 45 0
5737 -5668 -45 0
-5738 5670 0
-5738 37 0
5738 -5670 -37 0
-5739 5672 0
-5739 83 0
5739 -5672 -83 0
-5740 5672 0
-5740 89 0
5740 -5672 -89 0
-5741 5674 0
-5741 131 0
5741 -5674 -131 0
-5742 5674 0
-5742 137 0
5742 -5674 -137 0
-5743 5676 0
-5743 179 0
5743 -5676 -179 0
-5744 5727 5728 0
-5744 -5727 -5728 0
5744 -5727 5728 0
5744 5727 -5728 0
-5745 5744 5729 0
-5745 -5744 -5729 0
5745 -5744 5729 0
5745 5744 -5729 0
-5746 5745 5730 0
-5746 -5745 -5730 0
5746 -5745 5730 0
5746 5745 -5730 0
-5747 5746 5731 0
-5747 -5746 -5731 0
5747 -5746 5731 0
5747 5746 -5731 0
-5748 5747 5732 0
-5748 -5747 -5732 0
5748 -5747 5732 0
5748 5747 -5732 0
-5749 5748 5733 0
-5749 -5748 -5733 0
5749 -5748 5733 0
5749 5748 -5733 0
-5750 5749 5734 0
-5750 -5749 -5734 0
5750 -5749 5734 0
5750 5749 -5734 0
-5751 5750 5735 0
-5751 -5750 -5735 0
5751 -5750 5735 0
5751 5750 -5735 0
-5752 5751 5736 0
-5752 -5751 -5736 0
5752 -5751 5736 0
5752 5751 -5736 0
-5753 5752 5737 0
-5753 -5752 -5737 0
5753 -5752 5737 0
5753 5752 -5737 0
-5754 5753 5738 0
-5754 -5753 -5738 0
5754 -5753 5738 0
5754 5753 -5738 0
-5755 5754 5739 0
-5755 -5754 -5739 0
5755 -5754 5739 0
5755 5754 -5739 0
-5756 5755 5740 0
-5756 -5755 -5740 0
5756 -5755 5740 0
5756 5755 -5740 0
-5757 5756 5741 0
-5757 -5756 -5741 0
5757 -5756 5741 0
5757 5756 -5741 0
-5758 5757 5742 0
-5758 -5757 -5742 0
5758 -5757 5742 0
5758 5757 -5742 0
-5759 5758 5743 0
-5759 -5758 -5743 0
5759 -5758 5743 0
5759 5758 -5743 0
-5759 0
-5760 5660 0
-5760 36 0
5760 -5660 -36 0
-5761 5662 0
-5761 34 0
5761 -5662 -34 0
-5762 5664 0
-5762 35 0
5762 -5664 -35 0
-5763 5666 0
-5763 35 0
5763 -5666 -35 0
-5764 5668 0
-5764 34 0
5764 -5668 -34 0
-5765 5670 0
-5765 36 0
5765 -5670 -36 0
-5766 5660 0
-5766 45 0
5766 -5660 -45 0
-5767 5662 0
-5767 37 0
5767 -5662 -37 0
-5768 5664 0
-5768 41 0
5768 -5664 -41 0
-5769 5666 0
-5769 41 0
5769 -5666 -41 0
-5770 5668 0
-5770 37 0
5770 -5668 -37 0
-5771 5670 0
-5771 45 0
5771 -5670 -45 0
-5772 5672 0
-5772 84 0
5772 -5672 -84 0
-5773 5672 0
-5773 93 0
5773 -5672 -93 0
-5774 5674 0
-5774 132 0
5774 -5674 -132 0
-5775 5674 0
-5775 141 0
5775 -5674 -141 0
-5776 5676 0
-5776 180 0
5776 -5676 -180 0
-5777 5760 5761 0
-5777 -5760 -5761 0
5777 -5760 5761 0
5777 5760 -5761 0
-5778 5777 5762 0
-5778 -5777 -5762 0
5778 -5777 5762 0
5778 5777 -5762 0
-5779 5778 5763 0
-5779 -5778 -5763 0
5779 -5778 5763 0
5779 5778 -5763 0
-5780 5779 5764 0
-5780 -5779 -5764 0
5780 -5779 5764 0
5780 5779 -5764 0
-5781 5780 5765 0
-5781 -5780 -5765 0
5781 -5780 5765 0
5781 5780 -5765 0
-5782 5781 5766 0
-5782 -5781 -5766 0
5782 -5781 5766 0
5782 5781 -5766 0
-5783 5782 5767 0
-5783 -5782 -5767 0
5783 -5782 5767 0
5783 5782 -5767 0
-5784 5783 5768 0
-5784 -5783 -5768 0
5784 -5783 5768 0
5784 5783 -5768 0
-5785 5784 5769 0
-5785 -5784 -5769 0
5785 -5784 5769 0
5785 5784 -5769 0
-5786 5785 5770 0
-5786 -5785 -5770 0
5786 -5785 5770 0
5786 5785 -5770 0
-5787 5786 5771 0
-5787 -5786 -5771 0
5787 -5786 5771 0
5787 5786 -5771 0
-5788 5787 5772 0
-5788 -5787 -5772 0
5788 -5787 5772 0
5788 5787 -5772 0
-5789 5788 5773 0
-5789 -5788 -5773 0
5789 -5788 5773 0
5789 5788 -5773 0
-5790 5789 5774 0
-5790 -5789 -5774 0
5790 -5789 5774 0
5790 5789 -5774 0
-5791 5790 5775 0
-5791 -5790 -5775 0
5791 -5790 5775 0
5791 5790 -5775 0
-5792 5791 5776 0
-5792 -5791 -5776 0
5792 -5791 5776 0
5792 5791 -5776 0
-5792 0
-5793 5660 0
-5793 38 0
5793 -5660 -38 0
-5794 5662 0
-5794 48 0
5794 -5662 -48 0
-5795 5664 0
-5795 38 0
5795 -5664 -38 0
-5796 5666 0
-5796 48 0
5796 -5666 -48 0
-5797 5668 0
-5797 43 0
5797 -5668 -43 0
-5798 5670 0
-5798 43 0
5798 -5670 -43 0
-5799 5672 0
-5799 86 0
5799 -5672 -86 0
-5800 5674 0
-5800 134 0
5800 -5674 -134 0
-5801 5676 0
-5801 182 0
5801 -5676 -182 0
-5802 5793 5794 0
-5802 -5793 -5794 0
5802 -5793 5794 0
5802 5793 -5794 0
-5803 5802 5795 0
-5803 -5802 -5795 0
5803 -5802 5795 0
5803 5802 -5795 0
-5804 5803 5796 0
-5804 -5803 -5796 0
5804 -5803 5796 0
5804 5803 -5796 0
-5805 5804 5797 0
-5805 -5804 -5797 0
5805 -5804 5797 0
5805 5804 -5797 0
-5806 5805 5798 0
-5806 -5805 -5798 0
5806 -5805 5798 0
5806 5805 -5798 0
-5807 5806 5793 0
-5807 -5806 -5793 0
5807 -5806 5793 0
5807 5806 -5793 0
-5808 5807 5794 0
-5808 -5807 -5794 0
5808 -5807 5794 0
5808 5807 -5794 0
-5809 5808 5795 0
-5809 -5808 -5795 0
5809 -5808 5795 0
5809 5808 -5795 0
-5810 5809 5796 0
-5810 -5809 -5796 0
5810 -5809 5796 0
5810 5809 -5796 0
-5811 5810 5797 0
-5811 -5810 -5797 0
5811 -5810 5797 0
5811 5810 -5797 0
-5812 5811 5798 0
-5812 -5811 -5798 0
5812 -5811 5798 0
5812 5811 -5798 0
-5813 5812 5799 0
-5813 -5812 -5799 0
5813 -5812 5799 0
5813 5812 -5799 0
-5814 5813 5799 0
-5814 -5813 -5799 0
5814 -5813 5799 0
5814 5813 -5799 0
-5815 5814 5800 0
-5815 -5814 -5800 0
5815 -5814 5800 0
5815 5814 -5800 0
-5816 5815 5800 0
-5816 -5815 -5800 0
5816 -5815 5800 0
5816 5815 -5800 0
-5817 5816 5801 0
-5817 -5816 -5801 0
5817 -5816 5801 0
5817 5816 -5801 0
-5817 0
-5818 5660 0
-5818 39 0
5818 -5660 -39 0
-5819 5662 0
-5819 47 0
5819 -5662 -47 0
-5820 5664 0
-5820 40 0
5820 -5664 -40 0
-5821 5666 0
-5821 46 0
5821 -5666 -46 0
-5822 5668 0
-5822 44 0
5822 -5668 -44 0
-5823 5670 0
-5823 42 0
5823 -5670 -42 0
-5824 5660 0
-5824 42 0
5824 -5660 -42 0
-5825 5662 0
-5825 44 0
5825 -5662 -44 0
-5826 5664 0
-5826 46 0
5826 -5664 -46 0
-5827 5666 0
-5827 40 0
5827 -5666 -40 0
-5828 5668 0
-5828 47 0
5828 -5668 -47 0
-5829 5670 0
-5829 39 0
5829 -5670 -39 0
-5830 5672 0
-5830 87 0
5830 -5672 -87 0
-5831 5672 0
-5831 90 0
5831 -5672 -90 0
-5832 5674 0
-5832 135 0
5832 -5674 -135 0
-5833 5674 0
-5833 138 0
5833 -5674 -138 0
-5834 5676 0
-5834 183 0
5834 -5676 -183 0
-5835 5818 5819 0
-5835 -5818 -5819 0
5835 -5818 5819 0
5835 5818 -5819 0
-5836 5835 5820 0
-5836 -5835 -5820 0
5836 -5835 5820 0
5836 5835 -5820 0
-5837 5836 5821 0
-5837 -5836 -5821 0
5837 -5836 5821 0
5837 5836 -5821 0
-5838 5837 5822 0
-5838 -5837 -5822 0
5838 -5837 5822 0
5838 5837 -5822 0
-5839 5838 5823 0
-5839 -5838 -5823 0
5839 -5838 5823 0
5839 5838 -5823 0
-5840 5839 5824 0
-5840 -5839 -5824 0
5840 -5839 5824 0
5840 5839 -5824 0
-5841 5840 5825 0
-5841 -5840 -5825 0
5841 -5840 5825 0
5841 5840 -5825 0
-5842 5841 5826 0
-5842 -5841 -5826 0
5842 -5841 5826 0
5842 5841 -5826 0
-5843 5842 5827 0
-5843 -5842 -5827 0
5843 -5842 5827 0
5843 5842 -5827 0
-5844 5843 5828 0
-5844 -5843 -5828 0
5844 -5843 5828 0
5844 5843 -5828 0
-5845 5844 5829 0
-5845 -5844 -5829 0
5845 -5844 5829 0
5845 5844 -5829 0
-5846 5845 5830 0
-5846 -5845 -5830 0
5846 -5845 5830 0
5846 5845 -5830 0
-5847 5846 5831 0
-5847 -5846 -5831 0
5847 -5846 5831 0
5847 5846 -5831 0
-5848 5847 5832 0
-5848 -5847 -5832 0
5848 -5847 5832 0
5848 5847 -5832 0
-5849 5848 5833 0
-5849 -5848 -5833 0
5849 -5848 5833 0
5849 5848 -5833 0
-5850 5849 5834 0
-5850 -5849 -5834 0
5850 -5849 5834 0
5850 5849 -5834 0
-5850 0
-5851 5660 0
-5851 40 0
5851 -5660 -40 0
-5852 5662 0
-5852 46 0
5852 -5662 -46 0
-5853 5664 0
-5853 39 0
5853 -5664 -39 0
-5854 5666 0
-5854 47 0
5854 -5666 -47 0
-5855 5668 0
-5855 42 0
5855 -5668 -42 0
-5856 5670 0
-5856 44 0
5856 -5670 -44 0
-5857 5660 0
-5857 46 0
5857 -5660 -46 0
-5858 5662 0
-5858 40 0
5858 -5662 -40 0
-5859 5664 0
-5859 42 0
5859 -5664 -42 0
-5860 5666 0
-5860 44 0
5860 -5666 -44 0
-5861 5668 0
-5861 39 0
5861 -5668 -39 0
-5862 5670 0
-5862 47 0
5862 -5670 -47 0
-5863 5672 0
-5863 88 0
5863 -5672 -88 0
-5864 5672 0
-5864 94 0
5864 -5672 -94 0
-5865 5674 0
-5865 136 0
5865 -5674 -136 0
-5866 5674 0
-5866 142 0
5866 -5674 -142 0
-5867 5676 0
-5867 184 0
5867 -5676 -184 0
-5868 5851 5852 0
-5868 -5851 -5852 0
5868 -5851 5852 0
5868 5851 -5852 0
-5869 5868 5853 0
-5869 -5868 -5853 0
5869 -5868 5853 0
5869 5868 -5853 0
-5870 5869 5854 0
-5870 -5869 -5854 0
5870 -5869 5854 0
5870 5869 -5854 0
-5871 5870 5855 0
-5871 -5870 -5855 0
5871 -5870 5855 0
5871 5870 -5855 0
-5872 5871 5856 0
-5872 -5871 -5856 0
5872 -5871 5856 0
5872 5871 -5856 0
-5873 5872 5857 0
-5873 -5872 -5857 0
5873 -5872 5857 0
5873 5872 -5857 0
-5874 5873 5858 0
-5874 -5873 -5858 0
5874 -5873 5858 0
5874 5873 -5858 0
-5875 5874 5859 0
-5875 -5874 -5859 0
5875 -5874 5859 0
5875 5874 -5859 0
-5876 5875 5860 0
-5876 -5875 -5860 0
5876 -5875 5860 0
5876 5875 -5860 0
-5877 5876 5861 0
-5877 -5876 -5861 0
5877 -5876 5861 0
5877 5876 -5861 0
-5878 5877 5862 0
-5878 -5877 -5862 0
5878 -5877 5862 0
5878 5877 -5862 0
-5879 5878 5863 0
-5879 -5878 -5863 0
5879 -5878 5863 0
5879 5878 -5863 0
-5880 5879 5864 0
-5880 -5879 -5864 0
5880 -5879 5864 0
5880 5879 -5864 0
-5881 5880 5865 0
-5881 -5880 -5865 0
5881 -5880 5865 0
5881 5880 -5865 0
-5882 5881 5866 0
-5882 -5881 -5866 0
5882 -5881 5866 0
5882 5881 -5866 0
-5883 5882 5867 0
-5883 -5882 -5867 0
5883 -5882 5867 0
5883 5882 -5867 0
-5883 0
-5884 5660 0
-5884 43 0
5884 -5660 -43 0
-5885 5662 0
-5885 43 0
5885 -5662 -43 0
-5886 5664 0
-5886 48 0
5886 -5664 -48 0
-5887 5666 0
-5887 38 0
5887 -5666 -38 0
-5888 5668 0
-5888 48 0
5888 -5668 -48 0
-5889 5670 0
-5889 38 0
5889 -5670 -38 0
-5890 5672 0
-5890 91 0
5890 -5672 -91 0
-5891 5674 0
-5891 139 0
5891 -5674 -139 0
-5892 5676 0
-5892 187 0
5892 -5676 -187 0
-5893 5884 5885 0
-5893 -5884 -5885 0
5893 -5884 5885 0
5893 5884 -5885 0
-5894 5893 5886 0
-5894 -5893 -5886 0
5894 -5893 5886 0
5894 5893 -5886 0
-5895 5894 5887 0
-5895 -5894 -5887 0
5895 -5894 5887 0
5895 5894 -5887 0
-5896 5895 5888 0
-5896 -5895 -5888 0
5896 -5895 5888 0
5896 5895 -5888 0
-5897 5896 5889 0
-5897 -5896 -5889 0
5897 -5896 5889 0
5897 5896 -5889 0
-5898 5897 5884 0
-5898 -5897 -5884 0
5898 -5897 5884 0
5898 5897 -5884 0
-5899 5898 5885 0
-5899 -5898 -5885 0
5899 -5898 5885 0
5899 5898 -5885 0
-5900 5899 5886 0
-5900 -5899 -5886 0
5900 -5899 5886 0
5900 5899 -5886 0
-5901 5900 5887 0
-5901 -5900 -5887 0
5901 -5900 5887 0
5901 5900 -5887 0
-5902 5901 5888 0
-5902 -5901 -5888 0
5902 -5901 5888 0
5902 5901 -5888 0
-5903 5902 5889 0
-5903 -5902 -5889 0
5903 -5902 5889 0
5903 5902 -5889 0
-5904 5903 5890 0
-5904 -5903 -5890 0
5904 -5903 5890 0
5904 5903 -5890 0
-5905 5904 5890 0
-5905 -5904 -5890 0
5905 -5904 5890 0
5905 5904 -5890 0
-5906 5905 5891 0
-5906 -5905 -5891 0
5906 -5905 5891 0
5906 5905 -5891 0
-5907 5906 5891 0
-5907 -5906 -5891 0
5907 -5906 5891 0
5907 5906 -5891 0
-5908 5907 5892 0
-5908 -5907 -5892 0
5908 -5907 5892 0
5908 5907 -5892 0
-5908 0
-5909 5660 0
-5909 44 0
5909 -5660 -44 0
-5910 5662 0
-5910 42 0
5910 -5662 -42 0
-5911 5664 0
-5911 47 0
5911 -5664 -47 0
-5912 5666 0
-5912 39 0
5912 -5666 -39 0
-5913 5668 0
-5913 46 0
5913 -5668 -46 0
-5914 5670 0
-5914 40 0
5914 -5670 -40 0
-5915 5660 0
-5915 47 0
5915 -5660 -47 0
-5916 5662 0
-5916 39 0
5916 -5662 -39 0
-5917 5664 0
-5917 44 0
5917 -5664 -44 0
-5918 5666 0
-5918 42 0
5918 -5666 -42 0
-5919 5668 0
-5919 40 0
5919 -5668 -40 0
-5920 5670 0
-5920 46 0
5920 -5670 -46 0
-5921 5672 0
-5921 92 0
5921 -5672 -92 0
-5922 5672 0
-5922 95 0
5922 -5672 -95 0
-5923 5674 0
-5923 140 0
5923 -5674 -140 0
-5924 5674 0
-5924 143 0
5924 -5674 -143 0
-5925 5676 0
-5925 188 0
5925 -5676 -188 0
-5926 5909 5910 0
-5926 -5909 -5910 0
5926 -5909 5910 0
5926 5909 -5910 0
-5927 5926 5911 0
-5927 -5926 -5911 0
5927 -5926 5911 0
5927 5926 -5911 0
-5928 5927 5912 0
-5928 -5927 -5912 0
5928 -5927 5912 0
5928 5927 -5912 0
-5929 5928 5913 0
-5929 -5928 -5913 0
5929 -5928 5913 0
5929 5928 -5913 0
-5930 5929 5914 0
-5930 -5929 -5914 0
5930 -5929 5914 0
5930 5929 -5914 0
-5931 5930 5915 0
-5931 -5930 -5915 0
5931 -5930 5915 0
5931 5930 -5915 0
-5932 5931 5916 0
-5932 -5931 -5916 0
5932 -5931 5916 0
5932 5931 -5916 0
-5933 5932 5917 0
-5933 -5932 -5917 0
5933 -5932 5917 0
5933 5932 -5917 0
-5934 5933 5918 0
-5934 -5933 -5918 0
5934 -5933 5918 0
5934 5933 -5918 0
-5935 5934 5919 0
-5935 -5934 -5919 0
5935 -5934 5919 0
5935 5934 -5919 0
-5936 5935 5920 0
-5936 -5935 -5920 0
5936 -5935 5920 0
5936 5935 -5920 0
-5937 5936 5921 0
-5937 -5936 -5921 0
5937 -5936 5921 0
5937 5936 -5921 0
-5938 5937 5922 0
-5938 -5937 -5922 0
5938 -5937 5922 0
5938 5937 -5922 0
-5939 5938 5923 0
-5939 -5938 -5923 0
5939 -5938 5923 0
5939 5938 -5923 0
-5940 5939 5924 0
-5940 -5939 -5924 0
5940 -5939 5924 0
5940 5939 -5924 0
-5941 5940 5925 0
-5941 -5940 -5925 0
5941 -5940 5925 0
5941 5940 -5925 0
-5941 0
-5942 5660 0
-5942 48 0
5942 -5660 -48 0
-5943 5662 0
-5943 38 0
5943 -5662 -38 0
-5944 5664 0
-5944 43 0
5944 -5664 -43 0
-5945 5666 0
-5945 43 0
5945 -5666 -43 0
-5946 5668 0
-5946 38 0
5946 -5668 -38 0
-5947 5670 0
-5947 48 0
5947 -5670 -48 0
-5948 5672 0
-5948 96 0
5948 -5672 -96 0
-5949 5674 0
-5949 144 0
5949 -5674 -144 0
-5950 5676 0
-5950 192 0
5950 -5676 -192 0
-5951 5942 5943 0
-5951 -5942 -5943 0
5951 -5942 5943 0
5951 5942 -5943 0
-5952 5951 5944 0
-5952 -5951 -5944 0
5952 -5951 5944 0
5952 5951 -5944 0
-5953 5952 5945 0
-5953 -5952 -5945 0
5953 -5952 5945 0
5953 5952 -5945 0
-5954 5953 5946 0
-5954 -5953 -5946 0
5954 -5953 5946 0
5954 5953 -5946 0
-5955 5954 5947 0
-5955 -5954 -5947 0
5955 -5954 5947 0
5955 5954 -5947 0
-5956 5955 5942 0
-5956 -5955 -5942 0
5956 -5955 5942 0
5956 5955 -5942 0
-5957 5956 5943 0
-5957 -5956 -5943 0
5957 -5956 5943 0
5957 5956 -5943 0
-5958 5957 5944 0
-5958 -5957 -5944 0
5958 -5957 5944 0
5958 5957 -5944 0
-5959 5958 5945 0
-5959 -5958 -5945 0
5959 -5958 5945 0
5959 5958 -5945 0
-5960 5959 5946 0
-5960 -5959 -5946 0
5960 -5959 5946 0
5960 5959 -5946 0
-5961 5960 5947 0
-5961 -5960 -5947 0
5961 -5960 5947 0
5961 5960 -5947 0
-5962 5961 5948 0
-5962 -5961 -5948 0
5962 -5961 5948 0
5962 5961 -5948 0
-5963 5962 5948 0
-5963 -5962 -5948 0
5963 -5962 5948 0
5963 5962 -5948 0
-5964 5963 5949 0
-5964 -5963 -5949 0
5964 -5963 5949 0
5964 5963 -5949 0
-5965 5964 5949 0
-5965 -5964 -5949 0
5965 -5964 5949 0
5965 5964 -5949 0
-5966 5965 5950 0
-5966 -5965 -5950 0
5966 -5965 5950 0
5966 5965 -5950 0
-5966 0
-5967 5 0
-5967 19 0
5967 -5 -19 0
-5968 5967 0
-5968 33 0
5968 -5967 -33 0
-5969 13 0
-5969 19 0
5969 -13 -19 0
-5970 5969 0
-5970 33 0
5970 -5969 -33 0
-5971 6 0
-5971 24 0
5971 -6 -24 0
-5972 5971 0
-5972 33 0
5972 -5971 -33 0
-5973 15 0
-5973 26 0
5973 -15 -26 0
-5974 5973 0
-5974 33 0
5974 -5973 -33 0
-5975 10 0
-5975 24 0
5975 -10 -24 0
-5976 5975 0
-5976 33 0
5976 -5975 -33 0
-5977 11 0
-5977 26 0
5977 -11 -26 0
-5978 5977 0
-5978 33 0
5978 -5977 -33 0
-5979 18 0
-5979 9 0
5979 -18 -9 0
-5980 5979 0
-5980 33 0
5980 -5979 -33 0
-5981 20 0
-5981 9 0
5981 -20 -9 0
-5982 5981 0
-5982 33 0
5982 -5981 -33 0
-5983 22 0
-5983 14 0
5983 -22 -14 0
-5984 5983 0
-5984 33 0
5984 -5983 -33 0
-5985 28 0
-5985 7 0
5985 -28 -7 0
-5986 5985 0
-5986 33 0
5986 -5985 -33 0
-5987 23 0
-5987 14 0
5987 -23 -14 0
-5988 5987 0
-5988 33 0
5988 -5987 -33 0
-5989 27 0
-5989 7 0
5989 -27 -7 0
-5990 5989 0
-5990 33 0
5990 -5989 -33 0
-5991 53 0
-5991 67 0
5991 -53 -67 0
-5992 5991 0
-5992 81 0
5992 -5991 -81 0
-5993 66 0
-5993 57 0
5993 -66 -57 0
-5994 5993 0
-5994 81 0
5994 -5993 -81 0
-5995 101 0
-5995 115 0
5995 -101 -115 0
-5996 5995 0
-5996 129 0
5996 -5995 -129 0
-5997 114 0
-5997 105 0
5997 -114 -105 0
-5998 5997 0
-5998 129 0
5998 -5997 -129 0
-5999 149 0
-5999 163 0
5999 -149 -163 0
-6000 5999 0
-6000 177 0
6000 -5999 -177 0
-6001 5968 5970 0
-6001 -5968 -5970 0
6001 -5968 5970 0
6001 5968 -5970 0
-6002 6001 5972 0
-6002 -6001 -5972 0
6002 -6001 5972 0
6002 6001 -5972 0
-6003 6002 5974 0
-6003 -6002 -5974 0
6003 -6002 5974 0
6003 6002 -5974 0
-6004 6003 5976 0
-6004 -6003 -5976 0
6004 -6003 5976 0
6004 6003 -5976 0
-6005 6004 5978 0
-6005 -6004 -5978 0
6005 -6004 5978 0
6005 6004 -5978 0
-6006 6005 5980 0
-6006 -6005 -5980 0
6006 -6005 5980 0
6006 6005 -5980 0
-6007 6006 5982 0
-6007 -6006 -5982 0
6007 -6006 5982 0
6007 6006 -5982 0
-6008 6007 5984 0
-6008 -6007 -5984 0
6008 -6007 5984 0
6008 6007 -5984 0
-6009 6008 5986 0
-6009 -6008 -5986 0
6009 -6008 5986 0
6009 6008 -5986 0
-6010 6009 5988 0
-6010 -6009 -5988 0
6010 -6009 5988 0
6010 6009 -5988 0
-6011 6010 5990 0
-6011 -6010 -5990 0
6011 -6010 5990 0
6011 6010 -5990 0
-6012 6011 5992 0
-6012 -6011 -5992 0
6012 -6011 5992 0
6012 6011 -5992 0
-6013 6012 5994 0
-6013 -6012 -5994 0
6013 -6012 5994 0
6013 6012 -5994 0
-6014 6013 5996 0
-6014 -6013 -5996 0
6014 -6013 5996 0
6014 6013 -5996 0
-6015 6014 5998 0
-6015 -6014 -5998 0
6015 -6014 5998 0
6015 6014 -5998 0
-6016 6015 6000 0
-6016 -6015 -6000 0
6016 -6015 6000 0
6016 6015 -6000 0
-6016 0
-6017 5967 0
-6017 34 0
6017 -5967 -34 0
-6018 5969 0
-6018 36 0
6018 -5969 -36 0
-6019 5971 0
-6019 34 0
6019 -5971 -34 0
-6020 5973 0
-6020 36 0
6020 -5973 -36 0
-6021 5975 0
-6021 35 0
6021 -5975 -35 0
-6022 5977 0
-6022 35 0
6022 -5977 -35 0
-6023 5979 0
-6023 37 0
6023 -5979 -37 0
-6024 5981 0
-6024 45 0
6024 -5981 -45 0
-6025 5983 0
-6025 37 0
6025 -5983 -37 0
-6026 5985 0
-6026 45 0
6026 -5985 -45 0
-6027 5987 0
-6027 41 0
6027 -5987 -41 0
-6028 5989 0
-6028 41 0
6028 -5989 -41 0
-6029 5991 0
-6029 82 0
6029 -5991 -82 0
-6030 5993 0
-6030 85 0
6030 -5993 -85 0
-6031 5995 0
-6031 130 0
6031 -5995 -130 0
-6032 5997 0
-6032 133 0
6032 -5997 -133 0
-6033 5999 0
-6033 178 0
6033 -5999 -178 0
-6034 6017 6018 0
-6034 -6017 -6018 0
6034 -6017 6018 0
6034 6017 -6018 0
-6035 6034 6019 0
-6035 -6034 -6019 0
6035 -6034 6019 0
6035 6034 -6019 0
-6036 6035 6020 0
-6036 -6035 -6020 0
6036 -6035 6020 0
6036 6035 -6020 0
-6037 6036 6021 0
-6037 -6036 -6021 0
6037 -6036 6021 0
6037 6036 -6021 0
-6038 6037 6022 0
-6038 -6037 -6022 0
6038 -6037 6022 0
6038 6037 -6022 0
-6039 6038 6023 0
-6039 -6038 -6023 0
6039 -6038 6023 0
6039 6038 -6023 0
-6040 6039 6024 0
-6040 -6039 -6024 0
6040 -6039 6024 0
6040 6039 -6024 0
-6041 6040 6025 0
-6041 -6040 -6025 0
6041 -6040 6025 0
6041 6040 -6025 0
-6042 6041 6026 0
-6042 -6041 -6026 0
6042 -6041 6026 0
6042 6041 -6026 0
-6043 6042 6027 0
-6043 -6042 -6027 0
6043 -6042 6027 0
6043 6042 -6027 0
-6044 6043 6028 0
-6044 -6043 -6028 0
6044 -6043 6028 0
6044 6043 -6028 0
-6045 6044 6029 0
-6045 -6044 -6029 0
6045 -6044 6029 0
6045 6044 -6029 0
-6046 6045 6030 0
-6046 -6045 -6030 0
6046 -6045 6030 0
6046 6045 -6030 0
-6047 6046 6031 0
-6047 -6046 -6031 0
6047 -6046 6031 0
6047 6046 -6031 0
-6048 6047 6032 0
-6048 -6047 -6032 0
6048 -6047 6032 0
6048 6047 -6032 0
-6049 6048 6033 0
-6049 -6048 -6033 0
6049 -6048 6033 0
6049 6048 -6033 0
6049 0
-6050 5967 0
-6050 35 0
6050 -5967 -35 0
-6051 5969 0
-6051 35 0
6051 -5969 -35 0
-6052 5971 0
-6052 36 0
6052 -5971 -36 0
-6053 5973 0
-6053 34 0
6053 -5973 -34 0
-6054 5975 0
-6054 36 0
6054 -5975 -36 0
-6055 5977 0
-6055 34 0
6055 -5977 -34 0
-6056 5979 0
-6056 41 0
6056 -5979 -41 0
-6057 5981 0
-6057 41 0
6057 -5981 -41 0
-6058 5983 0
-6058 45 0
6058 -5983 -45 0
-6059 5985 0
-6059 37 0
6059 -5985 -37 0
-6060 5987 0
-6060 45 0
6060 -5987 -45 0
-6061 5989 0
-6061 37 0
6061 -5989 -37 0
-6062 5991 0
-6062 83 0
6062 -5991 -83 0
-6063 5993 0
-6063 89 0
6063 -5993 -89 0
-6064 5995 0
-6064 131 0
6064 -5995 -131 0
-6065 5997 0
-6065 137 0
6065 -5997 -137 0
-6066 5999 0
-6066 179 0
6066 -5999 -179 0
-6067 6050 6051 0
-6067 -6050 -6051 0
6067 -6050 6051 0
6067 6050 -6051 0
-6068 6067 6052 0
-6068 -6067 -6052 0
6068 -6067 6052 0
6068 6067 -6052 0
-6069 6068 6053 0
-6069 -6068 -6053 0
6069 -6068 6053 0
6069 6068 -6053 0
-6070 6069 6054 0
-6070 -6069 -6054 0
6070 -6069 6054 0
6070 6069 -6054 0
-6071 6070 6055 0
-6071 -6070 -6055 0
6071 -6070 6055 0
6071 6070 -6055 0
-6072 6071 6056 0
-6072 -6071 -6056 0
6072 -6071 6056 0
6072 6071 -6056 0
-6073 6072 6057 0
-6073 -6072 -6057 0
6073 -6072 6057 0
6073 6072 -6057 0
-6074 6073 6058 0
-6074 -6073 -6058 0
6074 -6073 6058 0
6074 6073 -6058 0
-6075 6074 6059 0
-6075 -6074 -6059 0
6075 -6074 6059 0
6075 6074 -6059 0
-6076 6075 6060 0
-6076 -6075 -6060 0
6076 -6075 6060 0
6076 6075 -6060 0
-6077 6076 6061 0
-6077 -6076 -6061 0
6077 -6076 6061 0
6077 6076 -6061 0
-6078 6077 6062 0
-6078 -6077 -6062 0
6078 -6077 6062 0
6078 6077 -6062 0
-6079 6078 6063 0
-6079 -6078 -6063 0
6079 -6078 6063 0
6079 6078 -6063 0
-6080 6079 6064 0
-6080 -6079 -6064 0
6080 -6079 6064 0
6080 6079 -6064 0
-6081 6080 6065 0
-6081 -6080 -6065 0
6081 -6080 6065 0
6081 6080 -6065 0
-6082 6081 6066 0
-6082 -6081 -6066 0
6082 -6081 6066 0
6082 6081 -6066 0
-6082 0
-6083 5967 0
-6083 36 0
6083 -5967 -36 0
-6084 5969 0
-6084 34 0
6084 -5969 -34 0
-6085 5971 0
-6085 35 0
6085 -5971 -35 0
-6086 5973 0
-6086 35 0
6086 -5973 -35 0
-6087 5975 0
-6087 34 0
6087 -5975 -34 0
-6088 5977 0
-6088 36 0
6088 -5977 -36 0
-6089 5979 0
-6089 45 0
6089 -5979 -45 0
-6090 5981 0
-6090 37 0
6090 -5981 -37 0
-6091 5983 0
-6091 41 0
6091 -5983 -41 0
-6092 5985 0
-6092 41 0
6092 -5985 -41 0
-6093 5987 0
-6093 37 0
6093 -5987 -37 0
-6094 5989 0
-6094 45 0
6094 -5989 -45 0
-6095 5991 0
-6095 84 0
6095 -5991 -84 0
-6096 5993 0
-6096 93 0
6096 -5993 -93 0
-6097 5995 0
-6097 132 0
6097 -5995 -132 0
-6098 5997 0
-6098 141 0
6098 -5997 -141 0
-6099 5999 0
-6099 180 0
6099 -5999 -180 0
-6100 6083 6084 0
-6100 -6083 -6084 0
6100 -6083 6084 0
6100 6083 -6084 0
-6101 6100 6085 0
-6101 -6100 -6085 0
6101 -6100 6085 0
6101 6100 -6085 0
-6102 6101 6086 0
-6102 -6101 -6086 0
6102 -6101 6086 0
6102 6101 -6086 0
-6103 6102 6087 0
-6103 -6102 -6087 0
6103 -6102 6087 0
6103 6102 -6087 0
-6104 6103 6088 0
-6104 -6103 -6088 0
6104 -6103 6088 0
6104 6103 -6088 0
-6105 6104 6089 0
-6105 -6104 -6089 0
6105 -6104 6089 0
6105 6104 -6089 0
-6106 6105 6090 0
-6106 -6105 -6090 0
6106 -6105 6090 0
6106 6105 -6090 0
-6107 6106 6091 0
-6107 -6106 -6091 0
6107 -6106 6091 0
6107 6106 -6091 0
-6108 6107 6092 0
-6108 -6107 -6092 0
6108 -6107 6092 0
6108 6107 -6092 0
-6109 6108 6093 0
-6109 -6108 -6093 0
6109 -6108 6093 0
6109 6108 -6093 0
-6110 6109 6094 0
-6110 -6109 -6094 0
6110 -6109 6094 0
6110 6109 -6094 0
-6111 6110 6095 0
-6111 -6110 -6095 0
6111 -6110 6095 0
6111 6110 -6095 0
-6112 6111 6096 0
-6112 -6111 -6096 0
6112 -6111 6096 0
6112 6111 -6096 0
-6113 6112 6097 0
-6113 -6112 -6097 0
6113 -6112 6097 0
6113 6112 -6097 0
-6114 6113 6098 0
-6114 -6113 -6098 0
6114 -6113 6098 0
6114 6113 -6098 0
-6115 6114 6099 0
-6115 -6114 -6099 0
6115 -6114 6099 0
6115 6114 -6099 0
-6115 0
-6116 5967 0
-6116 37 0
6116 -5967 -37 0
-6117 5969 0
-6117 45 0
6117 -5969 -45 0
-6118 5971 0
-6118 37 0
6118 -5971 -37 0
-6119 5973 0
-6119 45 0
6119 -5973 -45 0
-6120 5975 0
-6120 41 0
6120 -5975 -41 0
-6121 5977 0
-6121 41 0
6121 -5977 -41 0
-6122 5979 0
-6122 34 0
6122 -5979 -34 0
-6123 5981 0
-6123 36 0
6123 -5981 -36 0
-6124 5983 0
-6124 34 0
6124 -5983 -34 0
-6125 5985 0
-6125 36 0
6125 -5985 -36 0
-6126 5987 0
-6126 35 0
6126 -5987 -35 0
-6127 5989 0
-6127 35 0
6127 -5989 -35 0
-6128 5991 0
-6128 85 0
6128 -5991 -85 0
-6129 5993 0
-6129 82 0
6129 -5993 -82 0
-6130 5995 0
-6130 133 0
6130 -5995 -133 0
-6131 5997 0
-6131 130 0
6131 -5997 -130 0
-6132 5999 0
-6132 181 0
6132 -5999 -181 0
-6133 6116 6117 0
-6133 -6116 -6117 0
6133 -6116 6117 0
6133 6116 -6117 0
-6134 6133 6118 0
-6134 -6133 -6118 0
6134 -6133 6118 0
6134 6133 -6118 0
-6135 6134 6119 0
-6135 -6134 -6119 0
6135 -6134 6119 0
6135 6134 -6119 0
-6136 6135 6120 0
-6136 -6135 -6120 0
6136 -6135 6120 0
6136 6135 -6120 0
-6137 6136 6121 0
-6137 -6136 -6121 0
6137 -6136 6121 0
6137 6136 -6121 0
-6138 6137 6122 0
-6138 -6137 -6122 0
6138 -6137 6122 0
6138 6137 -6122 0
-6139 6138 6123 0
-6139 -6138 -6123 0
6139 -6138 6123 0
6139 6138 -6123 0
-6140 6139 6124 0
-6140 -6139 -6124 0
6140 -6139 6124 0
6140 6139 -6124 0
-6141 6140 6125 0
-6141 -6140 -6125 0
6141 -6140 6125 0
6141 6140 -6125 0
-6142 6141 6126 0
-6142 -6141 -6126 0
6142 -6141 6126 0
6142 6141 -6126 0
-6143 6142 6127 0
-6143 -6142 -6127 0
6143 -6142 6127 0
6143 6142 -6127 0
-6144 6143 6128 0
-6144 -6143 -6128 0
6144 -6143 6128 0
6144 6143 -6128 0
-6145 6144 6129 0
-6145 -6144 -6129 0
6145 -6144 6129 0
6145 6144 -6129 0
-6146 6145 6130 0
-6146 -6145 -6130 0
6146 -6145 6130 0
6146 6145 -6130 0
-6147 6146 6131 0
-6147 -6146 -6131 0
6147 -6146 6131 0
6147 6146 -6131 0
-6148 6147 6132 0
-6148 -6147 -6132 0
6148 -6147 6132 0
6148 6147 -6132 0
-6148 0
-6149 5967 0
-6149 38 0
6149 -5967 -38 0
-6150 5969 0
-6150 48 0
6150 -5969 -48 0
-6151 5971 0
-6151 38 0
6151 -5971 -38 0
-6152 5973 0
-6152 48 0
6152 -5973 -48 0
-6153 5975 0
-6153 43 0
6153 -5975 -43 0
-6154 5977 0
-6154 43 0
6154 -5977 -43 0
-6155 5979 0
-6155 38 0
6155 -5979 -38 0
-6156 5981 0
-6156 48 0
6156 -5981 -48 0
-6157 5983 0
-6157 38 0
6157 -5983 -38 0
-6158 5985 0
-6158 48 0
6158 -5985 -48 0
-6159 5987 0
-6159 43 0
6159 -5987 -43 0
-6160 5989 0
-6160 43 0
6160 -5989 -43 0
-6161 5991 0
-6161 86 0
6161 -5991 -86 0
-6162 5993 0
-6162 86 0
6162 -5993 -86 0
-6163 5995 0
-6163 134 0
6163 -5995 -134 0
-6164 5997 0
-6164 134 0
6164 -5997 -134 0
-6165 5999 0
-6165 182 0
6165 -5999 -182 0
-6166 6149 6150 0
-6166 -6149 -6150 0
6166 -6149 6150 0
6166 6149 -6150 0
-6167 6166 6151 0
-6167 -6166 -6151 0
6167 -6166 6151 0
6167 6166 -6151 0
-6168 6167 6152 0
-6168 -6167 -6152 0
6168 -6167 6152 0
6168 6167 -6152 0
-6169 6168 6153 0
-6169 -6168 -6153 0
6169 -6168 6153 0
6169 6168 -6153 0
-6170 6169 6154 0
-6170 -6169 -6154 0
6170 -6169 6154 0
6170 6169 -6154 0
-6171 6170 6155 0
-6171 -6170 -6155 0
6171 -6170 6155 0
6171 6170 -6155 0
-6172 6171 6156 0
-6172 -6171 -6156 0
6172 -6171 6156 0
6172 6171 -6156 0
-6173 6172 6157 0
-6173 -6172 -6157 0
6173 -6172 6157 0
6173 6172 -6157 0
-6174 6173 6158 0
-6174 -6173 -6158 0
6174 -6173 6158 0
6174 6173 -6158 0
-6175 6174 6159 0
-6175 -6174 -6159 0
6175 -6174 6159 0
6175 6174 -6159 0
-6176 6175 6160 0
-6176 -6175 -6160 0
6176 -6175 6160 0
6176 6175 -6160 0
-6177 6176 6161 0
-6177 -6176 -6161 0
6177 -6176 6161 0
6177 6176 -6161 0
-6178 6177 6162 0
-6178 -6177 -6162 0
6178 -6177 6162 0
6178 6177 -6162 0
-6179 6178 6163 0
-6179 -6178 -6163 0
6179 -6178 6163 0
6179 6178 -6163 0
-6180 6179 6164 0
-6180 -6179 -6164 0
6180 -6179 6164 0
6180 6179 -6164 0
-6181 6180 6165 0
-6181 -6180 -6165 0
6181 -6180 6165 0
6181 6180 -6165 0
-6181 0
-6182 5967 0
-6182 39 0
6182 -5967 -39 0
-6183 5969 0
-6183 47 0
6183 -5969 -47 0
-6184 5971 0
-6184 40 0
6184 -5971 -40 0
-6185 5973 0
-6185 46 0
6185 -5973 -46 0
-6186 5975 0
-6186 44 0
6186 -5975 -44 0
-6187 5977 0
-6187 42 0
6187 -5977 -42 0
-6188 5979 0
-6188 42 0
6188 -5979 -42 0
-6189 5981 0
-6189 44 0
6189 -5981 -44 0
-6190 5983 0
-6190 46 0
6190 -5983 -46 0
-6191 5985 0
-6191 40 0
6191 -5985 -40 0
-6192 5987 0
-6192 47 0
6192 -5987 -47 0
-6193 5989 0
-6193 39 0
6193 -5989 -39 0
-6194 5991 0
-6194 87 0
6194 -5991 -87 0
-6195 5993 0
-6195 90 0
6195 -5993 -90 0
-6196 5995 0
-6196 135 0
6196 -5995 -135 0
-6197 5997 0
-6197 138 0
6197 -5997 -138 0
-6198 5999 0
-6198 183 0
6198 -5999 -183 0
-6199 6182 6183 0
-6199 -6182 -6183 0
6199 -6182 6183 0
6199 6182 -6183 0
-6200 6199 6184 0
-6200 -6199 -6184 0
6200 -6199 6184 0
6200 6199 -6184 0
-6201 6200 6185 0
-6201 -6200 -6185 0
6201 -6200 6185 0
6201 6200 -6185 0
-6202 6201 6186 0
-6202 -6201 -6186 0
6202 -6201 6186 0
6202 6201 -6186 0
-6203 6202 6187 0
-6203 -6202 -6187 0
6203 -6202 6187 0
6203 6202 -6187 0
-6204 6203 6188 0
-6204 -6203 -6188 0
6204 -6203 6188 0
6204 6203 -6188 0
-6205 6204 6189 0
-6205 -6204 -6189 0
6205 -6204 6189 0
6205 6204 -6189 0
-6206 6205 6190 0
-6206 -6205 -6190 0
6206 -6205 6190 0
6206 6205 -6190 0
-6207 6206 6191 0
-6207 -6206 -6191 0
6207 -6206 6191 0
6207 6206 -6191 0
-6208 6207 6192 0
-6208 -6207 -6192 0
6208 -6207 6192 0
6208 6207 -6192 0
-6209 6208 6193 0
-6209 -6208 -6193 0
6209 -6208 6193 0
6209 6208 -6193 0
-6210 6209 6194 0
-6210 -6209 -6194 0
6210 -6209 6194 0
6210 6209 -6194 0
-6211 6210 6195 0
-6211 -6210 -6195 0
6211 -6210 6195 0
6211 6210 -6195 0
-6212 6211 6196 0
-6212 -6211 -6196 0
6212 -6211 6196 0
6212 6211 -6196 0
-6213 6212 6197 0
-6213 -6212 -6197 0
6213 -6212 6197 0
6213 6212 -6197 0
-6214 6213 6198 0
-6214 -6213 -6198 0
6214 -6213 6198 0
6214 6213 -6198 0
-6214 0
-6215 5967 0
-6215 40 0
6215 -5967 -40 0
-6216 5969 0
-6216 46 0
6216 -5969 -46 0
-6217 5971 0
-6217 39 0
6217 -5971 -39 0
-6218 5973 0
-6218 47 0
6218 -5973 -47 0
-6219 5975 0
-6219 42 0
6219 -5975 -42 0
-6220 5977 0
-6220 44 0
6220 -5977 -44 0
-6221 5979 0
-6221 46 0
6221 -5979 -46 0
-6222 5981 0
-6222 40 0
6222 -5981 -40 0
-6223 5983 0
-6223 42 0
6223 -5983 -42 0
-6224 5985 0
-6224 44 0
6224 -5985 -44 0
-6225 5987 0
-6225 39 0
6225 -5987 -39 0
-6226 5989 0
-6226 47 0
6226 -5989 -47 0
-6227 5991 0
-6227 88 0
6227 -5991 -88 0
-6228 5993 0
-6228 94 0
6228 -5993 -94 0
-6229 5995 0
-6229 136 0
6229 -5995 -136 0
-6230 5997 0
-6230 142 0
6230 -5997 -142 0
-6231 5999 0
-6231 184 0
6231 -5999 -184 0
-6232 6215 6216 0
-6232 -6215 -6216 0
6232 -6215 6216 0
6232 6215 -6216 0
-6233 6232 6217 0
-6233 -6232 -6217 0
6233 -6232 6217 0
6233 6232 -6217 0
-6234 6233 6218 0
-6234 -6233 -6218 0
6234 -6233 6218 0
6234 6233 -6218 0
-6235 6234 6219 0
-6235 -6234 -6219 0
6235 -6234 6219 0
6235 6234 -6219 0
-6236 6235 6220 0
-6236 -6235 -6220 0
6236 -6235 6220 0
6236 6235 -6220 0
-6237 6236 6221 0
-6237 -6236 -6221 0
6237 -6236 6221 0
6237 6236 -6221 0
-6238 6237 6222 0
-6238 -6237 -6222 0
6238 -6237 6222 0
6238 6237 -6222 0
-6239 6238 6223 0
-6239 -6238 -6223 0
6239 -6238 6223 0
6239 6238 -6223 0
-6240 6239 6224 0
-6240 -6239 -6224 0
6240 -6239 6224 0
6240 6239 -6224 0
-6241 6240 6225 0
-6241 -6240 -6225 0
6241 -6240 6225 0
6241 6240 -6225 0
-6242 6241 6226 0
-6242 -6241 -6226 0
6242 -6241 6226 0
6242 6241 -6226 0
-6243 6242 6227 0
-6243 -6242 -6227 0
6243 -6242 6227 0
6243 6242 -6227 0
-6244 6243 6228 0
-6244 -6243 -6228 0
6244 -6243 6228 0
6244 6243 -6228 0
-6245 6244 6229 0
-6245 -6244 -6229 0
6245 -6244 6229 0
6245 6244 -6229 0
-6246 6245 6230 0
-6246 -6245 -6230 0
6246 -6245 6230 0
6246 6245 -6230 0
-6247 6246 6231 0
-6247 -6246 -6231 0
6247 -6246 6231 0
6247 6246 -6231 0
-6247 0
-6248 5967 0
-6248 41 0
6248 -5967 -41 0
-6249 5969 0
-6249 41 0
6249 -5969 -41 0
-6250 5971 0
-6250 45 0
6250 -5971 -45 0
-6251 5973 0
-6251 37 0
6251 -5973 -37 0
-6252 5975 0
-6252 45 0
6252 -5975 -45 0
-6253 5977 0
-6253 37 0
6253 -5977 -37 0
-6254 5979 0
-6254 35 0
6254 -5979 -35 0
-6255 5981 0
-6255 35 0
6255 -5981 -35 0
-6256 5983 0
-6256 36 0
6256 -5983 -36 0
-6257 5985 0
-6257 34 0
6257 -5985 -34 0
-6258 5987 0
-6258 36 0
6258 -5987 -36 0
-6259 5989 0
-6259 34 0
6259 -5989 -34 0
-6260 5991 0
-6260 89 0
6260 -5991 -89 0
-6261 5993 0
-6261 83 0
6261 -5993 -83 0
-6262 5995 0
-6262 137 0
6262 -5995 -137 0
-6263 5997 0
-6263 131 0
6263 -5997 -131 0
-6264 5999 0
-6264 185 0
6264 -5999 -185 0
-6265 6248 6249 0
-6265 -6248 -6249 0
6265 -6248 6249 0
6265 6248 -6249 0
-6266 6265 6250 0
-6266 -6265 -6250 0
6266 -6265 6250 0
6266 6265 -6250 0
-6267 6266 6251 0
-6267 -6266 -6251 0
6267 -6266 6251 0
6267 6266 -6251 0
-6268 6267 6252 0
-6268 -6267 -6252 0
6268 -6267 6252 0
6268 6267 -6252 0
-6269 6268 6253 0
-6269 -6268 -6253 0
6269 -6268 6253 0
6269 6268 -6253 0
-6270 6269 6254 0
-6270 -6269 -6254 0
6270 -6269 6254 0
6270 6269 -6254 0
-6271 6270 6255 0
-6271 -6270 -6255 0
6271 -6270 6255 0
6271 6270 -6255 0
-6272 6271 6256 0
-6272 -6271 -6256 0
6272 -6271 6256 0
6272 6271 -6256 0
-6273 6272 6257 0
-6273 -6272 -6257 0
6273 -6272 6257 0
6273 6272 -6257 0
-6274 6273 6258 0
-6274 -6273 -6258 0
6274 -6273 6258 0
6274 6273 -6258 0
-6275 6274 6259 0
-6275 -6274 -6259 0
6275 -6274 6259 0
6275 6274 -6259 0
-6276 6275 6260 0
-6276 -6275 -6260 0
6276 -6275 6260 0
6276 6275 -6260 0
-6277 6276 6261 0
-6277 -6276 -6261 0
6277 -6276 6261 0
6277 6276 -6261 0
-6278 6277 6262 0
-6278 -6277 -6262 0
6278 -6277 6262 0
6278 6277 -6262 0
-6279 6278 6263 0
-6279 -6278 -6263 0
6279 -6278 6263 0
6279 6278 -6263 0
-6280 6279 6264 0
-6280 -6279 -6264 0
6280 -6279 6264 0
6280 6279 -6264 0
6280 0
-6281 5967 0
-6281 42 0
6281 -5967 -42 0
-6282 5969 0
-6282 44 0
6282 -5969 -44 0
-6283 5971 0
-6283 46 0
6283 -5971 -46 0
-6284 5973 0
-6284 40 0
6284 -5973 -40 0
-6285 5975 0
-6285 47 0
6285 -5975 -47 0
-6286 5977 0
-6286 39 0
6286 -5977 -39 0
-6287 5979 0
-6287 39 0
6287 -5979 -39 0
-6288 5981 0
-6288 47 0
6288 -5981 -47 0
-6289 5983 0
-6289 40 0
6289 -5983 -40 0
-6290 5985 0
-6290 46 0
6290 -5985 -46 0
-6291 5987 0
-6291 44 0
6291 -5987 -44 0
-6292 5989 0
-6292 42 0
6292 -5989 -42 0
-6293 5991 0
-6293 90 0
6293 -5991 -90 0
-6294 5993 0
-6294 87 0
6294 -5993 -87 0
-6295 5995 0
-6295 138 0
6295 -5995 -138 0
-6296 5997 0
-6296 135 0
6296 -5997 -135 0
-6297 5999 0
-6297 186 0
6297 -5999 -186 0
-6298 6281 6282 0
-6298 -6281 -6282 0
6298 -6281 6282 0
6298 6281 -6282 0
-6299 6298 6283 0
-6299 -6298 -6283 0
6299 -6298 6283 0
6299 6298 -6283 0
-6300 6299 6284 0
-6300 -6299 -6284 0
6300 -6299 6284 0
6300 6299 -6284 0
-6301 6300 6285 0
-6301 -6300 -6285 0
6301 -6300 6285 0
6301 6300 -6285 0
-6302 6301 6286 0
-6302 -6301 -6286 0
6302 -6301 6286 0
6302 6301 -6286 0
-6303 6302 6287 0
-6303 -6302 -6287 0
6303 -6302 6287 0
6303 6302 -6287 0
-6304 6303 6288 0
-6304 -6303 -6288 0
6304 -6303 6288 0
6304 6303 -6288 0
-6305 6304 6289 0
-6305 -6304 -6289 0
6305 -6304 6289 0
6305 6304 -6289 0
-6306 6305 6290 0
-6306 -6305 -6290 0
6306 -6305 6290 0
6306 6305 -6290 0
-6307 6306 6291 0
-6307 -6306 -6291 0
6307 -6306 6291 0
6307 6306 -6291 0
-6308 6307 6292 0
-6308 -6307 -6292 0
6308 -6307 6292 0
6308 6307 -6292 0
-6309 6308 6293 0
-6309 -6308 -6293 0
6309 -6308 6293 0
6309 6308 -6293 0
-6310 6309 6294 0
-6310 -6309 -6294 0
6310 -6309 6294 0
6310 6309 -6294 0
-6311 6310 6295 0
-6311 -6310 -6295 0
6311 -6310 6295 0
6311 6310 -6295 0
-6312 6311 6296 0
-6312 -6311 -6296 0
6312 -6311 6296 0
6312 6311 -6296 0
-6313 6312 6297 0
-6313 -6312 -6297 0
6313 -6312 6297 0
6313 6312 -6297 0
6313 0
-6314 5967 0
-6314 43 0
6314 -5967 -43 0
-6315 5969 0
-6315 43 0
6315 -5969 -43 0
-6316 5971 0
-6316 48 0
6316 -5971 -48 0
-6317 5973 0
-6317 38 0
6317 -5973 -38 0
-6318 5975 0
-6318 48 0
6318 -5975 -48 0
-6319 5977 0
-6319 38 0
6319 -5977 -38 0
-6320 5979 0
-6320 43 0
6320 -5979 -43 0
-6321 5981 0
-6321 43 0
6321 -5981 -43 0
-6322 5983 0
-6322 48 0
6322 -5983 -48 0
-6323 5985 0
-6323 38 0
6323 -5985 -38 0
-6324 5987 0
-6324 48 0
6324 -5987 -48 0
-6325 5989 0
-6325 38 0
6325 -5989 -38 0
-6326 5991 0
-6326 91 0
6326 -5991 -91 0
-6327 5993 0
-6327 91 0
6327 -5993 -91 0
-6328 5995 0
-6328 139 0
6328 -5995 -139 0
-6329 5997 0
-6329 139 0
6329 -5997 -139 0
-6330 5999 0
-6330 187 0
6330 -5999 -187 0
-6331 6314 6315 0
-6331 -6314 -6315 0
6331 -6314 6315 0
6331 6314 -6315 0
-6332 6331 6316 0
-6332 -6331 -6316 0
6332 -6331 6316 0
6332 6331 -6316 0
-6333 6332 6317 0
-6333 -6332 -6317 0
6333 -6332 6317 0
6333 6332 -6317 0
-6334 6333 6318 0
-6334 -6333 -6318 0
6334 -6333 6318 0
6334 6333 -6318 0
-6335 6334 6319 0
-6335 -6334 -6319 0
6335 -6334 6319 0
6335 6334 -6319 0
-6336 6335 6320 0
-6336 -6335 -6320 0
6336 -6335 6320 0
6336 6335 -6320 0
-6337 6336 6321 0
-6337 -6336 -6321 0
6337 -6336 6321 0
6337 6336 -6321 0
-6338 6337 6322 0
-6338 -6337 -6322 0
6338 -6337 6322 0
6338 6337 -6322 0
-6339 6338 6323 0
-6339 -6338 -6323 0
6339 -6338 6323 0
6339 6338 -6323 0
-6340 6339 6324 0
-6340 -6339 -6324 0
6340 -6339 6324 0
6340 6339 -6324 0
-6341 6340 6325 0
-6341 -6340 -6325 0
6341 -6340 6325 0
6341 6340 -6325 0
-6342 6341 6326 0
-6342 -6341 -6326 0
6342 -6341 6326 0
6342 6341 -6326 0
-6343 6342 6327 0
-6343 -6342 -6327 0
6343 -6342 6327 0
6343 6342 -6327 0
-6344 6343 6328 0
-6344 -6343 -6328 0
6344 -6343 6328 0
6344 6343 -6328 0
-6345 6344 6329 0
-6345 -6344 -6329 0
6345 -6344 6329 0
6345 6344 -6329 0
-6346 6345 6330 0
-6346 -6345 -6330 0
6346 -6345 6330 0
6346 6345 -6330 0
6346 0
-6347 5967 0
-6347 44 0
6347 -5967 -44 0
-6348 5969 0
-6348 42 0
6348 -5969 -42 0
-6349 5971 0
-6349 47 0
6349 -5971 -47 0
-6350 5973 0
-6350 39 0
6350 -5973 -39 0
-6351 5975 0
-6351 46 0
6351 -5975 -46 0
-6352 5977 0
-6352 40 0
6352 -5977 -40 0
-6353 5979 0
-6353 47 0
6353 -5979 -47 0
-6354 5981 0
-6354 39 0
6354 -5981 -39 0
-6355 5983 0
-6355 44 0
6355 -5983 -44 0
-6356 5985 0
-6356 42 0
6356 -5985 -42 0
-6357 5987 0
-6357 40 0
6357 -5987 -40 0
-6358 5989 0
-6358 46 0
6358 -5989 -46 0
-6359 5991 0
-6359 92 0
6359 -5991 -92 0
-6360 5993 0
-6360 95 0
6360 -5993 -95 0
-6361 5995 0
-6361 140 0
6361 -5995 -140 0
-6362 5997 0
-6362 143 0
6362 -5997 -143 0
-6363 5999 0
-6363 188 0
6363 -5999 -188 0
-6364 6347 6348 0
-6364 -6347 -6348 0
6364 -6347 6348 0
6364 6347 -6348 0
-6365 6364 6349 0
-6365 -6364 -6349 0
6365 -6364 6349 0
6365 6364 -6349 0
-6366 6365 6350 0
-6366 -6365 -6350 0
6366 -6365 6350 0
6366 6365 -6350 0
-6367 6366 6351 0
-6367 -6366 -6351 0
6367 -6366 6351 0
6367 6366 -6351 0
-6368 6367 6352 0
-6368 -6367 -6352 0
6368 -6367 6352 0
6368 6367 -6352 0
-6369 6368 6353 0
-6369 -6368 -6353 0
6369 -6368 6353 0
6369 6368 -6353 0
-6370 6369 6354 0
-6370 -6369 -6354 0
6370 -6369 6354 0
6370 6369 -6354 0
-6371 6370 6355 0
-6371 -6370 -6355 0
6371 -6370 6355 0
6371 6370 -6355 0
-6372 6371 6356 0
-6372 -6371 -6356 0
6372 -6371 6356 0
6372 6371 -6356 0
-6373 6372 6357 0
-6373 -6372 -6357 0
6373 -6372 6357 0
6373 6372 -6357 0
-6374 6373 6358 0
-6374 -6373 -6358 0
6374 -6373 6358 0
6374 6373 -6358 0
-6375 6374 6359 0
-6375 -6374 -6359 0
6375 -6374 6359 0
6375 6374 -6359 0
-6376 6375 6360 0
-6376 -6375 -6360 0
6376 -6375 6360 0
6376 6375 -6360 0
-6377 6376 6361 0
-6377 -6376 -6361 0
6377 -6376 6361 0
6377 6376 -6361 0
-6378 6377 6362 0
-6378 -6377 -6362 0
6378 -6377 6362 0
6378 6377 -6362 0
-6379 6378 6363 0
-6379 -6378 -6363 0
6379 -6378 6363 0
6379 6378 -6363 0
-6379 0
-6380 5967 0
-6380 45 0
6380 -5967 -45 0
-6381 5969 0
-6381 37 0
6381 -5969 -37 0
-6382 5971 0
-6382 41 0
6382 -5971 -41 0
-6383 5973 0
-6383 41 0
6383 -5973 -41 0
-6384 5975 0
-6384 37 0
6384 -5975 -37 0
-6385 5977 0
-6385 45 0
6385 -5977 -45 0
-6386 5979 0
-6386 36 0
6386 -5979 -36 0
-6387 5981 0
-6387 34 0
6387 -5981 -34 0
-6388 5983 0
-6388 35 0
6388 -5983 -35 0
-6389 5985 0
-6389 35 0
6389 -5985 -35 0
-6390 5987 0
-6390 34 0
6390 -5987 -34 0
-6391 5989 0
-6391 36 0
6391 -5989 -36 0
-6392 5991 0
-6392 93 0
6392 -5991 -93 0
-6393 5993 0
-6393 84 0
6393 -5993 -84 0
-6394 5995 0
-6394 141 0
6394 -5995 -141 0
-6395 5997 0
-6395 132 0
6395 -5997 -132 0
-6396 5999 0
-6396 189 0
6396 -5999 -189 0
-6397 6380 6381 0
-6397 -6380 -6381 0
6397 -6380 6381 0
6397 6380 -6381 0
-6398 6397 6382 0
-6398 -6397 -6382 0
6398 -6397 6382 0
6398 6397 -6382 0
-6399 6398 6383 0
-6399 -6398 -6383 0
6399 -6398 6383 0
6399 6398 -6383 0
-6400 6399 6384 0
-6400 -6399 -6384 0
6400 -6399 6384 0
6400 6399 -6384 0
-6401 6400 6385 0
-6401 -6400 -6385 0
6401 -6400 6385 0
6401 6400 -6385 0
-6402 6401 6386 0
-6402 -6401 -6386 0
6402 -6401 6386 0
6402 6401 -6386 0
-6403 6402 6387 0
-6403 -6402 -6387 0
6403 -6402 6387 0
6403 6402 -6387 0
-6404 6403 6388 0
-6404 -6403 -6388 0
6404 -6403 6388 0
6404 6403 -6388 0
-6405 6404 6389 0
-6405 -6404 -6389 0
6405 -6404 6389 0
6405 6404 -6389 0
-6406 6405 6390 0
-6406 -6405 -6390 0
6406 -6405 6390 0
6406 6405 -6390 0
-6407 6406 6391 0
-6407 -6406 -6391 0
6407 -6406 6391 0
6407 6406 -6391 0
-6408 6407 6392 0
-6408 -6407 -6392 0
6408 -6407 6392 0
6408 6407 -6392 0
-6409 6408 6393 0
-6409 -6408 -6393 0
6409 -6408 6393 0
6409 6408 -6393 0
-6410 6409 6394 0
-6410 -6409 -6394 0
6410 -6409 6394 0
6410 6409 -6394 0
-6411 6410 6395 0
-6411 -6410 -6395 0
6411 -6410 6395 0
6411 6410 -6395 0
-6412 6411 6396 0
-6412 -6411 -6396 0
6412 -6411 6396 0
6412 6411 -6396 0
-6412 0
-6413 5967 0
-6413 46 0
6413 -5967 -46 0
-6414 5969 0
-6414 40 0
6414 -5969 -40 0
-6415 5971 0
-6415 42 0
6415 -5971 -42 0
-6416 5973 0
-6416 44 0
6416 -5973 -44 0
-6417 5975 0
-6417 39 0
6417 -5975 -39 0
-6418 5977 0
-6418 47 0
6418 -5977 -47 0
-6419 5979 0
-6419 40 0
6419 -5979 -40 0
-6420 5981 0
-6420 46 0
6420 -5981 -46 0
-6421 5983 0
-6421 39 0
6421 -5983 -39 0
-6422 5985 0
-6422 47 0
6422 -5985 -47 0
-6423 5987 0
-6423 42 0
6423 -5987 -42 0
-6424 5989 0
-6424 44 0
6424 -5989 -44 0
-6425 5991 0
-6425 94 0
6425 -5991 -94 0
-6426 5993 0
-6426 88 0
6426 -5993 -88 0
-6427 5995 0
-6427 142 0
6427 -5995 -142 0
-6428 5997 0
-6428 136 0
6428 -5997 -136 0
-6429 5999 0
-6429 190 0
6429 -5999 -190 0
-6430 6413 6414 0
-6430 -6413 -6414 0
6430 -6413 6414 0
6430 6413 -6414 0
-6431 6430 6415 0
-6431 -6430 -6415 0
6431 -6430 6415 0
6431 6430 -6415 0
-6432 6431 6416 0
-6432 -6431 -6416 0
6432 -6431 6416 0
6432 6431 -6416 0
-6433 6432 6417 0
-6433 -6432 -6417 0
6433 -6432 6417 0
6433 6432 -6417 0
-6434 6433 6418 0
-6434 -6433 -6418 0
6434 -6433 6418 0
6434 6433 -6418 0
-6435 6434 6419 0
-6435 -6434 -6419 0
6435 -6434 6419 0
6435 6434 -6419 0
-6436 6435 6420 0
-6436 -6435 -6420 0
6436 -6435 6420 0
6436 6435 -6420 0
-6437 6436 6421 0
-6437 -6436 -6421 0
6437 -6436 6421 0
6437 6436 -6421 0
-6438 6437 6422 0
-6438 -6437 -6422 0
6438 -6437 6422 0
6438 6437 -6422 0
-6439 6438 6423 0
-6439 -6438 -6423 0
6439 -6438 6423 0
6439 6438 -6423 0
-6440 6439 6424 0
-6440 -6439 -6424 0
6440 -6439 6424 0
6440 6439 -6424 0
-6441 6440 6425 0
-6441 -6440 -6425 0
6441 -6440 6425 0
6441 6440 -6425 0
-6442 6441 6426 0
-6442 -6441 -6426 0
6442 -6441 6426 0
6442 6441 -6426 0
-6443 6442 6427 0
-6443 -6442 -6427 0
6443 -6442 6427 0
6443 6442 -6427 0
-6444 6443 6428 0
-6444 -6443 -6428 0
6444 -6443 6428 0
6444 6443 -6428 0
-6445 6444 6429 0
-6445 -6444 -6429 0
6445 -6444 6429 0
6445 6444 -6429 0
-6445 0
-6446 5967 0
-6446 47 0
6446 -5967 -47 0
-6447 5969 0
-6447 39 0
6447 -5969 -39 0
-6448 5971 0
-6448 44 0
6448 -5971 -44 0
-6449 5973 0
-6449 42 0
6449 -5973 -42 0
-6450 5975 0
-6450 40 0
6450 -5975 -40 0
-6451 5977 0
-6451 46 0
6451 -5977 -46 0
-6452 5979 0
-6452 44 0
6452 -5979 -44 0
-6453 5981 0
-6453 42 0
6453 -5981 -42 0
-6454 5983 0
-6454 47 0
6454 -5983 -47 0
-6455 5985 0
-6455 39 0
6455 -5985 -39 0
-6456 5987 0
-6456 46 0
6456 -5987 -46 0
-6457 5989 0
-6457 40 0
6457 -5989 -40 0
-6458 5991 0
-6458 95 0
6458 -5991 -95 0
-6459 5993 0
-6459 92 0
6459 -5993 -92 0
-6460 5995 0
-6460 143 0
6460 -5995 -143 0
-6461 5997 0
-6461 140 0
6461 -5997 -140 0
-6462 5999 0
-6462 191 0
6462 -5999 -191 0
-6463 6446 6447 0
-6463 -6446 -6447 0
6463 -6446 6447 0
6463 6446 -6447 0
-6464 6463 6448 0
-6464 -6463 -6448 0
6464 -6463 6448 0
6464 6463 -6448 0
-6465 6464 6449 0
-6465 -6464 -6449 0
6465 -6464 6449 0
6465 6464 -6449 0
-6466 6465 6450 0
-6466 -6465 -6450 0
6466 -6465 6450 0
6466 6465 -6450 0
-6467 6466 6451 0
-6467 -6466 -6451 0
6467 -6466 6451 0
6467 6466 -6451 0
-6468 6467 6452 0
-6468 -6467 -6452 0
6468 -6467 6452 0
6468 6467 -6452 0
-6469 6468 6453 0
-6469 -6468 -6453 0
6469 -6468 6453 0
6469 6468 -6453 0
-6470 6469 6454 0
-6470 -6469 -6454 0
6470 -6469 6454 0
6470 6469 -6454 0
-6471 6470 6455 0
-6471 -6470 -6455 0
6471 -6470 6455 0
6471 6470 -6455 0
-6472 6471 6456 0
-6472 -6471 -6456 0
6472 -6471 6456 0
6472 6471 -6456 0
-6473 6472 6457 0
-6473 -6472 -6457 0
6473 -6472 6457 0
6473 6472 -6457 0
-6474 6473 6458 0
-6474 -6473 -6458 0
6474 -6473 6458 0
6474 6473 -6458 0
-6475 6474 6459 0
-6475 -6474 -6459 0
6475 -6474 6459 0
6475 6474 -6459 0
-6476 6475 6460 0
-6476 -6475 -6460 0
6476 -6475 6460 0
6476 6475 -6460 0
-6477 6476 6461 0
-6477 -6476 -6461 0
6477 -6476 6461 0
6477 6476 -6461 0
-6478 6477 6462 0
-6478 -6477 -6462 0
6478 -6477 6462 0
6478 6477 -6462 0
-6478 0
-6479 5967 0
-6479 48 0
6479 -5967 -48 0
-6480 5969 0
-6480 38 0
6480 -5969 -38 0
-6481 5971 0
-6481 43 0
6481 -5971 -43 0
-6482 5973 0
-6482 43 0
6482 -5973 -43 0
-6483 5975 0
-6483 38 0
6483 -5975 -38 0
-6484 5977 0
-6484 48 0
6484 -5977 -48 0
-6485 5979 0
-6485 48 0
6485 -5979 -48 0
-6486 5981 0
-6486 38 0
6486 -5981 -38 0
-6487 5983 0
-6487 43 0
6487 -5983 -43 0
-6488 5985 0
-6488 43 0
6488 -5985 -43 0
-6489 5987 0
-6489 38 0
6489 -5987 -38 0
-6490 5989 0
-6490 48 0
6490 -5989 -48 0
-6491 5991 0
-6491 96 0
6491 -5991 -96 0
-6492 5993 0
-6492 96 0
6492 -5993 -96 0
-6493 5995 0
-6493 144 0
6493 -5995 -144 0
-6494 5997 0
-6494 144 0
6494 -5997 -144 0
-6495 5999 0
-6495 192 0
6495 -5999 -192 0
-6496 6479 6480 0
-6496 -6479 -6480 0
6496 -6479 6480 0
6496 6479 -6480 0
-6497 6496 6481 0
-6497 -6496 -6481 0
6497 -6496 6481 0
6497 6496 -6481 0
-6498 6497 6482 0
-6498 -6497 -6482 0
6498 -6497 6482 0
6498 6497 -6482 0
-6499 6498 6483 0
-6499 -6498 -6483 0
6499 -6498 6483 0
6499 6498 -6483 0
-6500 6499 6484 0
-6500 -6499 -6484 0
6500 -6499 6484 0
6500 6499 -6484 0
-6501 6500 6485 0
-6501 -6500 -6485 0
6501 -6500 6485 0
6501 6500 -6485 0
-6502 6501 6486 0
-6502 -6501 -6486 0
6502 -6501 6486 0
6502 6501 -6486 0
-6503 6502 6487 0
-6503 -6502 -6487 0
6503 -6502 6487 0
6503 6502 -6487 0
-6504 6503 6488 0
-6504 -6503 -6488 0
6504 -6503 6488 0
6504 6503 -6488 0
-6505 6504 6489 0
-6505 -6504 -6489 0
6505 -6504 6489 0
6505 6504 -6489 0
-6506 6505 6490 0
-6506 -6505 -6490 0
6506 -6505 6490 0
6506 6505 -6490 0
-6507 6506 6491 0
-6507 -6506 -6491 0
6507 -6506 6491 0
6507 6506 -6491 0
-6508 6507 6492 0
-6508 -6507 -6492 0
6508 -6507 6492 0
6508 6507 -6492 0
-6509 6508 6493 0
-6509 -6508 -6493 0
6509 -6508 6493 0
6509 6508 -6493 0
-6510 6509 6494 0
-6510 -6509 -6494 0
6510 -6509 6494 0
6510 6509 -6494 0
-6511 6510 6495 0
-6511 -6510 -6495 0
6511 -6510 6495 0
6511 6510 -6495 0
-6511 0
-6512 5 0
-6512 20 0
6512 -5 -20 0
-6513 6512 0
-6513 33 0
6513 -6512 -33 0
-6514 13 0
-6514 18 0
6514 -13 -18 0
-6515 6514 0
-6515 33 0
6515 -6514 -33 0
-6516 6 0
-6516 23 0
6516 -6 -23 0
-6517 6516 0
-6517 33 0
6517 -6516 -33 0
-6518 15 0
-6518 27 0
6518 -15 -27 0
-6519 6518 0
-6519 33 0
6519 -6518 -33 0
-6520 10 0
-6520 22 0
6520 -10 -22 0
-6521 6520 0
-6521 33 0
6521 -6520 -33 0
-6522 11 0
-6522 28 0
6522 -11 -28 0
-6523 6522 0
-6523 33 0
6523 -6522 -33 0
-6524 53 0
-6524 68 0
6524 -53 -68 0
-6525 6524 0
-6525 81 0
6525 -6524 -81 0
-6526 66 0
-6526 61 0
6526 -66 -61 0
-6527 6526 0
-6527 81 0
6527 -6526 -81 0
-6528 101 0
-6528 116 0
6528 -101 -116 0
-6529 6528 0
-6529 129 0
6529 -6528 -129 0
-6530 114 0
-6530 109 0
6530 -114 -109 0
-6531 6530 0
-6531 129 0
6531 -6530 -129 0
-6532 149 0
-6532 164 0
6532 -149 -164 0
-6533 6532 0
-6533 177 0
6533 -6532 -177 0
-6534 6513 6515 0
-6534 -6513 -6515 0
6534 -6513 6515 0
6534 6513 -6515 0
-6535 6534 6517 0
-6535 -6534 -6517 0
6535 -6534 6517 0
6535 6534 -6517 0
-6536 6535 6519 0
-6536 -6535 -6519 0
6536 -6535 6519 0
6536 6535 -6519 0
-6537 6536 6521 0
-6537 -6536 -6521 0
6537 -6536 6521 0
6537 6536 -6521 0
-6538 6537 6523 0
-6538 -6537 -6523 0
6538 -6537 6523 0
6538 6537 -6523 0
-6539 6538 6515 0
-6539 -6538 -6515 0
6539 -6538 6515 0
6539 6538 -6515 0
-6540 6539 6513 0
-6540 -6539 -6513 0
6540 -6539 6513 0
6540 6539 -6513 0
-6541 6540 6521 0
-6541 -6540 -6521 0
6541 -6540 6521 0
6541 6540 -6521 0
-6542 6541 6523 0
-6542 -6541 -6523 0
6542 -6541 6523 0
6542 6541 -6523 0
-6543 6542 6517 0
-6543 -6542 -6517 0
6543 -6542 6517 0
6543 6542 -6517 0
-6544 6543 6519 0
-6544 -6543 -6519 0
6544 -6543 6519 0
6544 6543 -6519 0
-6545 6544 6525 0
-6545 -6544 -6525 0
6545 -6544 6525 0
6545 6544 -6525 0
-6546 6545 6527 0
-6546 -6545 -6527 0
6546 -6545 6527 0
6546 6545 -6527 0
-6547 6546 6529 0
-6547 -6546 -6529 0
6547 -6546 6529 0
6547 6546 -6529 0
-6548 6547 6531 0
-6548 -6547 -6531 0
6548 -6547 6531 0
6548 6547 -6531 0
-6549 6548 6533 0
-6549 -6548 -6533 0
6549 -6548 6533 0
6549 6548 -6533 0
-6549 0
-6550 6512 0
-6550 34 0
6550 -6512 -34 0
-6551 6514 0
-6551 36 0
6551 -6514 -36 0
-6552 6516 0
-6552 34 0
6552 -6516 -34 0
-6553 6518 0
-6553 36 0
6553 -6518 -36 0
-6554 6520 0
-6554 35 0
6554 -6520 -35 0
-6555 6522 0
-6555 35 0
6555 -6522 -35 0
-6556 6514 0
-6556 37 0
6556 -6514 -37 0
-6557 6512 0
-6557 45 0
6557 -6512 -45 0
-6558 6520 0
-6558 37 0
6558 -6520 -37 0
-6559 6522 0
-6559 45 0
6559 -6522 -45 0
-6560 6516 0
-6560 41 0
6560 -6516 -41 0
-6561 6518 0
-6561 41 0
6561 -6518 -41 0
-6562 6524 0
-6562 82 0
6562 -6524 -82 0
-6563 6526 0
-6563 85 0
6563 -6526 -85 0
-6564 6528 0
-6564 130 0
6564 -6528 -130 0
-6565 6530 0
-6565 133 0
6565 -6530 -133 0
-6566 6532 0
-6566 178 0
6566 -6532 -178 0
-6567 6550 6551 0
-6567 -6550 -6551 0
6567 -6550 6551 0
6567 6550 -6551 0
-6568 6567 6552 0
-6568 -6567 -6552 0
6568 -6567 6552 0
6568 6567 -6552 0
-6569 6568 6553 0
-6569 -6568 -6553 0
6569 -6568 6553 0
6569 6568 -6553 0
-6570 6569 6554 0
-6570 -6569 -6554 0
6570 -6569 6554 0
6570 6569 -6554 0
-6571 6570 6555 0
-6571 -6570 -6555 0
6571 -6570 6555 0
6571 6570 -6555 0
-6572 6571 6556 0
-6572 -6571 -6556 0
6572 -6571 6556 0
6572 6571 -6556 0
-6573 6572 6557 0
-6573 -6572 -6557 0
6573 -6572 6557 0
6573 6572 -6557 0
-6574 6573 6558 0
-6574 -6573 -6558 0
6574 -6573 6558 0
6574 6573 -6558 0
-6575 6574 6559 0
-6575 -6574 -6559 0
6575 -6574 6559 0
6575 6574 -6559 0
-6576 6575 6560 0
-6576 -6575 -6560 0
6576 -6575 6560 0
6576 6575 -6560 0
-6577 6576 6561 0
-6577 -6576 -6561 0
6577 -6576 6561 0
6577 6576 -6561 0
-6578 6577 6562 0
-6578 -6577 -6562 0
6578 -6577 6562 0
6578 6577 -6562 0
-6579 6578 6563 0
-6579 -6578 -6563 0
6579 -6578 6563 0
6579 6578 -6563 0
-6580 6579 6564 0
-6580 -6579 -6564 0
6580 -6579 6564 0
6580 6579 -6564 0
-6581 6580 6565 0
-6581 -6580 -6565 0
6581 -6580 6565 0
6581 6580 -6565 0
-6582 6581 6566 0
-6582 -6581 -6566 0
6582 -6581 6566 0
6582 6581 -6566 0
6582 0
-6583 6512 0
-6583 35 0
6583 -6512 -35 0
-6584 6514 0
-6584 35 0
6584 -6514 -35 0
-6585 6516 0
-6585 36 0
6585 -6516 -36 0
-6586 6518 0
-6586 34 0
6586 -6518 -34 0
-6587 6520 0
-6587 36 0
6587 -6520 -36 0
-6588 6522 0
-6588 34 0
6588 -6522 -34 0
-6589 6514 0
-6589 41 0
6589 -6514 -41 0
-6590 6512 0
-6590 41 0
6590 -6512 -41 0
-6591 6520 0
-6591 45 0
6591 -6520 -45 0
-6592 6522 0
-6592 37 0
6592 -6522 -37 0
-6593 6516 0
-6593 45 0
6593 -6516 -45 0
-6594 6518 0
-6594 37 0
6594 -6518 -37 0
-6595 6524 0
-6595 83 0
6595 -6524 -83 0
-6596 6526 0
-6596 89 0
6596 -6526 -89 0
-6597 6528 0
-6597 131 0
6597 -6528 -131 0
-6598 6530 0
-6598 137 0
6598 -6530 -137 0
-6599 6532 0
-6599 179 0
6599 -6532 -179 0
-6600 6583 6584 0
-6600 -6583 -6584 0
6600 -6583 6584 0
6600 6583 -6584 0
-6601 6600 6585 0
-6601 -6600 -6585 0
6601 -6600 6585 0
6601 6600 -6585 0
-6602 6601 6586 0
-6602 -6601 -6586 0
6602 -6601 6586 0
6602 6601 -6586 0
-6603 6602 6587 0
-6603 -6602 -6587 0
6603 -6602 6587 0
6603 6602 -6587 0
-6604 6603 6588 0
-6604 -6603 -6588 0
6604 -6603 6588 0
6604 6603 -6588 0
-6605 6604 6589 0
-6605 -6604 -6589 0
6605 -6604 6589 0
6605 6604 -6589 0
-6606 6605 6590 0
-6606 -6605 -6590 0
6606 -6605 6590 0
6606 6605 -6590 0
-6607 6606 6591 0
-6607 -6606 -6591 0
6607 -6606 6591 0
6607 6606 -6591 0
-6608 6607 6592 0
-6608 -6607 -6592 0
6608 -6607 6592 0
6608 6607 -6592 0
-6609 6608 6593 0
-6609 -6608 -6593 0
6609 -6608 6593 0
6609 6608 -6593 0
-6610 6609 6594 0
-6610 -6609 -6594 0
6610 -6609 6594 0
6610 6609 -6594 0
-6611 6610 6595 0
-6611 -6610 -6595 0
6611 -6610 6595 0
6611 6610 -6595 0
-6612 6611 6596 0
-6612 -6611 -6596 0
6612 -6611 6596 0
6612 6611 -6596 0
-6613 6612 6597 0
-6613 -6612 -6597 0
6613 -6612 6597 0
6613 6612 -6597 0
-6614 6613 6598 0
-6614 -6613 -6598 0
6614 -6613 6598 0
6614 6613 -6598 0
-6615 6614 6599 0
-6615 -6614 -6599 0
6615 -6614 6599 0
6615 6614 -6599 0
-6615 0
-6616 6512 0
-6616 36 0
6616 -6512 -36 0
-6617 6514 0
-6617 34 0
6617 -6514 -34 0
-6618 6516 0
-6618 35 0
6618 -6516 -35 0
-6619 6518 0
-6619 35 0
6619 -6518 -35 0
-6620 6520 0
-6620 34 0
6620 -6520 -34 0
-6621 6522 0
-6621 36 0
6621 -6522 -36 0
-6622 6514 0
-6622 45 0
6622 -6514 -45 0
-6623 6512 0
-6623 37 0
6623 -6512 -37 0
-6624 6520 0
-6624 41 0
6624 -6520 -41 0
-6625 6522 0
-6625 41 0
6625 -6522 -41 0
-6626 6516 0
-6626 37 0
6626 -6516 -37 0
-6627 6518 0
-6627 45 0
6627 -6518 -45 0
-6628 6524 0
-6628 84 0
6628 -6524 -84 0
-6629 6526 0
-6629 93 0
6629 -6526 -93 0
-6630 6528 0
-6630 132 0
6630 -6528 -132 0
-6631 6530 0
-6631 141 0
6631 -6530 -141 0
-6632 6532 0
-6632 180 0
6632 -6532 -180 0
-6633 6616 6617 0
-6633 -6616 -6617 0
6633 -6616 6617 0
6633 6616 -6617 0
-6634 6633 6618 0
-6634 -6633 -6618 0
6634 -6633 6618 0
6634 6633 -6618 0
-6635 6634 6619 0
-6635 -6634 -6619 0
6635 -6634 6619 0
6635 6634 -6619 0
-6636 6635 6620 0
-6636 -6635 -6620 0
6636 -6635 6620 0
6636 6635 -6620 0
-6637 6636 6621 0
-6637 -6636 -6621 0
6637 -6636 6621 0
6637 6636 -6621 0
-6638 6637 6622 0
-6638 -6637 -6622 0
6638 -6637 6622 0
6638 6637 -6622 0
-6639 6638 6623 0
-6639 -6638 -6623 0
6639 -6638 6623 0
6639 6638 -6623 0
-6640 6639 6624 0
-6640 -6639 -6624 0
6640 -6639 6624 0
6640 6639 -6624 0
-6641 6640 6625 0
-6641 -6640 -6625 0
6641 -6640 6625 0
6641 6640 -6625 0
-6642 6641 6626 0
-6642 -6641 -6626 0
6642 -6641 6626 0
6642 6641 -6626 0
-6643 6642 6627 0
-6643 -6642 -6627 0
6643 -6642 6627 0
6643 6642 -6627 0
-6644 6643 6628 0
-6644 -6643 -6628 0
6644 -6643 6628 0
6644 6643 -6628 0
-6645 6644 6629 0
-6645 -6644 -6629 0
6645 -6644 6629 0
6645 6644 -6629 0
-6646 6645 6630 0
-6646 -6645 -6630 0
6646 -6645 6630 0
6646 6645 -6630 0
-6647 6646 6631 0
-6647 -6646 -6631 0
6647 -6646 6631 0
6647 6646 -6631 0
-6648 6647 6632 0
-6648 -6647 -6632 0
6648 -6647 6632 0
6648 6647 -6632 0
-6648 0
-6649 6512 0
-6649 38 0
6649 -6512 -38 0
-6650 6514 0
-6650 48 0
6650 -6514 -48 0
-6651 6516 0
-6651 38 0
6651 -6516 -38 0
-6652 6518 0
-6652 48 0
6652 -6518 -48 0
-6653 6520 0
-6653 43 0
6653 -6520 -43 0
-6654 6522 0
-6654 43 0
6654 -6522 -43 0
-6655 6514 0
-6655 38 0
6655 -6514 -38 0
-6656 6512 0
-6656 48 0
6656 -6512 -48 0
-6657 6520 0
-6657 38 0
6657 -6520 -38 0
-6658 6522 0
-6658 48 0
6658 -6522 -48 0
-6659 6516 0
-6659 43 0
6659 -6516 -43 0
-6660 6518 0
-6660 43 0
6660 -6518 -43 0
-6661 6524 0
-6661 86 0
6661 -6524 -86 0
-6662 6526 0
-6662 86 0
6662 -6526 -86 0
-6663 6528 0
-6663 134 0
6663 -6528 -134 0
-6664 6530 0
-6664 134 0
6664 -6530 -134 0
-6665 6532 0
-6665 182 0
6665 -6532 -182 0
-6666 6649 6650 0
-6666 -6649 -6650 0
6666 -6649 6650 0
6666 6649 -6650 0
-6667 6666 6651 0
-6667 -6666 -6651 0
6667 -6666 6651 0
6667 6666 -6651 0
-6668 6667 6652 0
-6668 -6667 -6652 0
6668 -6667 6652 0
6668 6667 -6652 0
-6669 6668 6653 0
-6669 -6668 -6653 0
6669 -6668 6653 0
6669 6668 -6653 0
-6670 6669 6654 0
-6670 -6669 -6654 0
6670 -6669 6654 0
6670 6669 -6654 0
-6671 6670 6655 0
-6671 -6670 -6655 0
6671 -6670 6655 0
6671 6670 -6655 0
-6672 6671 6656 0
-6672 -6671 -6656 0
6672 -6671 6656 0
6672 6671 -6656 0
-6673 6672 6657 0
-6673 -6672 -6657 0
6673 -6672 6657 0
6673 6672 -6657 0
-6674 6673 6658 0
-6674 -6673 -6658 0
6674 -6673 6658 0
6674 6673 -6658 0
-6675 6674 6659 0
-6675 -6674 -6659 0
6675 -6674 6659 0
6675 6674 -6659 0
-6676 6675 6660 0
-6676 -6675 -6660 0
6676 -6675 6660 0
6676 6675 -6660 0
-6677 6676 6661 0
-6677 -6676 -6661 0
6677 -6676 6661 0
6677 6676 -6661 0
-6678 6677 6662 0
-6678 -6677 -6662 0
6678 -6677 6662 0
6678 6677 -6662 0
-6679 6678 6663 0
-6679 -6678 -6663 0
6679 -6678 6663 0
6679 6678 -6663 0
-6680 6679 6664 0
-6680 -6679 -6664 0
6680 -6679 6664 0
6680 6679 -6664 0
-6681 6680 6665 0
-6681 -6680 -6665 0
6681 -6680 6665 0
6681 6680 -6665 0
-6681 0
-6682 6512 0
-6682 39 0
6682 -6512 -39 0
-6683 6514 0
-6683 47 0
6683 -6514 -47 0
-6684 6516 0
-6684 40 0
6684 -6516 -40 0
-6685 6518 0
-6685 46 0
6685 -6518 -46 0
-6686 6520 0
-6686 44 0
6686 -6520 -44 0
-6687 6522 0
-6687 42 0
6687 -6522 -42 0
-6688 6514 0
-6688 42 0
6688 -6514 -42 0
-6689 6512 0
-6689 44 0
6689 -6512 -44 0
-6690 6520 0
-6690 46 0
6690 -6520 -46 0
-6691 6522 0
-6691 40 0
6691 -6522 -40 0
-6692 6516 0
-6692 47 0
6692 -6516 -47 0
-6693 6518 0
-6693 39 0
6693 -6518 -39 0
-6694 6524 0
-6694 87 0
6694 -6524 -87 0
-6695 6526 0
-6695 90 0
6695 -6526 -90 0
-6696 6528 0
-6696 135 0
6696 -6528 -135 0
-6697 6530 0
-6697 138 0
6697 -6530 -138 0
-6698 6532 0
-6698 183 0
6698 -6532 -183 0
-6699 6682 6683 0
-6699 -6682 -6683 0
6699 -6682 6683 0
6699 6682 -6683 0
-6700 6699 6684 0
-6700 -6699 -6684 0
6700 -6699 6684 0
6700 6699 -6684 0
-6701 6700 6685 0
-6701 -6700 -6685 0
6701 -6700 6685 0
6701 6700 -6685 0
-6702 6701 6686 0
-6702 -6701 -6686 0
6702 -6701 6686 0
6702 6701 -6686 0
-6703 6702 6687 0
-6703 -6702 -6687 0
6703 -6702 6687 0
6703 6702 -6687 0
-6704 6703 6688 0
-6704 -6703 -6688 0
6704 -6703 6688 0
6704 6703 -6688 0
-6705 6704 6689 0
-6705 -6704 -6689 0
6705 -6704 6689 0
6705 6704 -6689 0
-6706 6705 6690 0
-6706 -6705 -6690 0
6706 -6705 6690 0
6706 6705 -6690 0
-6707 6706 6691 0
-6707 -6706 -6691 0
6707 -6706 6691 0
6707 6706 -6691 0
-6708 6707 6692 0
-6708 -6707 -6692 0
6708 -6707 6692 0
6708 6707 -6692 0
-6709 6708 6693 0
-6709 -6708 -6693 0
6709 -6708 6693 0
6709 6708 -6693 0
-6710 6709 6694 0
-6710 -6709 -6694 0
6710 -6709 6694 0
6710 6709 -6694 0
-6711 6710 6695 0
-6711 -6710 -6695 0
6711 -6710 6695 0
6711 6710 -6695 0
-6712 6711 6696 0
-6712 -6711 -6696 0
6712 -6711 6696 0
6712 6711 -6696 0
-6713 6712 6697 0
-6713 -6712 -6697 0
6713 -6712 6697 0
6713 6712 -6697 0
-6714 6713 6698 0
-6714 -6713 -6698 0
6714 -6713 6698 0
6714 6713 -6698 0
-6714 0
-6715 6512 0
-6715 40 0
6715 -6512 -40 0
-6716 6514 0
-6716 46 0
6716 -6514 -46 0
-6717 6516 0
-6717 39 0
6717 -6516 -39 0
-6718 6518 0
-6718 47 0
6718 -6518 -47 0
-6719 6520 0
-6719 42 0
6719 -6520 -42 0
-6720 6522 0
-6720 44 0
6720 -6522 -44 0
-6721 6524 0
-6721 88 0
6721 -6524 -88 0
-6722 6526 0
-6722 94 0
6722 -6526 -94 0
-6723 6528 0
-6723 136 0
6723 -6528 -136 0
-6724 6530 0
-6724 142 0
6724 -6530 -142 0
-6725 6532 0
-6725 184 0
6725 -6532 -184 0
-6726 6715 6716 0
-6726 -6715 -6716 0
6726 -6715 6716 0
6726 6715 -6716 0
-6727 6726 6717 0
-6727 -6726 -6717 0
6727 -6726 6717 0
6727 6726 -6717 0
-6728 6727 6718 0
-6728 -6727 -6718 0
6728 -6727 6718 0
6728 6727 -6718 0
-6729 6728 6719 0
-6729 -6728 -6719 0
6729 -6728 6719 0
6729 6728 -6719 0
-6730 6729 6720 0
-6730 -6729 -6720 0
6730 -6729 6720 0
6730 6729 -6720 0
-6731 6730 6716 0
-6731 -6730 -6716 0
6731 -6730 6716 0
6731 6730 -6716 0
-6732 6731 6715 0
-6732 -6731 -6715 0
6732 -6731 6715 0
6732 6731 -6715 0
-6733 6732 6719 0
-6733 -6732 -6719 0
6733 -6732 6719 0
6733 6732 -6719 0
-6734 6733 6720 0
-6734 -6733 -6720 0
6734 -6733 6720 0
6734 6733 -6720 0
-6735 6734 6717 0
-6735 -6734 -6717 0
6735 -6734 6717 0
6735 6734 -6717 0
-6736 6735 6718 0
-6736 -6735 -6718 0
6736 -6735 6718 0
6736 6735 -6718 0
-6737 6736 6721 0
-6737 -6736 -6721 0
6737 -6736 6721 0
6737 6736 -6721 0
-6738 6737 6722 0
-6738 -6737 -6722 0
6738 -6737 6722 0
6738 6737 -6722 0
-6739 6738 6723 0
-6739 -6738 -6723 0
6739 -6738 6723 0
6739 6738 -6723 0
-6740 6739 6724 0
-6740 -6739 -6724 0
6740 -6739 6724 0
6740 6739 -6724 0
-6741 6740 6725 0
-6741 -6740 -6725 0
6741 -6740 6725 0
6741 6740 -6725 0
-6741 0
-6742 6512 0
-6742 42 0
6742 -6512 -42 0
-6743 6514 0
-6743 44 0
6743 -6514 -44 0
-6744 6516 0
-6744 46 0
6744 -6516 -46 0
-6745 6518 0
-6745 40 0
6745 -6518 -40 0
-6746 6520 0
-6746 47 0
6746 -6520 -47 0
-6747 6522 0
-6747 39 0
6747 -6522 -39 0
-6748 6514 0
-6748 39 0
6748 -6514 -39 0
-6749 6512 0
-6749 47 0
6749 -6512 -47 0
-6750 6520 0
-6750 40 0
6750 -6520 -40 0
-6751 6522 0
-6751 46 0
6751 -6522 -46 0
-6752 6516 0
-6752 44 0
6752 -6516 -44 0
-6753 6518 0
-6753 42 0
6753 -6518 -42 0
-6754 6524 0
-6754 90 0
6754 -6524 -90 0
-6755 6526 0
-6755 87 0
6755 -6526 -87 0
-6756 6528 0
-6756 138 0
6756 -6528 -138 0
-6757 6530 0
-6757 135 0
6757 -6530 -135 0
-6758 6532 0
-6758 186 0
6758 -6532 -186 0
-6759 6742 6743 0
-6759 -6742 -6743 0
6759 -6742 6743 0
6759 6742 -6743 0
-6760 6759 6744 0
-6760 -6759 -6744 0
6760 -6759 6744 0
6760 6759 -6744 0
-6761 6760 6745 0
-6761 -6760 -6745 0
6761 -6760 6745 0
6761 6760 -6745 0
-6762 6761 6746 0
-6762 -6761 -6746 0
6762 -6761 6746 0
6762 6761 -6746 0
-6763 6762 6747 0
-6763 -6762 -6747 0
6763 -6762 6747 0
6763 6762 -6747 0
-6764 6763 6748 0
-6764 -6763 -6748 0
6764 -6763 6748 0
6764 6763 -6748 0
-6765 6764 6749 0
-6765 -6764 -6749 0
6765 -6764 6749 0
6765 6764 -6749 0
-6766 6765 6750 0
-6766 -6765 -6750 0
6766 -6765 6750 0
6766 6765 -6750 0
-6767 6766 6751 0
-6767 -6766 -6751 0
6767 -6766 6751 0
6767 6766 -6751 0
-6768 6767 6752 0
-6768 -6767 -6752 0
6768 -6767 6752 0
6768 6767 -6752 0
-6769 6768 6753 0
-6769 -6768 -6753 0
6769 -6768 6753 0
6769 6768 -6753 0
-6770 6769 6754 0
-6770 -6769 -6754 0
6770 -6769 6754 0
6770 6769 -6754 0
-6771 6770 6755 0
-6771 -6770 -6755 0
6771 -6770 6755 0
6771 6770 -6755 0
-6772 6771 6756 0
-6772 -6771 -6756 0
6772 -6771 6756 0
6772 6771 -6756 0
-6773 6772 6757 0
-6773 -6772 -6757 0
6773 -6772 6757 0
6773 6772 -6757 0
-6774 6773 6758 0
-6774 -6773 -6758 0
6774 -6773 6758 0
6774 6773 -6758 0
6774 0
-6775 6512 0
-6775 43 0
6775 -6512 -43 0
-6776 6514 0
-6776 43 0
6776 -6514 -43 0
-6777 6516 0
-6777 48 0
6777 -6516 -48 0
-6778 6518 0
-6778 38 0
6778 -6518 -38 0
-6779 6520 0
-6779 48 0
6779 -6520 -48 0
-6780 6522 0
-6780 38 0
6780 -6522 -38 0
-6781 6524 0
-6781 91 0
6781 -6524 -91 0
-6782 6526 0
-6782 91 0
6782 -6526 -91 0
-6783 6528 0
-6783 139 0
6783 -6528 -139 0
-6784 6530 0
-6784 139 0
6784 -6530 -139 0
-6785 6532 0
-6785 187 0
6785 -6532 -187 0
-6786 6775 6776 0
-6786 -6775 -6776 0
6786 -6775 6776 0
6786 6775 -6776 0
-6787 6786 6777 0
-6787 -6786 -6777 0
6787 -6786 6777 0
6787 6786 -6777 0
-6788 6787 6778 0
-6788 -6787 -6778 0
6788 -6787 6778 0
6788 6787 -6778 0
-6789 6788 6779 0
-6789 -6788 -6779 0
6789 -6788 6779 0
6789 6788 -6779 0
-6790 6789 6780 0
-6790 -6789 -6780 0
6790 -6789 6780 0
6790 6789 -6780 0
-6791 6790 6776 0
-6791 -6790 -6776 0
6791 -6790 6776 0
6791 6790 -6776 0
-6792 6791 6775 0
-6792 -6791 -6775 0
6792 -6791 6775 0
6792 6791 -6775 0
-6793 6792 6779 0
-6793 -6792 -6779 0
6793 -6792 6779 0
6793 6792 -6779 0
-6794 6793 6780 0
-6794 -6793 -6780 0
6794 -6793 6780 0
6794 6793 -6780 0
-6795 6794 6777 0
-6795 -6794 -6777 0
6795 -6794 6777 0
6795 6794 -6777 0
-6796 6795 6778 0
-6796 -6795 -6778 0
6796 -6795 6778 0
6796 6795 -6778 0
-6797 6796 6781 0
-6797 -6796 -6781 0
6797 -6796 6781 0
6797 6796 -6781 0
-6798 6797 6782 0
-6798 -6797 -6782 0
6798 -6797 6782 0
6798 6797 -6782 0
-6799 6798 6783 0
-6799 -6798 -6783 0
6799 -6798 6783 0
6799 6798 -6783 0
-6800 6799 6784 0
-6800 -6799 -6784 0
6800 -6799 6784 0
6800 6799 -6784 0
-6801 6800 6785 0
-6801 -6800 -6785 0
6801 -6800 6785 0
6801 6800 -6785 0
-6801 0
-6802 6512 0
-6802 46 0
6802 -6512 -46 0
-6803 6514 0
-6803 40 0
6803 -6514 -40 0
-6804 6516 0
-6804 42 0
6804 -6516 -42 0
-6805 6518 0
-6805 44 0
6805 -6518 -44 0
-6806 6520 0
-6806 39 0
6806 -6520 -39 0
-6807 6522 0
-6807 47 0
6807 -6522 -47 0
-6808 6524 0
-6808 94 0
6808 -6524 -94 0
-6809 6526 0
-6809 88 0
6809 -6526 -88 0
-6810 6528 0
-6810 142 0
6810 -6528 -142 0
-6811 6530 0
-6811 136 0
6811 -6530 -136 0
-6812 6532 0
-6812 190 0
6812 -6532 -190 0
-6813 6802 6803 0
-6813 -6802 -6803 0
6813 -6802 6803 0
6813 6802 -6803 0
-6814 6813 6804 0
-6814 -6813 -6804 0
6814 -6813 6804 0
6814 6813 -6804 0
-6815 6814 6805 0
-6815 -6814 -6805 0
6815 -6814 6805 0
6815 6814 -6805 0
-6816 6815 6806 0
-6816 -6815 -6806 0
6816 -6815 6806 0
6816 6815 -6806 0
-6817 6816 6807 0
-6817 -6816 -6807 0
6817 -6816 6807 0
6817 6816 -6807 0
-6818 6817 6803 0
-6818 -6817 -6803 0
6818 -6817 6803 0
6818 6817 -6803 0
-6819 6818 6802 0
-6819 -6818 -6802 0
6819 -6818 6802 0
6819 6818 -6802 0
-6820 6819 6806 0
-6820 -6819 -6806 0
6820 -6819 6806 0
6820 6819 -6806 0
-6821 6820 6807 0
-6821 -6820 -6807 0
6821 -6820 6807 0
6821 6820 -6807 0
-6822 6821 6804 0
-6822 -6821 -6804 0
6822 -6821 6804 0
6822 6821 -6804 0
-6823 6822 6805 0
-6823 -6822 -6805 0
6823 -6822 6805 0
6823 6822 -6805 0
-6824 6823 6808 0
-6824 -6823 -6808 0
6824 -6823 6808 0
6824 6823 -6808 0
-6825 6824 6809 0
-6825 -6824 -6809 0
6825 -6824 6809 0
6825 6824 -6809 0
-6826 6825 6810 0
-6826 -6825 -6810 0
6826 -6825 6810 0
6826 6825 -6810 0
-6827 6826 6811 0
-6827 -6826 -6811 0
6827 -6826 6811 0
6827 6826 -6811 0
-6828 6827 6812 0
-6828 -6827 -6812 0
6828 -6827 6812 0
6828 6827 -6812 0
-6828 0
-6829 5 0
-6829 22 0
6829 -5 -22 0
-6830 6829 0
-6830 33 0
6830 -6829 -33 0
-6831 13 0
-6831 28 0
6831 -13 -28 0
-6832 6831 0
-6832 33 0
6832 -6831 -33 0
-6833 6 0
-6833 18 0
6833 -6 -18 0
-6834 6833 0
-6834 33 0
6834 -6833 -33 0
-6835 15 0
-6835 20 0
6835 -15 -20 0
-6836 6835 0
-6836 33 0
6836 -6835 -33 0
-6837 10 0
-6837 27 0
6837 -10 -27 0
-6838 6837 0
-6838 33 0
6838 -6837 -33 0
-6839 11 0
-6839 23 0
6839 -11 -23 0
-6840 6839 0
-6840 33 0
6840 -6839 -33 0
-6841 53 0
-6841 70 0
6841 -53 -70 0
-6842 6841 0
-6842 81 0
6842 -6841 -81 0
-6843 66 0
-6843 54 0
6843 -66 -54 0
-6844 6843 0
-6844 81 0
6844 -6843 -81 0
-6845 101 0
-6845 118 0
6845 -101 -118 0
-6846 6845 0
-6846 129 0
6846 -6845 -129 0
-6847 114 0
-6847 102 0
6847 -114 -102 0
-6848 6847 0
-6848 129 0
6848 -6847 -129 0
-6849 149 0
-6849 166 0
6849 -149 -166 0
-6850 6849 0
-6850 177 0
6850 -6849 -177 0
-6851 6830 6832 0
-6851 -6830 -6832 0
6851 -6830 6832 0
6851 6830 -6832 0
-6852 6851 6834 0
-6852 -6851 -6834 0
6852 -6851 6834 0
6852 6851 -6834 0
-6853 6852 6836 0
-6853 -6852 -6836 0
6853 -6852 6836 0
6853 6852 -6836 0
-6854 6853 6838 0
-6854 -6853 -6838 0
6854 -6853 6838 0
6854 6853 -6838 0
-6855 6854 6840 0
-6855 -6854 -6840 0
6855 -6854 6840 0
6855 6854 -6840 0
-6856 6855 6834 0
-6856 -6855 -6834 0
6856 -6855 6834 0
6856 6855 -6834 0
-6857 6856 6836 0
-6857 -6856 -6836 0
6857 -6856 6836 0
6857 6856 -6836 0
-6858 6857 6830 0
-6858 -6857 -6830 0
6858 -6857 6830 0
6858 6857 -6830 0
-6859 6858 6832 0
-6859 -6858 -6832 0
6859 -6858 6832 0
6859 6858 -6832 0
-6860 6859 6840 0
-6860 -6859 -6840 0
6860 -6859 6840 0
6860 6859 -6840 0
-6861 6860 6838 0
-6861 -6860 -6838 0
6861 -6860 6838 0
6861 6860 -6838 0
-6862 6861 6842 0
-6862 -6861 -6842 0
6862 -6861 6842 0
6862 6861 -6842 0
-6863 6862 6844 0
-6863 -6862 -6844 0
6863 -6862 6844 0
6863 6862 -6844 0
-6864 6863 6846 0
-6864 -6863 -6846 0
6864 -6863 6846 0
6864 6863 -6846 0
-6865 6864 6848 0
-6865 -6864 -6848 0
6865 -6864 6848 0
6865 6864 -6848 0
-6866 6865 6850 0
-6866 -6865 -6850 0
6866 -6865 6850 0
6866 6865 -6850 0
-6866 0
-6867 6829 0
-6867 34 0
6867 -6829 -34 0
-6868 6831 0
-6868 36 0
6868 -6831 -36 0
-6869 6833 0
-6869 34 0
6869 -6833 -34 0
-6870 6835 0
-6870 36 0
6870 -6835 -36 0
-6871 6837 0
-6871 35 0
6871 -6837 -35 0
-6872 6839 0
-6872 35 0
6872 -6839 -35 0
-6873 6833 0
-6873 37 0
6873 -6833 -37 0
-6874 6835 0
-6874 45 0
6874 -6835 -45 0
-6875 6829 0
-6875 37 0
6875 -6829 -37 0
-6876 6831 0
-6876 45 0
6876 -6831 -45 0
-6877 6839 0
-6877 41 0
6877 -6839 -41 0
-6878 6837 0
-6878 41 0
6878 -6837 -41 0
-6879 6841 0
-6879 82 0
6879 -6841 -82 0
-6880 6843 0
-6880 85 0
6880 -6843 -85 0
-6881 6845 0
-6881 130 0
6881 -6845 -130 0
-6882 6847 0
-6882 133 0
6882 -6847 -133 0
-6883 6849 0
-6883 178 0
6883 -6849 -178 0
-6884 6867 6868 0
-6884 -6867 -6868 0
6884 -6867 6868 0
6884 6867 -6868 0
-6885 6884 6869 0
-6885 -6884 -6869 0
6885 -6884 6869 0
6885 6884 -6869 0
-6886 6885 6870 0
-6886 -6885 -6870 0
6886 -6885 6870 0
6886 6885 -6870 0
-6887 6886 6871 0
-6887 -6886 -6871 0
6887 -6886 6871 0
6887 6886 -6871 0
-6888 6887 6872 0
-6888 -6887 -6872 0
6888 -6887 6872 0
6888 6887 -6872 0
-6889 6888 6873 0
-6889 -6888 -6873 0
6889 -6888 6873 0
6889 6888 -6873 0
-6890 6889 6874 0
-6890 -6889 -6874 0
6890 -6889 6874 0
6890 6889 -6874 0
-6891 6890 6875 0
-6891 -6890 -6875 0
6891 -6890 6875 0
6891 6890 -6875 0
-6892 6891 6876 0
-6892 -6891 -6876 0
6892 -6891 6876 0
6892 6891 -6876 0
-6893 6892 6877 0
-6893 -6892 -6877 0
6893 -6892 6877 0
6893 6892 -6877 0
-6894 6893 6878 0
-6894 -6893 -6878 0
6894 -6893 6878 0
6894 6893 -6878 0
-6895 6894 6879 0
-6895 -6894 -6879 0
6895 -6894 6879 0
6895 6894 -6879 0
-6896 6895 6880 0
-6896 -6895 -6880 0
6896 -6895 6880 0
6896 6895 -6880 0
-6897 6896 6881 0
-6897 -6896 -6881 0
6897 -6896 6881 0
6897 6896 -6881 0
-6898 6897 6882 0
-6898 -6897 -6882 0
6898 -6897 6882 0
6898 6897 -6882 0
-6899 6898 6883 0
-6899 -6898 -6883 0
6899 -6898 6883 0
6899 6898 -6883 0
-6899 0
-6900 6829 0
-6900 35 0
6900 -6829 -35 0
-6901 6831 0
-6901 35 0
6901 -6831 -35 0
-6902 6833 0
-6902 36 0
6902 -6833 -36 0
-6903 6835 0
-6903 34 0
6903 -6835 -34 0
-6904 6837 0
-6904 36 0
6904 -6837 -36 0
-6905 6839 0
-6905 34 0
6905 -6839 -34 0
-6906 6833 0
-6906 41 0
6906 -6833 -41 0
-6907 6835 0
-6907 41 0
6907 -6835 -41 0
-6908 6829 0
-6908 45 0
6908 -6829 -45 0
-6909 6831 0
-6909 37 0
6909 -6831 -37 0
-6910 6839 0
-6910 45 0
6910 -6839 -45 0
-6911 6837 0
-6911 37 0
6911 -6837 -37 0
-6912 6841 0
-6912 83 0
6912 -6841 -83 0
-6913 6843 0
-6913 89 0
6913 -6843 -89 0
-6914 6845 0
-6914 131 0
6914 -6845 -131 0
-6915 6847 0
-6915 137 0
6915 -6847 -137 0
-6916 6849 0
-6916 179 0
6916 -6849 -179 0
-6917 6900 6901 0
-6917 -6900 -6901 0
6917 -6900 6901 0
6917 6900 -6901 0
-6918 6917 6902 0
-6918 -6917 -6902 0
6918 -6917 6902 0
6918 6917 -6902 0
-6919 6918 6903 0
-6919 -6918 -6903 0
6919 -6918 6903 0
6919 6918 -6903 0
-6920 6919 6904 0
-6920 -6919 -6904 0
6920 -6919 6904 0
6920 6919 -6904 0
-6921 6920 6905 0
-6921 -6920 -6905 0
6921 -6920 6905 0
6921 6920 -6905 0
-6922 6921 6906 0
-6922 -6921 -6906 0
6922 -6921 6906 0
6922 6921 -6906 0
-6923 6922 6907 0
-6923 -6922 -6907 0
6923 -6922 6907 0
6923 6922 -6907 0
-6924 6923 6908 0
-6924 -6923 -6908 0
6924 -6923 6908 0
6924 6923 -6908 0
-6925 6924 6909 0
-6925 -6924 -6909 0
6925 -6924 6909 0
6925 6924 -6909 0
-6926 6925 6910 0
-6926 -6925 -6910 0
6926 -6925 6910 0
6926 6925 -6910 0
-6927 6926 6911 0
-6927 -6926 -6911 0
6927 -6926 6911 0
6927 6926 -6911 0
-6928 6927 6912 0
-6928 -6927 -6912 0
6928 -6927 6912 0
6928 6927 -6912 0
-6929 6928 6913 0
-6929 -6928 -6913 0
6929 -6928 6913 0
6929 6928 -6913 0
-6930 6929 6914 0
-6930 -6929 -6914 0
6930 -6929 6914 0
6930 6929 -6914 0
-6931 6930 6915 0
-6931 -6930 -6915 0
6931 -6930 6915 0
6931 6930 -6915 0
-6932 6931 6916 0
-6932 -6931 -6916 0
6932 -6931 6916 0
6932 6931 -6916 0
-6932 0
-6933 6829 0
-6933 36 0
6933 -6829 -36 0
-6934 6831 0
-6934 34 0
6934 -6831 -34 0
-6935 6833 0
-6935 35 0
6935 -6833 -35 0
-6936 6835 0
-6936 35 0
6936 -6835 -35 0
-6937 6837 0
-6937 34 0
6937 -6837 -34 0
-6938 6839 0
-6938 36 0
6938 -6839 -36 0
-6939 6833 0
-6939 45 0
6939 -6833 -45 0
-6940 6835 0
-6940 37 0
6940 -6835 -37 0
-6941 6829 0
-6941 41 0
6941 -6829 -41 0
-6942 6831 0
-6942 41 0
6942 -6831 -41 0
-6943 6839 0
-6943 37 0
6943 -6839 -37 0
-6944 6837 0
-6944 45 0
6944 -6837 -45 0
-6945 6841 0
-6945 84 0
6945 -6841 -84 0
-6946 6843 0
-6946 93 0
6946 -6843 -93 0
-6947 6845 0
-6947 132 0
6947 -6845 -132 0
-6948 6847 0
-6948 141 0
6948 -6847 -141 0
-6949 6849 0
-6949 180 0
6949 -6849 -180 0
-6950 6933 6934 0
-6950 -6933 -6934 0
6950 -6933 6934 0
6950 6933 -6934 0
-6951 6950 6935 0
-6951 -6950 -6935 0
6951 -6950 6935 0
6951 6950 -6935 0
-6952 6951 6936 0
-6952 -6951 -6936 0
6952 -6951 6936 0
6952 6951 -6936 0
-6953 6952 6937 0
-6953 -6952 -6937 0
6953 -6952 6937 0
6953 6952 -6937 0
-6954 6953 6938 0
-6954 -6953 -6938 0
6954 -6953 6938 0
6954 6953 -6938 0
-6955 6954 6939 0
-6955 -6954 -6939 0
6955 -6954 6939 0
6955 6954 -6939 0
-6956 6955 6940 0
-6956 -6955 -6940 0
6956 -6955 6940 0
6956 6955 -6940 0
-6957 6956 6941 0
-6957 -6956 -6941 0
6957 -6956 6941 0
6957 6956 -6941 0
-6958 6957 6942 0
-6958 -6957 -6942 0
6958 -6957 6942 0
6958 6957 -6942 0
-6959 6958 6943 0
-6959 -6958 -6943 0
6959 -6958 6943 0
6959 6958 -6943 0
-6960 6959 6944 0
-6960 -6959 -6944 0
6960 -6959 6944 0
6960 6959 -6944 0
-6961 6960 6945 0
-6961 -6960 -6945 0
6961 -6960 6945 0
6961 6960 -6945 0
-6962 6961 6946 0
-6962 -6961 -6946 0
6962 -6961 6946 0
6962 6961 -6946 0
-6963 6962 6947 0
-6963 -6962 -6947 0
6963 -6962 6947 0
6963 6962 -6947 0
-6964 6963 6948 0
-6964 -6963 -6948 0
6964 -6963 6948 0
6964 6963 -6948 0
-6965 6964 6949 0
-6965 -6964 -6949 0
6965 -6964 6949 0
6965 6964 -6949 0
-6965 0
-6966 6829 0
-6966 38 0
6966 -6829 -38 0
-6967 6831 0
-6967 48 0
6967 -6831 -48 0
-6968 6833 0
-6968 38 0
6968 -6833 -38 0
-6969 6835 0
-6969 48 0
6969 -6835 -48 0
-6970 6837 0
-6970 43 0
6970 -6837 -43 0
-6971 6839 0
-6971 43 0
6971 -6839 -43 0
-6972 6841 0
-6972 86 0
6972 -6841 -86 0
-6973 6843 0
-6973 86 0
6973 -6843 -86 0
-6974 6845 0
-6974 134 0
6974 -6845 -134 0
-6975 6847 0
-6975 134 0
6975 -6847 -134 0
-6976 6849 0
-6976 182 0
6976 -6849 -182 0
-6977 6966 6967 0
-6977 -6966 -6967 0
6977 -6966 6967 0
6977 6966 -6967 0
-6978 6977 6968 0
-6978 -6977 -6968 0
6978 -6977 6968 0
6978 6977 -6968 0
-6979 6978 6969 0
-6979 -6978 -6969 0
6979 -6978 6969 0
6979 6978 -6969 0
-6980 6979 6970 0
-6980 -6979 -6970 0
6980 -6979 6970 0
6980 6979 -6970 0
-6981 6980 6971 0
-6981 -6980 -6971 0
6981 -6980 6971 0
6981 6980 -6971 0
-6982 6981 6968 0
-6982 -6981 -6968 0
6982 -6981 6968 0
6982 6981 -6968 0
-6983 6982 6969 0
-6983 -6982 -6969 0
6983 -6982 6969 0
6983 6982 -6969 0
-6984 6983 6966 0
-6984 -6983 -6966 0
6984 -6983 6966 0
6984 6983 -6966 0
-6985 6984 6967 0
-6985 -6984 -6967 0
6985 -6984 6967 0
6985 6984 -6967 0
-6986 6985 6971 0
-6986 -6985 -6971 0
6986 -6985 6971 0
6986 6985 -6971 0
-6987 6986 6970 0
-6987 -6986 -6970 0
6987 -6986 6970 0
6987 6986 -6970 0
-6988 6987 6972 0
-6988 -6987 -6972 0
6988 -6987 6972 0
6988 6987 -6972 0
-6989 6988 6973 0
-6989 -6988 -6973 0
6989 -6988 6973 0
6989 6988 -6973 0
-6990 6989 6974 0
-6990 -6989 -6974 0
6990 -6989 6974 0
6990 6989 -6974 0
-6991 6990 6975 0
-6991 -6990 -6975 0
6991 -6990 6975 0
6991 6990 -6975 0
-6992 6991 6976 0
-6992 -6991 -6976 0
6992 -6991 6976 0
6992 6991 -6976 0
-6992 0
-6993 6829 0
-6993 39 0
6993 -6829 -39 0
-6994 6831 0
-6994 47 0
6994 -6831 -47 0
-6995 6833 0
-6995 40 0
6995 -6833 -40 0
-6996 6835 0
-6996 46 0
6996 -6835 -46 0
-6997 6837 0
-6997 44 0
6997 -6837 -44 0
-6998 6839 0
-6998 42 0
6998 -6839 -42 0
-6999 6833 0
-6999 42 0
6999 -6833 -42 0
-7000 6835 0
-7000 44 0
7000 -6835 -44 0
-7001 6829 0
-7001 46 0
7001 -6829 -46 0
-7002 6831 0
-7002 40 0
7002 -6831 -40 0
-7003 6839 0
-7003 47 0
7003 -6839 -47 0
-7004 6837 0
-7004 39 0
7004 -6837 -39 0
-7005 6841 0
-7005 87 0
7005 -6841 -87 0
-7006 6843 0
-7006 90 0
7006 -6843 -90 0
-7007 6845 0
-7007 135 0
7007 -6845 -135 0
-7008 6847 0
-7008 138 0
7008 -6847 -138 0
-7009 6849 0
-7009 183 0
7009 -6849 -183 0
-7010 6993 6994 0
-7010 -6993 -6994 0
7010 -6993 6994 0
7010 6993 -6994 0
-7011 7010 6995 0
-7011 -7010 -6995 0
7011 -7010 6995 0
7011 7010 -6995 0
-7012 7011 6996 0
-7012 -7011 -6996 0
7012 -7011 6996 0
7012 7011 -6996 0
-7013 7012 6997 0
-7013 -7012 -6997 0
7013 -7012 6997 0
7013 7012 -6997 0
-7014 7013 6998 0
-7014 -7013 -6998 0
7014 -7013 6998 0
7014 7013 -6998 0
-7015 7014 6999 0
-7015 -7014 -6999 0
7015 -7014 6999 0
7015 7014 -6999 0
-7016 7015 7000 0
-7016 -7015 -7000 0
7016 -7015 7000 0
7016 7015 -7000 0
-7017 7016 7001 0
-7017 -7016 -7001 0
7017 -7016 7001 0
7017 7016 -7001 0
-7018 7017 7002 0
-7018 -7017 -7002 0
7018 -7017 7002 0
7018 7017 -7002 0
-7019 7018 7003 0
-7019 -7018 -7003 0
7019 -7018 7003 0
7019 7018 -7003 0
-7020 7019 7004 0
-7020 -7019 -7004 0
7020 -7019 7004 0
7020 7019 -7004 0
-7021 7020 7005 0
-7021 -7020 -7005 0
7021 -7020 7005 0
7021 7020 -7005 0
-7022 7021 7006 0
-7022 -7021 -7006 0
7022 -7021 7006 0
7022 7021 -7006 0
-7023 7022 7007 0
-7023 -7022 -7007 0
7023 -7022 7007 0
7023 7022 -7007 0
-7024 7023 7008 0
-7024 -7023 -7008 0
7024 -7023 7008 0
7024 7023 -7008 0
-7025 7024 7009 0
-7025 -7024 -7009 0
7025 -7024 7009 0
7025 7024 -7009 0
-7025 0
-7026 6829 0
-7026 40 0
7026 -6829 -40 0
-7027 6831 0
-7027 46 0
7027 -6831 -46 0
-7028 6833 0
-7028 39 0
7028 -6833 -39 0
-7029 6835 0
-7029 47 0
7029 -6835 -47 0
-7030 6837 0
-7030 42 0
7030 -6837 -42 0
-7031 6839 0
-7031 44 0
7031 -6839 -44 0
-7032 6833 0
-7032 46 0
7032 -6833 -46 0
-7033 6835 0
-7033 40 0
7033 -6835 -40 0
-7034 6829 0
-7034 42 0
7034 -6829 -42 0
-7035 6831 0
-7035 44 0
7035 -6831 -44 0
-7036 6839 0
-7036 39 0
7036 -6839 -39 0
-7037 6837 0
-7037 47 0
7037 -6837 -47 0
-7038 6841 0
-7038 88 0
7038 -6841 -88 0
-7039 6843 0
-7039 94 0
7039 -6843 -94 0
-7040 6845 0
-7040 136 0
7040 -6845 -136 0
-7041 6847 0
-7041 142 0
7041 -6847 -142 0
-7042 6849 0
-7042 184 0
7042 -6849 -184 0
-7043 7026 7027 0
-7043 -7026 -7027 0
7043 -7026 7027 0
7043 7026 -7027 0
-7044 7043 7028 0
-7044 -7043 -7028 0
7044 -7043 7028 0
7044 7043 -7028 0
-7045 7044 7029 0
-7045 -7044 -7029 0
7045 -7044 7029 0
7045 7044 -7029 0
-7046 7045 7030 0
-7046 -7045 -7030 0
7046 -7045 7030 0
7046 7045 -7030 0
-7047 7046 7031 0
-7047 -7046 -7031 0
7047 -7046 7031 0
7047 7046 -7031 0
-7048 7047 7032 0
-7048 -7047 -7032 0
7048 -7047 7032 0
7048 7047 -7032 0
-7049 7048 7033 0
-7049 -7048 -7033 0
7049 -7048 7033 0
7049 7048 -7033 0
-7050 7049 7034 0
-7050 -7049 -7034 0
7050 -7049 7034 0
7050 7049 -7034 0
-7051 7050 7035 0
-7051 -7050 -7035 0
7051 -7050 7035 0
7051 7050 -7035 0
-7052 7051 7036 0
-7052 -7051 -7036 0
7052 -7051 7036 0
7052 7051 -7036 0
-7053 7052 7037 0
-7053 -7052 -7037 0
7053 -7052 7037 0
7053 7052 -7037 0
-7054 7053 7038 0
-7054 -7053 -7038 0
7054 -7053 7038 0
7054 7053 -7038 0
-7055 7054 7039 0
-7055 -7054 -7039 0
7055 -7054 7039 0
7055 7054 -7039 0
-7056 7055 7040 0
-7056 -7055 -7040 0
7056 -7055 7040 0
7056 7055 -7040 0
-7057 7056 7041 0
-7057 -7056 -7041 0
7057 -7056 7041 0
7057 7056 -7041 0
-7058 7057 7042 0
-7058 -7057 -7042 0
7058 -7057 7042 0
7058 7057 -7042 0
-7058 0
-7059 6829 0
-7059 43 0
7059 -6829 -43 0
-7060 6831 0
-7060 43 0
7060 -6831 -43 0
-7061 6833 0
-7061 48 0
7061 -6833 -48 0
-7062 6835 0
-7062 38 0
7062 -6835 -38 0
-7063 6837 0
-7063 48 0
7063 -6837 -48 0
-7064 6839 0
-7064 38 0
7064 -6839 -38 0
-7065 6833 0
-7065 43 0
7065 -6833 -43 0
-7066 6835 0
-7066 43 0
7066 -6835 -43 0
-7067 6829 0
-7067 48 0
7067 -6829 -48 0
-7068 6831 0
-7068 38 0
7068 -6831 -38 0
-7069 6839 0
-7069 48 0
7069 -6839 -48 0
-7070 6837 0
-7070 38 0
7070 -6837 -38 0
-7071 6841 0
-7071 91 0
7071 -6841 -91 0
-7072 6843 0
-7072 91 0
7072 -6843 -91 0
-7073 6845 0
-7073 139 0
7073 -6845 -139 0
-7074 6847 0
-7074 139 0
7074 -6847 -139 0
-7075 6849 0
-7075 187 0
7075 -6849 -187 0
-7076 7059 7060 0
-7076 -7059 -7060 0
7076 -7059 7060 0
7076 7059 -7060 0
-7077 7076 7061 0
-7077 -7076 -7061 0
7077 -7076 7061 0
7077 7076 -7061 0
-7078 7077 7062 0
-7078 -7077 -7062 0
7078 -7077 7062 0
7078 7077 -7062 0
-7079 7078 7063 0
-7079 -7078 -7063 0
7079 -7078 7063 0
7079 7078 -7063 0
-7080 7079 7064 0
-7080 -7079 -7064 0
7080 -7079 7064 0
7080 7079 -7064 0
-7081 7080 7065 0
-7081 -7080 -7065 0
7081 -7080 7065 0
7081 7080 -7065 0
-7082 7081 7066 0
-7082 -7081 -7066 0
7082 -7081 7066 0
7082 7081 -7066 0
-7083 7082 7067 0
-7083 -7082 -7067 0
7083 -7082 7067 0
7083 7082 -7067 0
-7084 7083 7068 0
-7084 -7083 -7068 0
7084 -7083 7068 0
7084 7083 -7068 0
-7085 7084 7069 0
-7085 -7084 -7069 0
7085 -7084 7069 0
7085 7084 -7069 0
-7086 7085 7070 0
-7086 -7085 -7070 0
7086 -7085 7070 0
7086 7085 -7070 0
-7087 7086 7071 0
-7087 -7086 -7071 0
7087 -7086 7071 0
7087 7086 -7071 0
-7088 7087 7072 0
-7088 -7087 -7072 0
7088 -7087 7072 0
7088 7087 -7072 0
-7089 7088 7073 0
-7089 -7088 -7073 0
7089 -7088 7073 0
7089 7088 -7073 0
-7090 7089 7074 0
-7090 -7089 -7074 0
7090 -7089 7074 0
7090 7089 -7074 0
-7091 7090 7075 0
-7091 -7090 -7075 0
7091 -7090 7075 0
7091 7090 -7075 0
-7091 0
-7092 6829 0
-7092 44 0
7092 -6829 -44 0
-7093 6831 0
-7093 42 0
7093 -6831 -42 0
-7094 6833 0
-7094 47 0
7094 -6833 -47 0
-7095 6835 0
-7095 39 0
7095 -6835 -39 0
-7096 6837 0
-7096 46 0
7096 -6837 -46 0
-7097 6839 0
-7097 40 0
7097 -6839 -40 0
-7098 6841 0
-7098 92 0
7098 -6841 -92 0
-7099 6843 0
-7099 95 0
7099 -6843 -95 0
-7100 6845 0
-7100 140 0
7100 -6845 -140 0
-7101 6847 0
-7101 143 0
7101 -6847 -143 0
-7102 6849 0
-7102 188 0
7102 -6849 -188 0
-7103 7092 7093 0
-7103 -7092 -7093 0
7103 -7092 7093 0
7103 7092 -7093 0
-7104 7103 7094 0
-7104 -7103 -7094 0
7104 -7103 7094 0
7104 7103 -7094 0
-7105 7104 7095 0
-7105 -7104 -7095 0
7105 -7104 7095 0
7105 7104 -7095 0
-7106 7105 7096 0
-7106 -7105 -7096 0
7106 -7105 7096 0
7106 7105 -7096 0
-7107 7106 7097 0
-7107 -7106 -7097 0
7107 -7106 7097 0
7107 7106 -7097 0
-7108 7107 7094 0
-7108 -7107 -7094 0
7108 -7107 7094 0
7108 7107 -7094 0
-7109 7108 7095 0
-7109 -7108 -7095 0
7109 -7108 7095 0
7109 7108 -7095 0
-7110 7109 7092 0
-7110 -7109 -7092 0
7110 -7109 7092 0
7110 7109 -7092 0
-7111 7110 7093 0
-7111 -7110 -7093 0
7111 -7110 7093 0
7111 7110 -7093 0
-7112 7111 7097 0
-7112 -7111 -7097 0
7112 -7111 7097 0
7112 7111 -7097 0
-7113 7112 7096 0
-7113 -7112 -7096 0
7113 -7112 7096 0
7113 7112 -7096 0
-7114 7113 7098 0
-7114 -7113 -7098 0
7114 -7113 7098 0
7114 7113 -7098 0
-7115 7114 7099 0
-7115 -7114 -7099 0
7115 -7114 7099 0
7115 7114 -7099 0
-7116 7115 7100 0
-7116 -7115 -7100 0
7116 -7115 7100 0
7116 7115 -7100 0
-7117 7116 7101 0
-7117 -7116 -7101 0
7117 -7116 7101 0
7117 7116 -7101 0
-7118 7117 7102 0
-7118 -7117 -7102 0
7118 -7117 7102 0
7118 7117 -7102 0
-7118 0
-7119 6829 0
-7119 47 0
7119 -6829 -47 0
-7120 6831 0
-7120 39 0
7120 -6831 -39 0
-7121 6833 0
-7121 44 0
7121 -6833 -44 0
-7122 6835 0
-7122 42 0
7122 -6835 -42 0
-7123 6837 0
-7123 40 0
7123 -6837 -40 0
-7124 6839 0
-7124 46 0
7124 -6839 -46 0
-7125 6841 0
-7125 95 0
7125 -6841 -95 0
-7126 6843 0
-7126 92 0
7126 -6843 -92 0
-7127 6845 0
-7127 143 0
7127 -6845 -143 0
-7128 6847 0
-7128 140 0
7128 -6847 -140 0
-7129 6849 0
-7129 191 0
7129 -6849 -191 0
-7130 7119 7120 0
-7130 -7119 -7120 0
7130 -7119 7120 0
7130 7119 -7120 0
-7131 7130 7121 0
-7131 -7130 -7121 0
7131 -7130 7121 0
7131 7130 -7121 0
-7132 7131 7122 0
-7132 -7131 -7122 0
7132 -7131 7122 0
7132 7131 -7122 0
-7133 7132 7123 0
-7133 -7132 -7123 0
7133 -7132 7123 0
7133 7132 -7123 0
-7134 7133 7124 0
-7134 -7133 -7124 0
7134 -7133 7124 0
7134 7133 -7124 0
-7135 7134 7121 0
-7135 -7134 -7121 0
7135 -7134 7121 0
7135 7134 -7121 0
-7136 7135 7122 0
-7136 -7135 -7122 0
7136 -7135 7122 0
7136 7135 -7122 0
-7137 7136 7119 0
-7137 -7136 -7119 0
7137 -7136 7119 0
7137 7136 -7119 0
-7138 7137 7120 0
-7138 -7137 -7120 0
7138 -7137 7120 0
7138 7137 -7120 0
-7139 7138 7124 0
-7139 -7138 -7124 0
7139 -7138 7124 0
7139 7138 -7124 0
-7140 7139 7123 0
-7140 -7139 -7123 0
7140 -7139 7123 0
7140 7139 -7123 0
-7141 7140 7125 0
-7141 -7140 -7125 0
7141 -7140 7125 0
7141 7140 -7125 0
-7142 7141 7126 0
-7142 -7141 -7126 0
7142 -7141 7126 0
7142 7141 -7126 0
-7143 7142 7127 0
-7143 -7142 -7127 0
7143 -7142 7127 0
7143 7142 -7127 0
-7144 7143 7128 0
-7144 -7143 -7128 0
7144 -7143 7128 0
7144 7143 -7128 0
-7145 7144 7129 0
-7145 -7144 -7129 0
7145 -7144 7129 0
7145 7144 -7129 0
-7145 0
-7146 5 0
-7146 23 0
7146 -5 -23 0
-7147 7146 0
-7147 33 0
7147 -7146 -33 0
-7148 13 0
-7148 27 0
7148 -13 -27 0
-7149 7148 0
-7149 33 0
7149 -7148 -33 0
-7150 6 0
-7150 20 0
7150 -6 -20 0
-7151 7150 0
-7151 33 0
7151 -7150 -33 0
-7152 15 0
-7152 18 0
7152 -15 -18 0
-7153 7152 0
-7153 33 0
7153 -7152 -33 0
-7154 10 0
-7154 28 0
7154 -10 -28 0
-7155 7154 0
-7155 33 0
7155 -7154 -33 0
-7156 11 0
-7156 22 0
7156 -11 -22 0
-7157 7156 0
-7157 33 0
7157 -7156 -33 0
-7158 18 0
-7158 10 0
7158 -18 -10 0
-7159 7158 0
-7159 33 0
7159 -7158 -33 0
-7160 20 0
-7160 11 0
7160 -20 -11 0
-7161 7160 0
-7161 33 0
7161 -7160 -33 0
-7162 22 0
-7162 13 0
7162 -22 -13 0
-7163 7162 0
-7163 33 0
7163 -7162 -33 0
-7164 28 0
-7164 5 0
7164 -28 -5 0
-7165 7164 0
-7165 33 0
7165 -7164 -33 0
-7166 23 0
-7166 15 0
7166 -23 -15 0
-7167 7166 0
-7167 33 0
7167 -7166 -33 0
-7168 27 0
-7168 6 0
7168 -27 -6 0
-7169 7168 0
-7169 33 0
7169 -7168 -33 0
-7170 53 0
-7170 71 0
7170 -53 -71 0
-7171 7170 0
-7171 81 0
7171 -7170 -81 0
-7172 66 0
-7172 58 0
7172 -66 -58 0
-7173 7172 0
-7173 81 0
7173 -7172 -81 0
-7174 101 0
-7174 119 0
7174 -101 -119 0
-7175 7174 0
-7175 129 0
7175 -7174 -129 0
-7176 114 0
-7176 106 0
7176 -114 -106 0
-7177 7176 0
-7177 129 0
7177 -7176 -129 0
-7178 149 0
-7178 167 0
7178 -149 -167 0
-7179 7178 0
-7179 177 0
7179 -7178 -177 0
-7180 7147 7149 0
-7180 -7147 -7149 0
7180 -7147 7149 0
7180 7147 -7149 0
-7181 7180 7151 0
-7181 -7180 -7151 0
7181 -7180 7151 0
7181 7180 -7151 0
-7182 7181 7153 0
-7182 -7181 -7153 0
7182 -7181 7153 0
7182 7181 -7153 0
-7183 7182 7155 0
-7183 -7182 -7155 0
7183 -7182 7155 0
7183 7182 -7155 0
-7184 7183 7157 0
-7184 -7183 -7157 0
7184 -7183 7157 0
7184 7183 -7157 0
-7185 7184 7159 0
-7185 -7184 -7159 0
7185 -7184 7159 0
7185 7184 -7159 0
-7186 7185 7161 0
-7186 -7185 -7161 0
7186 -7185 7161 0
7186 7185 -7161 0
-7187 7186 7163 0
-7187 -7186 -7163 0
7187 -7186 7163 0
7187 7186 -7163 0
-7188 7187 7165 0
-7188 -7187 -7165 0
7188 -7187 7165 0
7188 7187 -7165 0
-7189 7188 7167 0
-7189 -7188 -7167 0
7189 -7188 7167 0
7189 7188 -7167 0
-7190 7189 7169 0
-7190 -7189 -7169 0
7190 -7189 7169 0
7190 7189 -7169 0
-7191 7190 7171 0
-7191 -7190 -7171 0
7191 -7190 7171 0
7191 7190 -7171 0
-7192 7191 7173 0
-7192 -7191 -7173 0
7192 -7191 7173 0
7192 7191 -7173 0
-7193 7192 7175 0
-7193 -7192 -7175 0
7193 -7192 7175 0
7193 7192 -7175 0
-7194 7193 7177 0
-7194 -7193 -7177 0
7194 -7193 7177 0
7194 7193 -7177 0
-7195 7194 7179 0
-7195 -7194 -7179 0
7195 -7194 7179 0
7195 7194 -7179 0
-7195 0
-7196 7146 0
-7196 34 0
7196 -7146 -34 0
-7197 7148 0
-7197 36 0
7197 -7148 -36 0
-7198 7150 0
-7198 34 0
7198 -7150 -34 0
-7199 7152 0
-7199 36 0
7199 -7152 -36 0
-7200 7154 0
-7200 35 0
7200 -7154 -35 0
-7201 7156 0
-7201 35 0
7201 -7156 -35 0
-7202 7158 0
-7202 37 0
7202 -7158 -37 0
-7203 7160 0
-7203 45 0
7203 -7160 -45 0
-7204 7162 0
-7204 37 0
7204 -7162 -37 0
-7205 7164 0
-7205 45 0
7205 -7164 -45 0
-7206 7166 0
-7206 41 0
7206 -7166 -41 0
-7207 7168 0
-7207 41 0
7207 -7168 -41 0
-7208 7170 0
-7208 82 0
7208 -7170 -82 0
-7209 7172 0
-7209 85 0
7209 -7172 -85 0
-7210 7174 0
-7210 130 0
7210 -7174 -130 0
-7211 7176 0
-7211 133 0
7211 -7176 -133 0
-7212 7178 0
-7212 178 0
7212 -7178 -178 0
-7213 7196 7197 0
-7213 -7196 -7197 0
7213 -7196 7197 0
7213 7196 -7197 0
-7214 7213 7198 0
-7214 -7213 -7198 0
7214 -7213 7198 0
7214 7213 -7198 0
-7215 7214 7199 0
-7215 -7214 -7199 0
7215 -7214 7199 0
7215 7214 -7199 0
-7216 7215 7200 0
-7216 -7215 -7200 0
7216 -7215 7200 0
7216 7215 -7200 0
-7217 7216 7201 0
-7217 -7216 -7201 0
7217 -7216 7201 0
7217 7216 -7201 0
-7218 7217 7202 0
-7218 -7217 -7202 0
7218 -7217 7202 0
7218 7217 -7202 0
-7219 7218 7203 0
-7219 -7218 -7203 0
7219 -7218 7203 0
7219 7218 -7203 0
-7220 7219 7204 0
-7220 -7219 -7204 0
7220 -7219 7204 0
7220 7219 -7204 0
-7221 7220 7205 0
-7221 -7220 -7205 0
7221 -7220 7205 0
7221 7220 -7205 0
-7222 7221 7206 0
-7222 -7221 -7206 0
7222 -7221 7206 0
7222 7221 -7206 0
-7223 7222 7207 0
-7223 -7222 -7207 0
7223 -7222 7207 0
7223 7222 -7207 0
-7224 7223 7208 0
-7224 -7223 -7208 0
7224 -7223 7208 0
7224 7223 -7208 0
-7225 7224 7209 0
-7225 -7224 -7209 0
7225 -7224 7209 0
7225 7224 -7209 0
-7226 7225 7210 0
-7226 -7225 -7210 0
7226 -7225 7210 0
7226 7225 -7210 0
-7227 7226 7211 0
-7227 -7226 -7211 0
7227 -7226 7211 0
7227 7226 -7211 0
-7228 7227 7212 0
-7228 -7227 -7212 0
7228 -7227 7212 0
7228 7227 -7212 0
-7228 0
-7229 7146 0
-7229 35 0
7229 -7146 -35 0
-7230 7148 0
-7230 35 0
7230 -7148 -35 0
-7231 7150 0
-7231 36 0
7231 -7150 -36 0
-7232 7152 0
-7232 34 0
7232 -7152 -34 0
-7233 7154 0
-7233 36 0
7233 -7154 -36 0
-7234 7156 0
-7234 34 0
7234 -7156 -34 0
-7235 7158 0
-7235 41 0
7235 -7158 -41 0
-7236 7160 0
-7236 41 0
7236 -7160 -41 0
-7237 7162 0
-7237 45 0
7237 -7162 -45 0
-7238 7164 0
-7238 37 0
7238 -7164 -37 0
-7239 7166 0
-7239 45 0
7239 -7166 -45 0
-7240 7168 0
-7240 37 0
7240 -7168 -37 0
-7241 7170 0
-7241 83 0
7241 -7170 -83 0
-7242 7172 0
-7242 89 0
7242 -7172 -89 0
-7243 7174 0
-7243 131 0
7243 -7174 -131 0
-7244 7176 0
-7244 137 0
7244 -7176 -137 0
-7245 7178 0
-7245 179 0
7245 -7178 -179 0
-7246 7229 7230 0
-7246 -7229 -7230 0
7246 -7229 7230 0
7246 7229 -7230 0
-7247 7246 7231 0
-7247 -7246 -7231 0
7247 -7246 7231 0
7247 7246 -7231 0
-7248 7247 7232 0
-7248 -7247 -7232 0
7248 -7247 7232 0
7248 7247 -7232 0
-7249 7248 7233 0
-7249 -7248 -7233 0
7249 -7248 7233 0
7249 7248 -7233 0
-7250 7249 7234 0
-7250 -7249 -7234 0
7250 -7249 7234 0
7250 7249 -7234 0
-7251 7250 7235 0
-7251 -7250 -7235 0
7251 -7250 7235 0
7251 7250 -7235 0
-7252 7251 7236 0
-7252 -7251 -7236 0
7252 -7251 7236 0
7252 7251 -7236 0
-7253 7252 7237 0
-7253 -7252 -7237 0
7253 -7252 7237 0
7253 7252 -7237 0
-7254 7253 7238 0
-7254 -7253 -7238 0
7254 -7253 7238 0
7254 7253 -7238 0
-7255 7254 7239 0
-7255 -7254 -7239 0
7255 -7254 7239 0
7255 7254 -7239 0
-7256 7255 7240 0
-7256 -7255 -7240 0
7256 -7255 7240 0
7256 7255 -7240 0
-7257 7256 7241 0
-7257 -7256 -7241 0
7257 -7256 7241 0
7257 7256 -7241 0
-7258 7257 7242 0
-7258 -7257 -7242 0
7258 -7257 7242 0
7258 7257 -7242 0
-7259 7258 7243 0
-7259 -7258 -7243 0
7259 -7258 7243 0
7259 7258 -7243 0
-7260 7259 7244 0
-7260 -7259 -7244 0
7260 -7259 7244 0
7260 7259 -7244 0
-7261 7260 7245 0
-7261 -7260 -7245 0
7261 -7260 7245 0
7261 7260 -7245 0
-7261 0
-7262 7146 0
-7262 36 0
7262 -7146 -36 0
-7263 7148 0
-7263 34 0
7263 -7148 -34 0
-7264 7150 0
-7264 35 0
7264 -7150 -35 0
-7265 7152 0
-7265 35 0
7265 -7152 -35 0
-7266 7154 0
-7266 34 0
7266 -7154 -34 0
-7267 7156 0
-7267 36 0
7267 -7156 -36 0
-7268 7158 0
-7268 45 0
7268 -7158 -45 0
-7269 7160 0
-7269 37 0
7269 -7160 -37 0
-7270 7162 0
-7270 41 0
7270 -7162 -41 0
-7271 7164 0
-7271 41 0
7271 -7164 -41 0
-7272 7166 0
-7272 37 0
7272 -7166 -37 0
-7273 7168 0
-7273 45 0
7273 -7168 -45 0
-7274 7170 0
-7274 84 0
7274 -7170 -84 0
-7275 7172 0
-7275 93 0
7275 -7172 -93 0
-7276 7174 0
-7276 132 0
7276 -7174 -132 0
-7277 7176 0
-7277 141 0
7277 -7176 -141 0
-7278 7178 0
-7278 180 0
7278 -7178 -180 0
-7279 7262 7263 0
-7279 -7262 -7263 0
7279 -7262 7263 0
7279 7262 -7263 0
-7280 7279 7264 0
-7280 -7279 -7264 0
7280 -7279 7264 0
7280 7279 -7264 0
-7281 7280 7265 0
-7281 -7280 -7265 0
7281 -7280 7265 0
7281 7280 -7265 0
-7282 7281 7266 0
-7282 -7281 -7266 0
7282 -7281 7266 0
7282 7281 -7266 0
-7283 7282 7267 0
-7283 -7282 -7267 0
7283 -7282 7267 0
7283 7282 -7267 0
-7284 7283 7268 0
-7284 -7283 -7268 0
7284 -7283 7268 0
7284 7283 -7268 0
-7285 7284 7269 0
-7285 -7284 -7269 0
7285 -7284 7269 0
7285 7284 -7269 0
-7286 7285 7270 0
-7286 -7285 -7270 0
7286 -7285 7270 0
7286 7285 -7270 0
-7287 7286 7271 0
-7287 -7286 -7271 0
7287 -7286 7271 0
7287 7286 -7271 0
-7288 7287 7272 0
-7288 -7287 -7272 0
7288 -7287 7272 0
7288 7287 -7272 0
-7289 7288 7273 0
-7289 -7288 -7273 0
7289 -7288 7273 0
7289 7288 -7273 0
-7290 7289 7274 0
-7290 -7289 -7274 0
7290 -7289 7274 0
7290 7289 -7274 0
-7291 7290 7275 0
-7291 -7290 -7275 0
7291 -7290 7275 0
7291 7290 -7275 0
-7292 7291 7276 0
-7292 -7291 -7276 0
7292 -7291 7276 0
7292 7291 -7276 0
-7293 7292 7277 0
-7293 -7292 -7277 0
7293 -7292 7277 0
7293 7292 -7277 0
-7294 7293 7278 0
-7294 -7293 -7278 0
7294 -7293 7278 0
7294 7293 -7278 0
-7294 0
-7295 7146 0
-7295 37 0
7295 -7146 -37 0
-7296 7148 0
-7296 45 0
7296 -7148 -45 0
-7297 7150 0
-7297 37 0
7297 -7150 -37 0
-7298 7152 0
-7298 45 0
7298 -7152 -45 0
-7299 7154 0
-7299 41 0
7299 -7154 -41 0
-7300 7156 0
-7300 41 0
7300 -7156 -41 0
-7301 7158 0
-7301 34 0
7301 -7158 -34 0
-7302 7160 0
-7302 36 0
7302 -7160 -36 0
-7303 7162 0
-7303 34 0
7303 -7162 -34 0
-7304 7164 0
-7304 36 0
7304 -7164 -36 0
-7305 7166 0
-7305 35 0
7305 -7166 -35 0
-7306 7168 0
-7306 35 0
7306 -7168 -35 0
-7307 7170 0
-7307 85 0
7307 -7170 -85 0
-7308 7172 0
-7308 82 0
7308 -7172 -82 0
-7309 7174 0
-7309 133 0
7309 -7174 -133 0
-7310 7176 0
-7310 130 0
7310 -7176 -130 0
-7311 7178 0
-7311 181 0
7311 -7178 -181 0
-7312 7295 7296 0
-7312 -7295 -7296 0
7312 -7295 7296 0
7312 7295 -7296 0
-7313 7312 7297 0
-7313 -7312 -7297 0
7313 -7312 7297 0
7313 7312 -7297 0
-7314 7313 7298 0
-7314 -7313 -7298 0
7314 -7313 7298 0
7314 7313 -7298 0
-7315 7314 7299 0
-7315 -7314 -7299 0
7315 -7314 7299 0
7315 7314 -7299 0
-7316 7315 7300 0
-7316 -7315 -7300 0
7316 -7315 7300 0
7316 7315 -7300 0
-7317 7316 7301 0
-7317 -7316 -7301 0
7317 -7316 7301 0
7317 7316 -7301 0
-7318 7317 7302 0
-7318 -7317 -7302 0
7318 -7317 7302 0
7318 7317 -7302 0
-7319 7318 7303 0
-7319 -7318 -7303 0
7319 -7318 7303 0
7319 7318 -7303 0
-7320 7319 7304 0
-7320 -7319 -7304 0
7320 -7319 7304 0
7320 7319 -7304 0
-7321 7320 7305 0
-7321 -7320 -7305 0
7321 -7320 7305 0
7321 7320 -7305 0
-7322 7321 7306 0
-7322 -7321 -7306 0
7322 -7321 7306 0
7322 7321 -7306 0
-7323 7322 7307 0
-7323 -7322 -7307 0
7323 -7322 7307 0
7323 7322 -7307 0
-7324 7323 7308 0
-7324 -7323 -7308 0
7324 -7323 7308 0
7324 7323 -7308 0
-7325 7324 7309 0
-7325 -7324 -7309 0
7325 -7324 7309 0
7325 7324 -7309 0
-7326 7325 7310 0
-7326 -7325 -7310 0
7326 -7325 7310 0
7326 7325 -7310 0
-7327 7326 7311 0
-7327 -7326 -7311 0
7327 -7326 7311 0
7327 7326 -7311 0
-7327 0
-7328 7146 0
-7328 38 0
7328 -7146 -38 0
-7329 7148 0
-7329 48 0
7329 -7148 -48 0
-7330 7150 0
-7330 38 0
7330 -7150 -38 0
-7331 7152 0
-7331 48 0
7331 -7152 -48 0
-7332 7154 0
-7332 43 0
7332 -7154 -43 0
-7333 7156 0
-7333 43 0
7333 -7156 -43 0
-7334 7158 0
-7334 38 0
7334 -7158 -38 0
-7335 7160 0
-7335 48 0
7335 -7160 -48 0
-7336 7162 0
-7336 38 0
7336 -7162 -38 0
-7337 7164 0
-7337 48 0
7337 -7164 -48 0
-7338 7166 0
-7338 43 0
7338 -7166 -43 0
-7339 7168 0
-7339 43 0
7339 -7168 -43 0
-7340 7170 0
-7340 86 0
7340 -7170 -86 0
-7341 7172 0
-7341 86 0
7341 -7172 -86 0
-7342 7174 0
-7342 134 0
7342 -7174 -134 0
-7343 7176 0
-7343 134 0
7343 -7176 -134 0
-7344 7178 0
-7344 182 0
7344 -7178 -182 0
-7345 7328 7329 0
-7345 -7328 -7329 0
7345 -7328 7329 0
7345 7328 -7329 0
-7346 7345 7330 0
-7346 -7345 -7330 0
7346 -7345 7330 0
7346 7345 -7330 0
-7347 7346 7331 0
-7347 -7346 -7331 0
7347 -7346 7331 0
7347 7346 -7331 0
-7348 7347 7332 0
-7348 -7347 -7332 0
7348 -7347 7332 0
7348 7347 -7332 0
-7349 7348 7333 0
-7349 -7348 -7333 0
7349 -7348 7333 0
7349 7348 -7333 0
-7350 7349 7334 0
-7350 -7349 -7334 0
7350 -7349 7334 0
7350 7349 -7334 0
-7351 7350 7335 0
-7351 -7350 -7335 0
7351 -7350 7335 0
7351 7350 -7335 0
-7352 7351 7336 0
-7352 -7351 -7336 0
7352 -7351 7336 0
7352 7351 -7336 0
-7353 7352 7337 0
-7353 -7352 -7337 0
7353 -7352 7337 0
7353 7352 -7337 0
-7354 7353 7338 0
-7354 -7353 -7338 0
7354 -7353 7338 0
7354 7353 -7338 0
-7355 7354 7339 0
-7355 -7354 -7339 0
7355 -7354 7339 0
7355 7354 -7339 0
-7356 7355 7340 0
-7356 -7355 -7340 0
7356 -7355 7340 0
7356 7355 -7340 0
-7357 7356 7341 0
-7357 -7356 -7341 0
7357 -7356 7341 0
7357 7356 -7341 0
-7358 7357 7342 0
-7358 -7357 -7342 0
7358 -7357 7342 0
7358 7357 -7342 0
-7359 7358 7343 0
-7359 -7358 -7343 0
7359 -7358 7343 0
7359 7358 -7343 0
-7360 7359 7344 0
-7360 -7359 -7344 0
7360 -7359 7344 0
7360 7359 -7344 0
-7360 0
-7361 7146 0
-7361 39 0
7361 -7146 -39 0
-7362 7148 0
-7362 47 0
7362 -7148 -47 0
-7363 7150 0
-7363 40 0
7363 -7150 -40 0
-7364 7152 0
-7364 46 0
7364 -7152 -46 0
-7365 7154 0
-7365 44 0
7365 -7154 -44 0
-7366 7156 0
-7366 42 0
7366 -7156 -42 0
-7367 7158 0
-7367 42 0
7367 -7158 -42 0
-7368 7160 0
-7368 44 0
7368 -7160 -44 0
-7369 7162 0
-7369 46 0
7369 -7162 -46 0
-7370 7164 0
-7370 40 0
7370 -7164 -40 0
-7371 7166 0
-7371 47 0
7371 -7166 -47 0
-7372 7168 0
-7372 39 0
7372 -7168 -39 0
-7373 7170 0
-7373 87 0
7373 -7170 -87 0
-7374 7172 0
-7374 90 0
7374 -7172 -90 0
-7375 7174 0
-7375 135 0
7375 -7174 -135 0
-7376 7176 0
-7376 138 0
7376 -7176 -138 0
-7377 7178 0
-7377 183 0
7377 -7178 -183 0
-7378 7361 7362 0
-7378 -7361 -7362 0
7378 -7361 7362 0
7378 7361 -7362 0
-7379 7378 7363 0
-7379 -7378 -7363 0
7379 -7378 7363 0
7379 7378 -7363 0
-7380 7379 7364 0
-7380 -7379 -7364 0
7380 -7379 7364 0
7380 7379 -7364 0
-7381 7380 7365 0
-7381 -7380 -7365 0
7381 -7380 7365 0
7381 7380 -7365 0
-7382 7381 7366 0
-7382 -7381 -7366 0
7382 -7381 7366 0
7382 7381 -7366 0
-7383 7382 7367 0
-7383 -7382 -7367 0
7383 -7382 7367 0
7383 7382 -7367 0
-7384 7383 7368 0
-7384 -7383 -7368 0
7384 -7383 7368 0
7384 7383 -7368 0
-7385 7384 7369 0
-7385 -7384 -7369 0
7385 -7384 7369 0
7385 7384 -7369 0
-7386 7385 7370 0
-7386 -7385 -7370 0
7386 -7385 7370 0
7386 7385 -7370 0
-7387 7386 7371 0
-7387 -7386 -7371 0
7387 -7386 7371 0
7387 7386 -7371 0
-7388 7387 7372 0
-7388 -7387 -7372 0
7388 -7387 7372 0
7388 7387 -7372 0
-7389 7388 7373 0
-7389 -7388 -7373 0
7389 -7388 7373 0
7389 7388 -7373 0
-7390 7389 7374 0
-7390 -7389 -7374 0
7390 -7389 7374 0
7390 7389 -7374 0
-7391 7390 7375 0
-7391 -7390 -7375 0
7391 -7390 7375 0
7391 7390 -7375 0
-7392 7391 7376 0
-7392 -7391 -7376 0
7392 -7391 7376 0
7392 7391 -7376 0
-7393 7392 7377 0
-7393 -7392 -7377 0
7393 -7392 7377 0
7393 7392 -7377 0
-7393 0
-7394 7146 0
-7394 40 0
7394 -7146 -40 0
-7395 7148 0
-7395 46 0
7395 -7148 -46 0
-7396 7150 0
-7396 39 0
7396 -7150 -39 0
-7397 7152 0
-7397 47 0
7397 -7152 -47 0
-7398 7154 0
-7398 42 0
7398 -7154 -42 0
-7399 7156 0
-7399 44 0
7399 -7156 -44 0
-7400 7158 0
-7400 46 0
7400 -7158 -46 0
-7401 7160 0
-7401 40 0
7401 -7160 -40 0
-7402 7162 0
-7402 42 0
7402 -7162 -42 0
-7403 7164 0
-7403 44 0
7403 -7164 -44 0
-7404 7166 0
-7404 39 0
7404 -7166 -39 0
-7405 7168 0
-7405 47 0
7405 -7168 -47 0
-7406 7170 0
-7406 88 0
7406 -7170 -88 0
-7407 7172 0
-7407 94 0
7407 -7172 -94 0
-7408 7174 0
-7408 136 0
7408 -7174 -136 0
-7409 7176 0
-7409 142 0
7409 -7176 -142 0
-7410 7178 0
-7410 184 0
7410 -7178 -184 0
-7411 7394 7395 0
-7411 -7394 -7395 0
7411 -7394 7395 0
7411 7394 -7395 0
-7412 7411 7396 0
-7412 -7411 -7396 0
7412 -7411 7396 0
7412 7411 -7396 0
-7413 7412 7397 0
-7413 -7412 -7397 0
7413 -7412 7397 0
7413 7412 -7397 0
-7414 7413 7398 0
-7414 -7413 -7398 0
7414 -7413 7398 0
7414 7413 -7398 0
-7415 7414 7399 0
-7415 -7414 -7399 0
7415 -7414 7399 0
7415 7414 -7399 0
-7416 7415 7400 0
-7416 -7415 -7400 0
7416 -7415 7400 0
7416 7415 -7400 0
-7417 7416 7401 0
-7417 -7416 -7401 0
7417 -7416 7401 0
7417 7416 -7401 0
-7418 7417 7402 0
-7418 -7417 -7402 0
7418 -7417 7402 0
7418 7417 -7402 0
-7419 7418 7403 0
-7419 -7418 -7403 0
7419 -7418 7403 0
7419 7418 -7403 0
-7420 7419 7404 0
-7420 -7419 -7404 0
7420 -7419 7404 0
7420 7419 -7404 0
-7421 7420 7405 0
-7421 -7420 -7405 0
7421 -7420 7405 0
7421 7420 -7405 0
-7422 7421 7406 0
-7422 -7421 -7406 0
7422 -7421 7406 0
7422 7421 -7406 0
-7423 7422 7407 0
-7423 -7422 -7407 0
7423 -7422 7407 0
7423 7422 -7407 0
-7424 7423 7408 0
-7424 -7423 -7408 0
7424 -7423 7408 0
7424 7423 -7408 0
-7425 7424 7409 0
-7425 -7424 -7409 0
7425 -7424 7409 0
7425 7424 -7409 0
-7426 7425 7410 0
-7426 -7425 -7410 0
7426 -7425 7410 0
7426 7425 -7410 0
-7426 0
-7427 7146 0
-7427 41 0
7427 -7146 -41 0
-7428 7148 0
-7428 41 0
7428 -7148 -41 0
-7429 7150 0
-7429 45 0
7429 -7150 -45 0
-7430 7152 0
-7430 37 0
7430 -7152 -37 0
-7431 7154 0
-7431 45 0
7431 -7154 -45 0
-7432 7156 0
-7432 37 0
7432 -7156 -37 0
-7433 7158 0
-7433 35 0
7433 -7158 -35 0
-7434 7160 0
-7434 35 0
7434 -7160 -35 0
-7435 7162 0
-7435 36 0
7435 -7162 -36 0
-7436 7164 0
-7436 34 0
7436 -7164 -34 0
-7437 7166 0
-7437 36 0
7437 -7166 -36 0
-7438 7168 0
-7438 34 0
7438 -7168 -34 0
-7439 7170 0
-7439 89 0
7439 -7170 -89 0
-7440 7172 0
-7440 83 0
7440 -7172 -83 0
-7441 7174 0
-7441 137 0
7441 -7174 -137 0
-7442 7176 0
-7442 131 0
7442 -7176 -131 0
-7443 7178 0
-7443 185 0
7443 -7178 -185 0
-7444 7427 7428 0
-7444 -7427 -7428 0
7444 -7427 7428 0
7444 7427 -7428 0
-7445 7444 7429 0
-7445 -7444 -7429 0
7445 -7444 7429 0
7445 7444 -7429 0
-7446 7445 7430 0
-7446 -7445 -7430 0
7446 -7445 7430 0
7446 7445 -7430 0
-7447 7446 7431 0
-7447 -7446 -7431 0
7447 -7446 7431 0
7447 7446 -7431 0
-7448 7447 7432 0
-7448 -7447 -7432 0
7448 -7447 7432 0
7448 7447 -7432 0
-7449 7448 7433 0
-7449 -7448 -7433 0
7449 -7448 7433 0
7449 7448 -7433 0
-7450 7449 7434 0
-7450 -7449 -7434 0
7450 -7449 7434 0
7450 7449 -7434 0
-7451 7450 7435 0
-7451 -7450 -7435 0
7451 -7450 7435 0
7451 7450 -7435 0
-7452 7451 7436 0
-7452 -7451 -7436 0
7452 -7451 7436 0
7452 7451 -7436 0
-7453 7452 7437 0
-7453 -7452 -7437 0
7453 -7452 7437 0
7453 7452 -7437 0
-7454 7453 7438 0
-7454 -7453 -7438 0
7454 -7453 7438 0
7454 7453 -7438 0
-7455 7454 7439 0
-7455 -7454 -7439 0
7455 -7454 7439 0
7455 7454 -7439 0
-7456 7455 7440 0
-7456 -7455 -7440 0
7456 -7455 7440 0
7456 7455 -7440 0
-7457 7456 7441 0
-7457 -7456 -7441 0
7457 -7456 7441 0
7457 7456 -7441 0
-7458 7457 7442 0
-7458 -7457 -7442 0
7458 -7457 7442 0
7458 7457 -7442 0
-7459 7458 7443 0
-7459 -7458 -7443 0
7459 -7458 7443 0
7459 7458 -7443 0
-7459 0
-7460 7146 0
-7460 42 0
7460 -7146 -42 0
-7461 7148 0
-7461 44 0
7461 -7148 -44 0
-7462 7150 0
-7462 46 0
7462 -7150 -46 0
-7463 7152 0
-7463 40 0
7463 -7152 -40 0
-7464 7154 0
-7464 47 0
7464 -7154 -47 0
-7465 7156 0
-7465 39 0
7465 -7156 -39 0
-7466 7158 0
-7466 39 0
7466 -7158 -39 0
-7467 7160 0
-7467 47 0
7467 -7160 -47 0
-7468 7162 0
-7468 40 0
7468 -7162 -40 0
-7469 7164 0
-7469 46 0
7469 -7164 -46 0
-7470 7166 0
-7470 44 0
7470 -7166 -44 0
-7471 7168 0
-7471 42 0
7471 -7168 -42 0
-7472 7170 0
-7472 90 0
7472 -7170 -90 0
-7473 7172 0
-7473 87 0
7473 -7172 -87 0
-7474 7174 0
-7474 138 0
7474 -7174 -138 0
-7475 7176 0
-7475 135 0
7475 -7176 -135 0
-7476 7178 0
-7476 186 0
7476 -7178 -186 0
-7477 7460 7461 0
-7477 -7460 -7461 0
7477 -7460 7461 0
7477 7460 -7461 0
-7478 7477 7462 0
-7478 -7477 -7462 0
7478 -7477 7462 0
7478 7477 -7462 0
-7479 7478 7463 0
-7479 -7478 -7463 0
7479 -7478 7463 0
7479 7478 -7463 0
-7480 7479 7464 0
-7480 -7479 -7464 0
7480 -7479 7464 0
7480 7479 -7464 0
-7481 7480 7465 0
-7481 -7480 -7465 0
7481 -7480 7465 0
7481 7480 -7465 0
-7482 7481 7466 0
-7482 -7481 -7466 0
7482 -7481 7466 0
7482 7481 -7466 0
-7483 7482 7467 0
-7483 -7482 -7467 0
7483 -7482 7467 0
7483 7482 -7467 0
-7484 7483 7468 0
-7484 -7483 -7468 0
7484 -7483 7468 0
7484 7483 -7468 0
-7485 7484 7469 0
-7485 -7484 -7469 0
7485 -7484 7469 0
7485 7484 -7469 0
-7486 7485 7470 0
-7486 -7485 -7470 0
7486 -7485 7470 0
7486 7485 -7470 0
-7487 7486 7471 0
-7487 -7486 -7471 0
7487 -7486 7471 0
7487 7486 -7471 0
-7488 7487 7472 0
-7488 -7487 -7472 0
7488 -7487 7472 0
7488 7487 -7472 0
-7489 7488 7473 0
-7489 -7488 -7473 0
7489 -7488 7473 0
7489 7488 -7473 0
-7490 7489 7474 0
-7490 -7489 -7474 0
7490 -7489 7474 0
7490 7489 -7474 0
-7491 7490 7475 0
-7491 -7490 -7475 0
7491 -7490 7475 0
7491 7490 -7475 0
-7492 7491 7476 0
-7492 -7491 -7476 0
7492 -7491 7476 0
7492 7491 -7476 0
-7492 0
-7493 7146 0
-7493 43 0
7493 -7146 -43 0
-7494 7148 0
-7494 43 0
7494 -7148 -43 0
-7495 7150 0
-7495 48 0
7495 -7150 -48 0
-7496 7152 0
-7496 38 0
7496 -7152 -38 0
-7497 7154 0
-7497 48 0
7497 -7154 -48 0
-7498 7156 0
-7498 38 0
7498 -7156 -38 0
-7499 7158 0
-7499 43 0
7499 -7158 -43 0
-7500 7160 0
-7500 43 0
7500 -7160 -43 0
-7501 7162 0
-7501 48 0
7501 -7162 -48 0
-7502 7164 0
-7502 38 0
7502 -7164 -38 0
-7503 7166 0
-7503 48 0
7503 -7166 -48 0
-7504 7168 0
-7504 38 0
7504 -7168 -38 0
-7505 7170 0
-7505 91 0
7505 -7170 -91 0
-7506 7172 0
-7506 91 0
7506 -7172 -91 0
-7507 7174 0
-7507 139 0
7507 -7174 -139 0
-7508 7176 0
-7508 139 0
7508 -7176 -139 0
-7509 7178 0
-7509 187 0
7509 -7178 -187 0
-7510 7493 7494 0
-7510 -7493 -7494 0
7510 -7493 7494 0
7510 7493 -7494 0
-7511 7510 7495 0
-7511 -7510 -7495 0
7511 -7510 7495 0
7511 7510 -7495 0
-7512 7511 7496 0
-7512 -7511 -7496 0
7512 -7511 7496 0
7512 7511 -7496 0
-7513 7512 7497 0
-7513 -7512 -7497 0
7513 -7512 7497 0
7513 7512 -7497 0
-7514 7513 7498 0
-7514 -7513 -7498 0
7514 -7513 7498 0
7514 7513 -7498 0
-7515 7514 7499 0
-7515 -7514 -7499 0
7515 -7514 7499 0
7515 7514 -7499 0
-7516 7515 7500 0
-7516 -7515 -7500 0
7516 -7515 7500 0
7516 7515 -7500 0
-7517 7516 7501 0
-7517 -7516 -7501 0
7517 -7516 7501 0
7517 7516 -7501 0
-7518 7517 7502 0
-7518 -7517 -7502 0
7518 -7517 7502 0
7518 7517 -7502 0
-7519 7518 7503 0
-7519 -7518 -7503 0
7519 -7518 7503 0
7519 7518 -7503 0
-7520 7519 7504 0
-7520 -7519 -7504 0
7520 -7519 7504 0
7520 7519 -7504 0
-7521 7520 7505 0
-7521 -7520 -7505 0
7521 -7520 7505 0
7521 7520 -7505 0
-7522 7521 7506 0
-7522 -7521 -7506 0
7522 -7521 7506 0
7522 7521 -7506 0
-7523 7522 7507 0
-7523 -7522 -7507 0
7523 -7522 7507 0
7523 7522 -7507 0
-7524 7523 7508 0
-7524 -7523 -7508 0
7524 -7523 7508 0
7524 7523 -7508 0
-7525 7524 7509 0
-7525 -7524 -7509 0
7525 -7524 7509 0
7525 7524 -7509 0
-7525 0
-7526 7146 0
-7526 44 0
7526 -7146 -44 0
-7527 7148 0
-7527 42 0
7527 -7148 -42 0
-7528 7150 0
-7528 47 0
7528 -7150 -47 0
-7529 7152 0
-7529 39 0
7529 -7152 -39 0
-7530 7154 0
-7530 46 0
7530 -7154 -46 0
-7531 7156 0
-7531 40 0
7531 -7156 -40 0
-7532 7158 0
-7532 47 0
7532 -7158 -47 0
-7533 7160 0
-7533 39 0
7533 -7160 -39 0
-7534 7162 0
-7534 44 0
7534 -7162 -44 0
-7535 7164 0
-7535 42 0
7535 -7164 -42 0
-7536 7166 0
-7536 40 0
7536 -7166 -40 0
-7537 7168 0
-7537 46 0
7537 -7168 -46 0
-7538 7170 0
-7538 92 0
7538 -7170 -92 0
-7539 7172 0
-7539 95 0
7539 -7172 -95 0
-7540 7174 0
-7540 140 0
7540 -7174 -140 0
-7541 7176 0
-7541 143 0
7541 -7176 -143 0
-7542 7178 0
-7542 188 0
7542 -7178 -188 0
-7543 7526 7527 0
-7543 -7526 -7527 0
7543 -7526 7527 0
7543 7526 -7527 0
-7544 7543 7528 0
-7544 -7543 -7528 0
7544 -7543 7528 0
7544 7543 -7528 0
-7545 7544 7529 0
-7545 -7544 -7529 0
7545 -7544 7529 0
7545 7544 -7529 0
-7546 7545 7530 0
-7546 -7545 -7530 0
7546 -7545 7530 0
7546 7545 -7530 0
-7547 7546 7531 0
-7547 -7546 -7531 0
7547 -7546 7531 0
7547 7546 -7531 0
-7548 7547 7532 0
-7548 -7547 -7532 0
7548 -7547 7532 0
7548 7547 -7532 0
-7549 7548 7533 0
-7549 -7548 -7533 0
7549 -7548 7533 0
7549 7548 -7533 0
-7550 7549 7534 0
-7550 -7549 -7534 0
7550 -7549 7534 0
7550 7549 -7534 0
-7551 7550 7535 0
-7551 -7550 -7535 0
7551 -7550 7535 0
7551 7550 -7535 0
-7552 7551 7536 0
-7552 -7551 -7536 0
7552 -7551 7536 0
7552 7551 -7536 0
-7553 7552 7537 0
-7553 -7552 -7537 0
7553 -7552 7537 0
7553 7552 -7537 0
-7554 7553 7538 0
-7554 -7553 -7538 0
7554 -7553 7538 0
7554 7553 -7538 0
-7555 7554 7539 0
-7555 -7554 -7539 0
7555 -7554 7539 0
7555 7554 -7539 0
-7556 7555 7540 0
-7556 -7555 -7540 0
7556 -7555 7540 0
7556 7555 -7540 0
-7557 7556 7541 0
-7557 -7556 -7541 0
7557 -7556 7541 0
7557 7556 -7541 0
-7558 7557 7542 0
-7558 -7557 -7542 0
7558 -7557 7542 0
7558 7557 -7542 0
-7558 0
-7559 7146 0
-7559 45 0
7559 -7146 -45 0
-7560 7148 0
-7560 37 0
7560 -7148 -37 0
-7561 7150 0
-7561 41 0
7561 -7150 -41 0
-7562 7152 0
-7562 41 0
7562 -7152 -41 0
-7563 7154 0
-7563 37 0
7563 -7154 -37 0
-7564 7156 0
-7564 45 0
7564 -7156 -45 0
-7565 7158 0
-7565 36 0
7565 -7158 -36 0
-7566 7160 0
-7566 34 0
7566 -7160 -34 0
-7567 7162 0
-7567 35 0
7567 -7162 -35 0
-7568 7164 0
-7568 35 0
7568 -7164 -35 0
-7569 7166 0
-7569 34 0
7569 -7166 -34 0
-7570 7168 0
-7570 36 0
7570 -7168 -36 0
-7571 7170 0
-7571 93 0
7571 -7170 -93 0
-7572 7172 0
-7572 84 0
7572 -7172 -84 0
-7573 7174 0
-7573 141 0
7573 -7174 -141 0
-7574 7176 0
-7574 132 0
7574 -7176 -132 0
-7575 7178 0
-7575 189 0
7575 -7178 -189 0
-7576 7559 7560 0
-7576 -7559 -7560 0
7576 -7559 7560 0
7576 7559 -7560 0
-7577 7576 7561 0
-7577 -7576 -7561 0
7577 -7576 7561 0
7577 7576 -7561 0
-7578 7577 7562 0
-7578 -7577 -7562 0
7578 -7577 7562 0
7578 7577 -7562 0
-7579 7578 7563 0
-7579 -7578 -7563 0
7579 -7578 7563 0
7579 7578 -7563 0
-7580 7579 7564 0
-7580 -7579 -7564 0
7580 -7579 7564 0
7580 7579 -7564 0
-7581 7580 7565 0
-7581 -7580 -7565 0
7581 -7580 7565 0
7581 7580 -7565 0
-7582 7581 7566 0
-7582 -7581 -7566 0
7582 -7581 7566 0
7582 7581 -7566 0
-7583 7582 7567 0
-7583 -7582 -7567 0
7583 -7582 7567 0
7583 7582 -7567 0
-7584 7583 7568 0
-7584 -7583 -7568 0
7584 -7583 7568 0
7584 7583 -7568 0
-7585 7584 7569 0
-7585 -7584 -7569 0
7585 -7584 7569 0
7585 7584 -7569 0
-7586 7585 7570 0
-7586 -7585 -7570 0
7586 -7585 7570 0
7586 7585 -7570 0
-7587 7586 7571 0
-7587 -7586 -7571 0
7587 -7586 7571 0
7587 7586 -7571 0
-7588 7587 7572 0
-7588 -7587 -7572 0
7588 -7587 7572 0
7588 7587 -7572 0
-7589 7588 7573 0
-7589 -7588 -7573 0
7589 -7588 7573 0
7589 7588 -7573 0
-7590 7589 7574 0
-7590 -7589 -7574 0
7590 -7589 7574 0
7590 7589 -7574 0
-7591 7590 7575 0
-7591 -7590 -7575 0
7591 -7590 7575 0
7591 7590 -7575 0
-7591 0
-7592 7146 0
-7592 46 0
7592 -7146 -46 0
-7593 7148 0
-7593 40 0
7593 -7148 -40 0
-7594 7150 0
-7594 42 0
7594 -7150 -42 0
-7595 7152 0
-7595 44 0
7595 -7152 -44 0
-7596 7154 0
-7596 39 0
7596 -7154 -39 0
-7597 7156 0
-7597 47 0
7597 -7156 -47 0
-7598 7158 0
-7598 40 0
7598 -7158 -40 0
-7599 7160 0
-7599 46 0
7599 -7160 -46 0
-7600 7162 0
-7600 39 0
7600 -7162 -39 0
-7601 7164 0
-7601 47 0
7601 -7164 -47 0
-7602 7166 0
-7602 42 0
7602 -7166 -42 0
-7603 7168 0
-7603 44 0
7603 -7168 -44 0
-7604 7170 0
-7604 94 0
7604 -7170 -94 0
-7605 7172 0
-7605 88 0
7605 -7172 -88 0
-7606 7174 0
-7606 142 0
7606 -7174 -142 0
-7607 7176 0
-7607 136 0
7607 -7176 -136 0
-7608 7178 0
-7608 190 0
7608 -7178 -190 0
-7609 7592 7593 0
-7609 -7592 -7593 0
7609 -7592 7593 0
7609 7592 -7593 0
-7610 7609 7594 0
-7610 -7609 -7594 0
7610 -7609 7594 0
7610 7609 -7594 0
-7611 7610 7595 0
-7611 -7610 -7595 0
7611 -7610 7595 0
7611 7610 -7595 0
-7612 7611 7596 0
-7612 -7611 -7596 0
7612 -7611 7596 0
7612 7611 -7596 0
-7613 7612 7597 0
-7613 -7612 -7597 0
7613 -7612 7597 0
7613 7612 -7597 0
-7614 7613 7598 0
-7614 -7613 -7598 0
7614 -7613 7598 0
7614 7613 -7598 0
-7615 7614 7599 0
-7615 -7614 -7599 0
7615 -7614 7599 0
7615 7614 -7599 0
-7616 7615 7600 0
-7616 -7615 -7600 0
7616 -7615 7600 0
7616 7615 -7600 0
-7617 7616 7601 0
-7617 -7616 -7601 0
7617 -7616 7601 0
7617 7616 -7601 0
-7618 7617 7602 0
-7618 -7617 -7602 0
7618 -7617 7602 0
7618 7617 -7602 0
-7619 7618 7603 0
-7619 -7618 -7603 0
7619 -7618 7603 0
7619 7618 -7603 0
-7620 7619 7604 0
-7620 -7619 -7604 0
7620 -7619 7604 0
7620 7619 -7604 0
-7621 7620 7605 0
-7621 -7620 -7605 0
7621 -7620 7605 0
7621 7620 -7605 0
-7622 7621 7606 0
-7622 -7621 -7606 0
7622 -7621 7606 0
7622 7621 -7606 0
-7623 7622 7607 0
-7623 -7622 -7607 0
7623 -7622 7607 0
7623 7622 -7607 0
-7624 7623 7608 0
-7624 -7623 -7608 0
7624 -7623 7608 0
7624 7623 -7608 0
-7624 0
-7625 7146 0
-7625 47 0
7625 -7146 -47 0
-7626 7148 0
-7626 39 0
7626 -7148 -39 0
-7627 7150 0
-7627 44 0
7627 -7150 -44 0
-7628 7152 0
-7628 42 0
7628 -7152 -42 0
-7629 7154 0
-7629 40 0
7629 -7154 -40 0
-7630 7156 0
-7630 46 0
7630 -7156 -46 0
-7631 7158 0
-7631 44 0
7631 -7158 -44 0
-7632 7160 0
-7632 42 0
7632 -7160 -42 0
-7633 7162 0
-7633 47 0
7633 -7162 -47 0
-7634 7164 0
-7634 39 0
7634 -7164 -39 0
-7635 7166 0
-7635 46 0
7635 -7166 -46 0
-7636 7168 0
-7636 40 0
7636 -7168 -40 0
-7637 7170 0
-7637 95 0
7637 -7170 -95 0
-7638 7172 0
-7638 92 0
7638 -7172 -92 0
-7639 7174 0
-7639 143 0
7639 -7174 -143 0
-7640 7176 0
-7640 140 0
7640 -7176 -140 0
-7641 7178 0
-7641 191 0
7641 -7178 -191 0
-7642 7625 7626 0
-7642 -7625 -7626 0
7642 -7625 7626 0
7642 7625 -7626 0
-7643 7642 7627 0
-7643 -7642 -7627 0
7643 -7642 7627 0
7643 7642 -7627 0
-7644 7643 7628 0
-7644 -7643 -7628 0
7644 -7643 7628 0
7644 7643 -7628 0
-7645 7644 7629 0
-7645 -7644 -7629 0
7645 -7644 7629 0
7645 7644 -7629 0
-7646 7645 7630 0
-7646 -7645 -7630 0
7646 -7645 7630 0
7646 7645 -7630 0
-7647 7646 7631 0
-7647 -7646 -7631 0
7647 -7646 7631 0
7647 7646 -7631 0
-7648 7647 7632 0
-7648 -7647 -7632 0
7648 -7647 7632 0
7648 7647 -7632 0
-7649 7648 7633 0
-7649 -7648 -7633 0
7649 -7648 7633 0
7649 7648 -7633 0
-7650 7649 7634 0
-7650 -7649 -7634 0
7650 -7649 7634 0
7650 7649 -7634 0
-7651 7650 7635 0
-7651 -7650 -7635 0
7651 -7650 7635 0
7651 7650 -7635 0
-7652 7651 7636 0
-7652 -7651 -7636 0
7652 -7651 7636 0
7652 7651 -7636 0
-7653 7652 7637 0
-7653 -7652 -7637 0
7653 -7652 7637 0
7653 7652 -7637 0
-7654 7653 7638 0
-7654 -7653 -7638 0
7654 -7653 7638 0
7654 7653 -7638 0
-7655 7654 7639 0
-7655 -7654 -7639 0
7655 -7654 7639 0
7655 7654 -7639 0
-7656 7655 7640 0
-7656 -7655 -7640 0
7656 -7655 7640 0
7656 7655 -7640 0
-7657 7656 7641 0
-7657 -7656 -7641 0
7657 -7656 7641 0
7657 7656 -7641 0
-7657 0
-7658 7146 0
-7658 48 0
7658 -7146 -48 0
-7659 7148 0
-7659 38 0
7659 -7148 -38 0
-7660 7150 0
-7660 43 0
7660 -7150 -43 0
-7661 7152 0
-7661 43 0
7661 -7152 -43 0
-7662 7154 0
-7662 38 0
7662 -7154 -38 0
-7663 7156 0
-7663 48 0
7663 -7156 -48 0
-7664 7158 0
-7664 48 0
7664 -7158 -48 0
-7665 7160 0
-7665 38 0
7665 -7160 -38 0
-7666 7162 0
-7666 43 0
7666 -7162 -43 0
-7667 7164 0
-7667 43 0
7667 -7164 -43 0
-7668 7166 0
-7668 38 0
7668 -7166 -38 0
-7669 7168 0
-7669 48 0
7669 -7168 -48 0
-7670 7170 0
-7670 96 0
7670 -7170 -96 0
-7671 7172 0
-7671 96 0
7671 -7172 -96 0
-7672 7174 0
-7672 144 0
7672 -7174 -144 0
-7673 7176 0
-7673 144 0
7673 -7176 -144 0
-7674 7178 0
-7674 192 0
7674 -7178 -192 0
-7675 7658 7659 0
-7675 -7658 -7659 0
7675 -7658 7659 0
7675 7658 -7659 0
-7676 7675 7660 0
-7676 -7675 -7660 0
7676 -7675 7660 0
7676 7675 -7660 0
-7677 7676 7661 0
-7677 -7676 -7661 0
7677 -7676 7661 0
7677 7676 -7661 0
-7678 7677 7662 0
-7678 -7677 -7662 0
7678 -7677 7662 0
7678 7677 -7662 0
-7679 7678 7663 0
-7679 -7678 -7663 0
7679 -7678 7663 0
7679 7678 -7663 0
-7680 7679 7664 0
-7680 -7679 -7664 0
7680 -7679 7664 0
7680 7679 -7664 0
-7681 7680 7665 0
-7681 -7680 -7665 0
7681 -7680 7665 0
7681 7680 -7665 0
-7682 7681 7666 0
-7682 -7681 -7666 0
7682 -7681 7666 0
7682 7681 -7666 0
-7683 7682 7667 0
-7683 -7682 -7667 0
7683 -7682 7667 0
7683 7682 -7667 0
-7684 7683 7668 0
-7684 -7683 -7668 0
7684 -7683 7668 0
7684 7683 -7668 0
-7685 7684 7669 0
-7685 -7684 -7669 0
7685 -7684 7669 0
7685 7684 -7669 0
-7686 7685 7670 0
-7686 -7685 -7670 0
7686 -7685 7670 0
7686 7685 -7670 0
-7687 7686 7671 0
-7687 -7686 -7671 0
7687 -7686 7671 0
7687 7686 -7671 0
-7688 7687 7672 0
-7688 -7687 -7672 0
7688 -7687 7672 0
7688 7687 -7672 0
-7689 7688 7673 0
-7689 -7688 -7673 0
7689 -7688 7673 0
7689 7688 -7673 0
-7690 7689 7674 0
-7690 -7689 -7674 0
7690 -7689 7674 0
7690 7689 -7674 0
-7690 0
-7691 5 0
-7691 24 0
7691 -5 -24 0
-7692 7691 0
-7692 33 0
7692 -7691 -33 0
-7693 13 0
-7693 26 0
7693 -13 -26 0
-7694 7693 0
-7694 33 0
7694 -7693 -33 0
-7695 6 0
-7695 19 0
7695 -6 -19 0
-7696 7695 0
-7696 33 0
7696 -7695 -33 0
-7697 15 0
-7697 19 0
7697 -15 -19 0
-7698 7697 0
-7698 33 0
7698 -7697 -33 0
-7699 10 0
-7699 26 0
7699 -10 -26 0
-7700 7699 0
-7700 33 0
7700 -7699 -33 0
-7701 11 0
-7701 24 0
7701 -11 -24 0
-7702 7701 0
-7702 33 0
7702 -7701 -33 0
-7703 18 0
-7703 14 0
7703 -18 -14 0
-7704 7703 0
-7704 33 0
7704 -7703 -33 0
-7705 20 0
-7705 7 0
7705 -20 -7 0
-7706 7705 0
-7706 33 0
7706 -7705 -33 0
-7707 22 0
-7707 9 0
7707 -22 -9 0
-7708 7707 0
-7708 33 0
7708 -7707 -33 0
-7709 28 0
-7709 9 0
7709 -28 -9 0
-7710 7709 0
-7710 33 0
7710 -7709 -33 0
-7711 23 0
-7711 7 0
7711 -23 -7 0
-7712 7711 0
-7712 33 0
7712 -7711 -33 0
-7713 27 0
-7713 14 0
7713 -27 -14 0
-7714 7713 0
-7714 33 0
7714 -7713 -33 0
-7715 53 0
-7715 72 0
7715 -53 -72 0
-7716 7715 0
-7716 81 0
7716 -7715 -81 0
-7717 66 0
-7717 62 0
7717 -66 -62 0
-7718 7717 0
-7718 81 0
7718 -7717 -81 0
-7719 101 0
-7719 120 0
7719 -101 -120 0
-7720 7719 0
-7720 129 0
7720 -7719 -129 0
-7721 114 0
-7721 110 0
7721 -114 -110 0
-7722 7721 0
-7722 129 0
7722 -7721 -129 0
-7723 149 0
-7723 168 0
7723 -149 -168 0
-7724 7723 0
-7724 177 0
7724 -7723 -177 0
-7725 7692 7694 0
-7725 -7692 -7694 0
7725 -7692 7694 0
7725 7692 -7694 0
-7726 7725 7696 0
-7726 -7725 -7696 0
7726 -7725 7696 0
7726 7725 -7696 0
-7727 7726 7698 0
-7727 -7726 -7698 0
7727 -7726 7698 0
7727 7726 -7698 0
-7728 7727 7700 0
-7728 -7727 -7700 0
7728 -7727 7700 0
7728 7727 -7700 0
-7729 7728 7702 0
-7729 -7728 -7702 0
7729 -7728 7702 0
7729 7728 -7702 0
-7730 7729 7704 0
-7730 -7729 -7704 0
7730 -7729 7704 0
7730 7729 -7704 0
-7731 7730 7706 0
-7731 -7730 -7706 0
7731 -7730 7706 0
7731 7730 -7706 0
-7732 7731 7708 0
-7732 -7731 -7708 0
7732 -7731 7708 0
7732 7731 -7708 0
-7733 7732 7710 0
-7733 -7732 -7710 0
7733 -7732 7710 0
7733 7732 -7710 0
-7734 7733 7712 0
-7734 -7733 -7712 0
7734 -7733 7712 0
7734 7733 -7712 0
-7735 7734 7714 0
-7735 -7734 -7714 0
7735 -7734 7714 0
7735 7734 -7714 0
-7736 7735 7716 0
-7736 -7735 -7716 0
7736 -7735 7716 0
7736 7735 -7716 0
-7737 7736 7718 0
-7737 -7736 -7718 0
7737 -7736 7718 0
7737 7736 -7718 0
-7738 7737 7720 0
-7738 -7737 -7720 0
7738 -7737 7720 0
7738 7737 -7720 0
-7739 7738 7722 0
-7739 -7738 -7722 0
7739 -7738 7722 0
7739 7738 -7722 0
-7740 7739 7724 0
-7740 -7739 -7724 0
7740 -7739 7724 0
7740 7739 -7724 0
-7740 0
-7741 7691 0
-7741 34 0
7741 -7691 -34 0
-7742 7693 0
-7742 36 0
7742 -7693 -36 0
-7743 7695 0
-7743 34 0
7743 -7695 -34 0
-7744 7697 0
-7744 36 0
7744 -7697 -36 0
-7745 7699 0
-7745 35 0
7745 -7699 -35 0
-7746 7701 0
-7746 35 0
7746 -7701 -35 0
-7747 7703 0
-7747 37 0
7747 -7703 -37 0
-7748 7705 0
-7748 45 0
7748 -7705 -45 0
-7749 7707 0
-7749 37 0
7749 -7707 -37 0
-7750 7709 0
-7750 45 0
7750 -7709 -45 0
-7751 7711 0
-7751 41 0
7751 -7711 -41 0
-7752 7713 0
-7752 41 0
7752 -7713 -41 0
-7753 7715 0
-7753 82 0
7753 -7715 -82 0
-7754 7717 0
-7754 85 0
7754 -7717 -85 0
-7755 7719 0
-7755 130 0
7755 -7719 -130 0
-7756 7721 0
-7756 133 0
7756 -7721 -133 0
-7757 7723 0
-7757 178 0
7757 -7723 -178 0
-7758 7741 7742 0
-7758 -7741 -7742 0
7758 -7741 7742 0
7758 7741 -7742 0
-7759 7758 7743 0
-7759 -7758 -7743 0
7759 -7758 7743 0
7759 7758 -7743 0
-7760 7759 7744 0
-7760 -7759 -7744 0
7760 -7759 7744 0
7760 7759 -7744 0
-7761 7760 7745 0
-7761 -7760 -7745 0
7761 -7760 7745 0
7761 7760 -7745 0
-7762 7761 7746 0
-7762 -7761 -7746 0
7762 -7761 7746 0
7762 7761 -7746 0
-7763 7762 7747 0
-7763 -7762 -7747 0
7763 -7762 7747 0
7763 7762 -7747 0
-7764 7763 7748 0
-7764 -7763 -7748 0
7764 -7763 7748 0
7764 7763 -7748 0
-7765 7764 7749 0
-7765 -7764 -7749 0
7765 -7764 7749 0
7765 7764 -7749 0
-7766 7765 7750 0
-7766 -7765 -7750 0
7766 -7765 7750 0
7766 7765 -7750 0
-7767 7766 7751 0
-7767 -7766 -7751 0
7767 -7766 7751 0
7767 7766 -7751 0
-7768 7767 7752 0
-7768 -7767 -7752 0
7768 -7767 7752 0
7768 7767 -7752 0
-7769 7768 7753 0
-7769 -7768 -7753 0
7769 -7768 7753 0
7769 7768 -7753 0
-7770 7769 7754 0
-7770 -7769 -7754 0
7770 -7769 7754 0
7770 7769 -7754 0
-7771 7770 7755 0
-7771 -7770 -7755 0
7771 -7770 7755 0
7771 7770 -7755 0
-7772 7771 7756 0
-7772 -7771 -7756 0
7772 -7771 7756 0
7772 7771 -7756 0
-7773 7772 7757 0
-7773 -7772 -7757 0
7773 -7772 7757 0
7773 7772 -7757 0
-7773 0
-7774 7691 0
-7774 35 0
7774 -7691 -35 0
-7775 7693 0
-7775 35 0
7775 -7693 -35 0
-7776 7695 0
-7776 36 0
7776 -7695 -36 0
-7777 7697 0
-7777 34 0
7777 -7697 -34 0
-7778 7699 0
-7778 36 0
7778 -7699 -36 0
-7779 7701 0
-7779 34 0
7779 -7701 -34 0
-7780 7703 0
-7780 41 0
7780 -7703 -41 0
-7781 7705 0
-7781 41 0
7781 -7705 -41 0
-7782 7707 0
-7782 45 0
7782 -7707 -45 0
-7783 7709 0
-7783 37 0
7783 -7709 -37 0
-7784 7711 0
-7784 45 0
7784 -7711 -45 0
-7785 7713 0
-7785 37 0
7785 -7713 -37 0
-7786 7715 0
-7786 83 0
7786 -7715 -83 0
-7787 7717 0
-7787 89 0
7787 -7717 -89 0
-7788 7719 0
-7788 131 0
7788 -7719 -131 0
-7789 7721 0
-7789 137 0
7789 -7721 -137 0
-7790 7723 0
-7790 179 0
7790 -7723 -179 0
-7791 7774 7775 0
-7791 -7774 -7775 0
7791 -7774 7775 0
7791 7774 -7775 0
-7792 7791 7776 0
-7792 -7791 -7776 0
7792 -7791 7776 0
7792 7791 -7776 0
-7793 7792 7777 0
-7793 -7792 -7777 0
7793 -7792 7777 0
7793 7792 -7777 0
-7794 7793 7778 0
-7794 -7793 -7778 0
7794 -7793 7778 0
7794 7793 -7778 0
-7795 7794 7779 0
-7795 -7794 -7779 0
7795 -7794 7779 0
7795 7794 -7779 0
-7796 7795 7780 0
-7796 -7795 -7780 0
7796 -7795 7780 0
7796 7795 -7780 0
-7797 7796 7781 0
-7797 -7796 -7781 0
7797 -7796 7781 0
7797 7796 -7781 0
-7798 7797 7782 0
-7798 -7797 -7782 0
7798 -7797 7782 0
7798 7797 -7782 0
-7799 7798 7783 0
-7799 -7798 -7783 0
7799 -7798 7783 0
7799 7798 -7783 0
-7800 7799 7784 0
-7800 -7799 -7784 0
7800 -7799 7784 0
7800 7799 -7784 0
-7801 7800 7785 0
-7801 -7800 -7785 0
7801 -7800 7785 0
7801 7800 -7785 0
-7802 7801 7786 0
-7802 -7801 -7786 0
7802 -7801 7786 0
7802 7801 -7786 0
-7803 7802 7787 0
-7803 -7802 -7787 0
7803 -7802 7787 0
7803 7802 -7787 0
-7804 7803 7788 0
-7804 -7803 -7788 0
7804 -7803 7788 0
7804 7803 -7788 0
-7805 7804 7789 0
-7805 -7804 -7789 0
7805 -7804 7789 0
7805 7804 -7789 0
-7806 7805 7790 0
-7806 -7805 -7790 0
7806 -7805 7790 0
7806 7805 -7790 0
-7806 0
-7807 7691 0
-7807 36 0
7807 -7691 -36 0
-7808 7693 0
-7808 34 0
7808 -7693 -34 0
-7809 7695 0
-7809 35 0
7809 -7695 -35 0
-7810 7697 0
-7810 35 0
7810 -7697 -35 0
-7811 7699 0
-7811 34 0
7811 -7699 -34 0
-7812 7701 0
-7812 36 0
7812 -7701 -36 0
-7813 7703 0
-7813 45 0
7813 -7703 -45 0
-7814 7705 0
-7814 37 0
7814 -7705 -37 0
-7815 7707 0
-7815 41 0
7815 -7707 -41 0
-7816 7709 0
-7816 41 0
7816 -7709 -41 0
-7817 7711 0
-7817 37 0
7817 -7711 -37 0
-7818 7713 0
-7818 45 0
7818 -7713 -45 0
-7819 7715 0
-7819 84 0
7819 -7715 -84 0
-7820 7717 0
-7820 93 0
7820 -7717 -93 0
-7821 7719 0
-7821 132 0
7821 -7719 -132 0
-7822 7721 0
-7822 141 0
7822 -7721 -141 0
-7823 7723 0
-7823 180 0
7823 -7723 -180 0
-7824 7807 7808 0
-7824 -7807 -7808 0
7824 -7807 7808 0
7824 7807 -7808 0
-7825 7824 7809 0
-7825 -7824 -7809 0
7825 -7824 7809 0
7825 7824 -7809 0
-7826 7825 7810 0
-7826 -7825 -7810 0
7826 -7825 7810 0
7826 7825 -7810 0
-7827 7826 7811 0
-7827 -7826 -7811 0
7827 -7826 7811 0
7827 7826 -7811 0
-7828 7827 7812 0
-7828 -7827 -7812 0
7828 -7827 7812 0
7828 7827 -7812 0
-7829 7828 7813 0
-7829 -7828 -7813 0
7829 -7828 7813 0
7829 7828 -7813 0
-7830 7829 7814 0
-7830 -7829 -7814 0
7830 -7829 7814 0
7830 7829 -7814 0
-7831 7830 7815 0
-7831 -7830 -7815 0
7831 -7830 7815 0
7831 7830 -7815 0
-7832 7831 7816 0
-7832 -7831 -7816 0
7832 -7831 7816 0
7832 7831 -7816 0
-7833 7832 7817 0
-7833 -7832 -7817 0
7833 -7832 7817 0
7833 7832 -7817 0
-7834 7833 7818 0
-7834 -7833 -7818 0
7834 -7833 7818 0
7834 7833 -7818 0
-7835 7834 7819 0
-7835 -7834 -7819 0
7835 -7834 7819 0
7835 7834 -7819 0
-7836 7835 7820 0
-7836 -7835 -7820 0
7836 -7835 7820 0
7836 7835 -7820 0
-7837 7836 7821 0
-7837 -7836 -7821 0
7837 -7836 7821 0
7837 7836 -7821 0
-7838 7837 7822 0
-7838 -7837 -7822 0
7838 -7837 7822 0
7838 7837 -7822 0
-7839 7838 7823 0
-7839 -7838 -7823 0
7839 -7838 7823 0
7839 7838 -7823 0
-7839 0
-7840 7691 0
-7840 37 0
7840 -7691 -37 0
-7841 7693 0
-7841 45 0
7841 -7693 -45 0
-7842 7695 0
-7842 37 0
7842 -7695 -37 0
-7843 7697 0
-7843 45 0
7843 -7697 -45 0
-7844 7699 0
-7844 41 0
7844 -7699 -41 0
-7845 7701 0
-7845 41 0
7845 -7701 -41 0
-7846 7703 0
-7846 34 0
7846 -7703 -34 0
-7847 7705 0
-7847 36 0
7847 -7705 -36 0
-7848 7707 0
-7848 34 0
7848 -7707 -34 0
-7849 7709 0
-7849 36 0
7849 -7709 -36 0
-7850 7711 0
-7850 35 0
7850 -7711 -35 0
-7851 7713 0
-7851 35 0
7851 -7713 -35 0
-7852 7715 0
-7852 85 0
7852 -7715 -85 0
-7853 7717 0
-7853 82 0
7853 -7717 -82 0
-7854 7719 0
-7854 133 0
7854 -7719 -133 0
-7855 7721 0
-7855 130 0
7855 -7721 -130 0
-7856 7723 0
-7856 181 0
7856 -7723 -181 0
-7857 7840 7841 0
-7857 -7840 -7841 0
7857 -7840 7841 0
7857 7840 -7841 0
-7858 7857 7842 0
-7858 -7857 -7842 0
7858 -7857 7842 0
7858 7857 -7842 0
-7859 7858 7843 0
-7859 -7858 -7843 0
7859 -7858 7843 0
7859 7858 -7843 0
-7860 7859 7844 0
-7860 -7859 -7844 0
7860 -7859 7844 0
7860 7859 -7844 0
-7861 7860 7845 0
-7861 -7860 -7845 0
7861 -7860 7845 0
7861 7860 -7845 0
-7862 7861 7846 0
-7862 -7861 -7846 0
7862 -7861 7846 0
7862 7861 -7846 0
-7863 7862 7847 0
-7863 -7862 -7847 0
7863 -7862 7847 0
7863 7862 -7847 0
-7864 7863 7848 0
-7864 -7863 -7848 0
7864 -7863 7848 0
7864 7863 -7848 0
-7865 7864 7849 0
-7865 -7864 -7849 0
7865 -7864 7849 0
7865 7864 -7849 0
-7866 7865 7850 0
-7866 -7865 -7850 0
7866 -7865 7850 0
7866 7865 -7850 0
-7867 7866 7851 0
-7867 -7866 -7851 0
7867 -7866 7851 0
7867 7866 -7851 0
-7868 7867 7852 0
-7868 -7867 -7852 0
7868 -7867 7852 0
7868 7867 -7852 0
-7869 7868 7853 0
-7869 -7868 -7853 0
7869 -7868 7853 0
7869 7868 -7853 0
-7870 7869 7854 0
-7870 -7869 -7854 0
7870 -7869 7854 0
7870 7869 -7854 0
-7871 7870 7855 0
-7871 -7870 -7855 0
7871 -7870 7855 0
7871 7870 -7855 0
-7872 7871 7856 0
-7872 -7871 -7856 0
7872 -7871 7856 0
7872 7871 -7856 0
-7872 0
-7873 7691 0
-7873 38 0
7873 -7691 -38 0
-7874 7693 0
-7874 48 0
7874 -7693 -48 0
-7875 7695 0
-7875 38 0
7875 -7695 -38 0
-7876 7697 0
-7876 48 0
7876 -7697 -48 0
-7877 7699 0
-7877 43 0
7877 -7699 -43 0
-7878 7701 0
-7878 43 0
7878 -7701 -43 0
-7879 7703 0
-7879 38 0
7879 -7703 -38 0
-7880 7705 0
-7880 48 0
7880 -7705 -48 0
-7881 7707 0
-7881 38 0
7881 -7707 -38 0
-7882 7709 0
-7882 48 0
7882 -7709 -48 0
-7883 7711 0
-7883 43 0
7883 -7711 -43 0
-7884 7713 0
-7884 43 0
7884 -7713 -43 0
-7885 7715 0
-7885 86 0
7885 -7715 -86 0
-7886 7717 0
-7886 86 0
7886 -7717 -86 0
-7887 7719 0
-7887 134 0
7887 -7719 -134 0
-7888 7721 0
-7888 134 0
7888 -7721 -134 0
-7889 7723 0
-7889 182 0
7889 -7723 -182 0
-7890 7873 7874 0
-7890 -7873 -7874 0
7890 -7873 7874 0
7890 7873 -7874 0
-7891 7890 7875 0
-7891 -7890 -7875 0
7891 -7890 7875 0
7891 7890 -7875 0
-7892 7891 7876 0
-7892 -7891 -7876 0
7892 -7891 7876 0
7892 7891 -7876 0
-7893 7892 7877 0
-7893 -7892 -7877 0
7893 -7892 7877 0
7893 7892 -7877 0
-7894 7893 7878 0
-7894 -7893 -7878 0
7894 -7893 7878 0
7894 7893 -7878 0
-7895 7894 7879 0
-7895 -7894 -7879 0
7895 -7894 7879 0
7895 7894 -7879 0
-7896 7895 7880 0
-7896 -7895 -7880 0
7896 -7895 7880 0
7896 7895 -7880 0
-7897 7896 7881 0
-7897 -7896 -7881 0
7897 -7896 7881 0
7897 7896 -7881 0
-7898 7897 7882 0
-7898 -7897 -7882 0
7898 -7897 7882 0
7898 7897 -7882 0
-7899 7898 7883 0
-7899 -7898 -7883 0
7899 -7898 7883 0
7899 7898 -7883 0
-7900 7899 7884 0
-7900 -7899 -7884 0
7900 -7899 7884 0
7900 7899 -7884 0
-7901 7900 7885 0
-7901 -7900 -7885 0
7901 -7900 7885 0
7901 7900 -7885 0
-7902 7901 7886 0
-7902 -7901 -7886 0
7902 -7901 7886 0
7902 7901 -7886 0
-7903 7902 7887 0
-7903 -7902 -7887 0
7903 -7902 7887 0
7903 7902 -7887 0
-7904 7903 7888 0
-7904 -7903 -7888 0
7904 -7903 7888 0
7904 7903 -7888 0
-7905 7904 7889 0
-7905 -7904 -7889 0
7905 -7904 7889 0
7905 7904 -7889 0
-7905 0
-7906 7691 0
-7906 39 0
7906 -7691 -39 0
-7907 7693 0
-7907 47 0
7907 -7693 -47 0
-7908 7695 0
-7908 40 0
7908 -7695 -40 0
-7909 7697 0
-7909 46 0
7909 -7697 -46 0
-7910 7699 0
-7910 44 0
7910 -7699 -44 0
-7911 7701 0
-7911 42 0
7911 -7701 -42 0
-7912 7703 0
-7912 42 0
7912 -7703 -42 0
-7913 7705 0
-7913 44 0
7913 -7705 -44 0
-7914 7707 0
-7914 46 0
7914 -7707 -46 0
-7915 7709 0
-7915 40 0
7915 -7709 -40 0
-7916 7711 0
-7916 47 0
7916 -7711 -47 0
-7917 7713 0
-7917 39 0
7917 -7713 -39 0
-7918 7715 0
-7918 87 0
7918 -7715 -87 0
-7919 7717 0
-7919 90 0
7919 -7717 -90 0
-7920 7719 0
-7920 135 0
7920 -7719 -135 0
-7921 7721 0
-7921 138 0
7921 -7721 -138 0
-7922 7723 0
-7922 183 0
7922 -7723 -183 0
-7923 7906 7907 0
-7923 -7906 -7907 0
7923 -7906 7907 0
7923 7906 -7907 0
-7924 7923 7908 0
-7924 -7923 -7908 0
7924 -7923 7908 0
7924 7923 -7908 0
-7925 7924 7909 0
-7925 -7924 -7909 0
7925 -7924 7909 0
7925 7924 -7909 0
-7926 7925 7910 0
-7926 -7925 -7910 0
7926 -7925 7910 0
7926 7925 -7910 0
-7927 7926 7911 0
-7927 -7926 -7911 0
7927 -7926 7911 0
7927 7926 -7911 0
-7928 7927 7912 0
-7928 -7927 -7912 0
7928 -7927 7912 0
7928 7927 -7912 0
-7929 7928 7913 0
-7929 -7928 -7913 0
7929 -7928 7913 0
7929 7928 -7913 0
-7930 7929 7914 0
-7930 -7929 -7914 0
7930 -7929 7914 0
7930 7929 -7914 0
-7931 7930 7915 0
-7931 -7930 -7915 0
7931 -7930 7915 0
7931 7930 -7915 0
-7932 7931 7916 0
-7932 -7931 -7916 0
7932 -7931 7916 0
7932 7931 -7916 0
-7933 7932 7917 0
-7933 -7932 -7917 0
7933 -7932 7917 0
7933 7932 -7917 0
-7934 7933 7918 0
-7934 -7933 -7918 0
7934 -7933 7918 0
7934 7933 -7918 0
-7935 7934 7919 0
-7935 -7934 -7919 0
7935 -7934 7919 0
7935 7934 -7919 0
-7936 7935 7920 0
-7936 -7935 -7920 0
7936 -7935 7920 0
7936 7935 -7920 0
-7937 7936 7921 0
-7937 -7936 -7921 0
7937 -7936 7921 0
7937 7936 -7921 0
-7938 7937 7922 0
-7938 -7937 -7922 0
7938 -7937 7922 0
7938 7937 -7922 0
-7938 0
-7939 7691 0
-7939 40 0
7939 -7691 -40 0
-7940 7693 0
-7940 46 0
7940 -7693 -46 0
-7941 7695 0
-7941 39 0
7941 -7695 -39 0
-7942 7697 0
-7942 47 0
7942 -7697 -47 0
-7943 7699 0
-7943 42 0
7943 -7699 -42 0
-7944 7701 0
-7944 44 0
7944 -7701 -44 0
-7945 7703 0
-7945 46 0
7945 -7703 -46 0
-7946 7705 0
-7946 40 0
7946 -7705 -40 0
-7947 7707 0
-7947 42 0
7947 -7707 -42 0
-7948 7709 0
-7948 44 0
7948 -7709 -44 0
-7949 7711 0
-7949 39 0
7949 -7711 -39 0
-7950 7713 0
-7950 47 0
7950 -7713 -47 0
-7951 7715 0
-7951 88 0
7951 -7715 -88 0
-7952 7717 0
-7952 94 0
7952 -7717 -94 0
-7953 7719 0
-7953 136 0
7953 -7719 -136 0
-7954 7721 0
-7954 142 0
7954 -7721 -142 0
-7955 7723 0
-7955 184 0
7955 -7723 -184 0
-7956 7939 7940 0
-7956 -7939 -7940 0
7956 -7939 7940 0
7956 7939 -7940 0
-7957 7956 7941 0
-7957 -7956 -7941 0
7957 -7956 7941 0
7957 7956 -7941 0
-7958 7957 7942 0
-7958 -7957 -7942 0
7958 -7957 7942 0
7958 7957 -7942 0
-7959 7958 7943 0
-7959 -7958 -7943 0
7959 -7958 7943 0
7959 7958 -7943 0
-7960 7959 7944 0
-7960 -7959 -7944 0
7960 -7959 7944 0
7960 7959 -7944 0
-7961 7960 7945 0
-7961 -7960 -7945 0
7961 -7960 7945 0
7961 7960 -7945 0
-7962 7961 7946 0
-7962 -7961 -7946 0
7962 -7961 7946 0
7962 7961 -7946 0
-7963 7962 7947 0
-7963 -7962 -7947 0
7963 -7962 7947 0
7963 7962 -7947 0
-7964 7963 7948 0
-7964 -7963 -7948 0
7964 -7963 7948 0
7964 7963 -7948 0
-7965 7964 7949 0
-7965 -7964 -7949 0
7965 -7964 7949 0
7965 7964 -7949 0
-7966 7965 7950 0
-7966 -7965 -7950 0
7966 -7965 7950 0
7966 7965 -7950 0
-7967 7966 7951 0
-7967 -7966 -7951 0
7967 -7966 7951 0
7967 7966 -7951 0
-7968 7967 7952 0
-7968 -7967 -7952 0
7968 -7967 7952 0
7968 7967 -7952 0
-7969 7968 7953 0
-7969 -7968 -7953 0
7969 -7968 7953 0
7969 7968 -7953 0
-7970 7969 7954 0
-7970 -7969 -7954 0
7970 -7969 7954 0
7970 7969 -7954 0
-7971 7970 7955 0
-7971 -7970 -7955 0
7971 -7970 7955 0
7971 7970 -7955 0
-7971 0
-7972 7691 0
-7972 41 0
7972 -7691 -41 0
-7973 7693 0
-7973 41 0
7973 -7693 -41 0
-7974 7695 0
-7974 45 0
7974 -7695 -45 0
-7975 7697 0
-7975 37 0
7975 -7697 -37 0
-7976 7699 0
-7976 45 0
7976 -7699 -45 0
-7977 7701 0
-7977 37 0
7977 -7701 -37 0
-7978 7703 0
-7978 35 0
7978 -7703 -35 0
-7979 7705 0
-7979 35 0
7979 -7705 -35 0
-7980 7707 0
-7980 36 0
7980 -7707 -36 0
-7981 7709 0
-7981 34 0
7981 -7709 -34 0
-7982 7711 0
-7982 36 0
7982 -7711 -36 0
-7983 7713 0
-7983 34 0
7983 -7713 -34 0
-7984 7715 0
-7984 89 0
7984 -7715 -89 0
-7985 7717 0
-7985 83 0
7985 -7717 -83 0
-7986 7719 0
-7986 137 0
7986 -7719 -137 0
-7987 7721 0
-7987 131 0
7987 -7721 -131 0
-7988 7723 0
-7988 185 0
7988 -7723 -185 0
-7989 7972 7973 0
-7989 -7972 -7973 0
7989 -7972 7973 0
7989 7972 -7973 0
-7990 7989 7974 0
-7990 -7989 -7974 0
7990 -7989 7974 0
7990 7989 -7974 0
-7991 7990 7975 0
-7991 -7990 -7975 0
7991 -7990 7975 0
7991 7990 -7975 0
-7992 7991 7976 0
-7992 -7991 -7976 0
7992 -7991 7976 0
7992 7991 -7976 0
-7993 7992 7977 0
-7993 -7992 -7977 0
7993 -7992 7977 0
7993 7992 -7977 0
-7994 7993 7978 0
-7994 -7993 -7978 0
7994 -7993 7978 0
7994 7993 -7978 0
-7995 7994 7979 0
-7995 -7994 -7979 0
7995 -7994 7979 0
7995 7994 -7979 0
-7996 7995 7980 0
-7996 -7995 -7980 0
7996 -7995 7980 0
7996 7995 -7980 0
-7997 7996 7981 0
-7997 -7996 -7981 0
7997 -7996 7981 0
7997 7996 -7981 0
-7998 7997 7982 0
-7998 -7997 -7982 0
7998 -7997 7982 0
7998 7997 -7982 0
-7999 7998 7983 0
-7999 -7998 -7983 0
7999 -7998 7983 0
7999 7998 -7983 0
-8000 7999 7984 0
-8000 -7999 -7984 0
8000 -7999 7984 0
8000 7999 -7984 0
-8001 8000 7985 0
-8001 -8000 -7985 0
8001 -8000 7985 0
8001 8000 -7985 0
-8002 8001 7986 0
-8002 -8001 -7986 0
8002 -8001 7986 0
8002 8001 -7986 0
-8003 8002 7987 0
-8003 -8002 -7987 0
8003 -8002 7987 0
8003 8002 -7987 0
-8004 8003 7988 0
-8004 -8003 -7988 0
8004 -8003 7988 0
8004 8003 -7988 0
-8004 0
-8005 7691 0
-8005 42 0
8005 -7691 -42 0
-8006 7693 0
-8006 44 0
8006 -7693 -44 0
-8007 7695 0
-8007 46 0
8007 -7695 -46 0
-8008 7697 0
-8008 40 0
8008 -7697 -40 0
-8009 7699 0
-8009 47 0
8009 -7699 -47 0
-8010 7701 0
-8010 39 0
8010 -7701 -39 0
-8011 7703 0
-8011 39 0
8011 -7703 -39 0
-8012 7705 0
-8012 47 0
8012 -7705 -47 0
-8013 7707 0
-8013 40 0
8013 -7707 -40 0
-8014 7709 0
-8014 46 0
8014 -7709 -46 0
-8015 7711 0
-8015 44 0
8015 -7711 -44 0
-8016 7713 0
-8016 42 0
8016 -7713 -42 0
-8017 7715 0
-8017 90 0
8017 -7715 -90 0
-8018 7717 0
-8018 87 0
8018 -7717 -87 0
-8019 7719 0
-8019 138 0
8019 -7719 -138 0
-8020 7721 0
-8020 135 0
8020 -7721 -135 0
-8021 7723 0
-8021 186 0
8021 -7723 -186 0
-8022 8005 8006 0
-8022 -8005 -8006 0
8022 -8005 8006 0
8022 8005 -8006 0
-8023 8022 8007 0
-8023 -8022 -8007 0
8023 -8022 8007 0
8023 8022 -8007 0
-8024 8023 8008 0
-8024 -8023 -8008 0
8024 -8023 8008 0
8024 8023 -8008 0
-8025 8024 8009 0
-8025 -8024 -8009 0
8025 -8024 8009 0
8025 8024 -8009 0
-8026 8025 8010 0
-8026 -8025 -8010 0
8026 -8025 8010 0
8026 8025 -8010 0
-8027 8026 8011 0
-8027 -8026 -8011 0
8027 -8026 8011 0
8027 8026 -8011 0
-8028 8027 8012 0
-8028 -8027 -8012 0
8028 -8027 8012 0
8028 8027 -8012 0
-8029 8028 8013 0
-8029 -8028 -8013 0
8029 -8028 8013 0
8029 8028 -8013 0
-8030 8029 8014 0
-8030 -8029 -8014 0
8030 -8029 8014 0
8030 8029 -8014 0
-8031 8030 8015 0
-8031 -8030 -8015 0
8031 -8030 8015 0
8031 8030 -8015 0
-8032 8031 8016 0
-8032 -8031 -8016 0
8032 -8031 8016 0
8032 8031 -8016 0
-8033 8032 8017 0
-8033 -8032 -8017 0
8033 -8032 8017 0
8033 8032 -8017 0
-8034 8033 8018 0
-8034 -8033 -8018 0
8034 -8033 8018 0
8034 8033 -8018 0
-8035 8034 8019 0
-8035 -8034 -8019 0
8035 -8034 8019 0
8035 8034 -8019 0
-8036 8035 8020 0
-8036 -8035 -8020 0
8036 -8035 8020 0
8036 8035 -8020 0
-8037 8036 8021 0
-8037 -8036 -8021 0
8037 -8036 8021 0
8037 8036 -8021 0
-8037 0
-8038 7691 0
-8038 43 0
8038 -7691 -43 0
-8039 7693 0
-8039 43 0
8039 -7693 -43 0
-8040 7695 0
-8040 48 0
8040 -7695 -48 0
-8041 7697 0
-8041 38 0
8041 -7697 -38 0
-8042 7699 0
-8042 48 0
8042 -7699 -48 0
-8043 7701 0
-8043 38 0
8043 -7701 -38 0
-8044 7703 0
-8044 43 0
8044 -7703 -43 0
-8045 7705 0
-8045 43 0
8045 -7705 -43 0
-8046 7707 0
-8046 48 0
8046 -7707 -48 0
-8047 7709 0
-8047 38 0
8047 -7709 -38 0
-8048 7711 0
-8048 48 0
8048 -7711 -48 0
-8049 7713 0
-8049 38 0
8049 -7713 -38 0
-8050 7715 0
-8050 91 0
8050 -7715 -91 0
-8051 7717 0
-8051 91 0
8051 -7717 -91 0
-8052 7719 0
-8052 139 0
8052 -7719 -139 0
-8053 7721 0
-8053 139 0
8053 -7721 -139 0
-8054 7723 0
-8054 187 0
8054 -7723 -187 0
-8055 8038 8039 0
-8055 -8038 -8039 0
8055 -8038 8039 0
8055 8038 -8039 0
-8056 8055 8040 0
-8056 -8055 -8040 0
8056 -8055 8040 0
8056 8055 -8040 0
-8057 8056 8041 0
-8057 -8056 -8041 0
8057 -8056 8041 0
8057 8056 -8041 0
-8058 8057 8042 0
-8058 -8057 -8042 0
8058 -8057 8042 0
8058 8057 -8042 0
-8059 8058 8043 0
-8059 -8058 -8043 0
8059 -8058 8043 0
8059 8058 -8043 0
-8060 8059 8044 0
-8060 -8059 -8044 0
8060 -8059 8044 0
8060 8059 -8044 0
-8061 8060 8045 0
-8061 -8060 -8045 0
8061 -8060 8045 0
8061 8060 -8045 0
-8062 8061 8046 0
-8062 -8061 -8046 0
8062 -8061 8046 0
8062 8061 -8046 0
-8063 8062 8047 0
-8063 -8062 -8047 0
8063 -8062 8047 0
8063 8062 -8047 0
-8064 8063 8048 0
-8064 -8063 -8048 0
8064 -8063 8048 0
8064 8063 -8048 0
-8065 8064 8049 0
-8065 -8064 -8049 0
8065 -8064 8049 0
8065 8064 -8049 0
-8066 8065 8050 0
-8066 -8065 -8050 0
8066 -8065 8050 0
8066 8065 -8050 0
-8067 8066 8051 0
-8067 -8066 -8051 0
8067 -8066 8051 0
8067 8066 -8051 0
-8068 8067 8052 0
-8068 -8067 -8052 0
8068 -8067 8052 0
8068 8067 -8052 0
-8069 8068 8053 0
-8069 -8068 -8053 0
8069 -8068 8053 0
8069 8068 -8053 0
-8070 8069 8054 0
-8070 -8069 -8054 0
8070 -8069 8054 0
8070 8069 -8054 0
-8070 0
-8071 7691 0
-8071 44 0
8071 -7691 -44 0
-8072 7693 0
-8072 42 0
8072 -7693 -42 0
-8073 7695 0
-8073 47 0
8073 -7695 -47 0
-8074 7697 0
-8074 39 0
8074 -7697 -39 0
-8075 7699 0
-8075 46 0
8075 -7699 -46 0
-8076 7701 0
-8076 40 0
8076 -7701 -40 0
-8077 7703 0
-8077 47 0
8077 -7703 -47 0
-8078 7705 0
-8078 39 0
8078 -7705 -39 0
-8079 7707 0
-8079 44 0
8079 -7707 -44 0
-8080 7709 0
-8080 42 0
8080 -7709 -42 0
-8081 7711 0
-8081 40 0
8081 -7711 -40 0
-8082 7713 0
-8082 46 0
8082 -7713 -46 0
-8083 7715 0
-8083 92 0
8083 -7715 -92 0
-8084 7717 0
-8084 95 0
8084 -7717 -95 0
-8085 7719 0
-8085 140 0
8085 -7719 -140 0
-8086 7721 0
-8086 143 0
8086 -7721 -143 0
-8087 7723 0
-8087 188 0
8087 -7723 -188 0
-8088 8071 8072 0
-8088 -8071 -8072 0
8088 -8071 8072 0
8088 8071 -8072 0
-8089 8088 8073 0
-8089 -8088 -8073 0
8089 -8088 8073 0
8089 8088 -8073 0
-8090 8089 8074 0
-8090 -8089 -8074 0
8090 -8089 8074 0
8090 8089 -8074 0
-8091 8090 8075 0
-8091 -8090 -8075 0
8091 -8090 8075 0
8091 8090 -8075 0
-8092 8091 8076 0
-8092 -8091 -8076 0
8092 -8091 8076 0
8092 8091 -8076 0
-8093 8092 8077 0
-8093 -8092 -8077 0
8093 -8092 8077 0
8093 8092 -8077 0
-8094 8093 8078 0
-8094 -8093 -8078 0
8094 -8093 8078 0
8094 8093 -8078 0
-8095 8094 8079 0
-8095 -8094 -8079 0
8095 -8094 8079 0
8095 8094 -8079 0
-8096 8095 8080 0
-8096 -8095 -8080 0
8096 -8095 8080 0
8096 8095 -8080 0
-8097 8096 8081 0
-8097 -8096 -8081 0
8097 -8096 8081 0
8097 8096 -8081 0
-8098 8097 8082 0
-8098 -8097 -8082 0
8098 -8097 8082 0
8098 8097 -8082 0
-8099 8098 8083 0
-8099 -8098 -8083 0
8099 -8098 8083 0
8099 8098 -8083 0
-8100 8099 8084 0
-8100 -8099 -8084 0
8100 -8099 8084 0
8100 8099 -8084 0
-8101 8100 8085 0
-8101 -8100 -8085 0
8101 -8100 8085 0
8101 8100 -8085 0
-8102 8101 8086 0
-8102 -8101 -8086 0
8102 -8101 8086 0
8102 8101 -8086 0
-8103 8102 8087 0
-8103 -8102 -8087 0
8103 -8102 8087 0
8103 8102 -8087 0
-8103 0
-8104 7691 0
-8104 45 0
8104 -7691 -45 0
-8105 7693 0
-8105 37 0
8105 -7693 -37 0
-8106 7695 0
-8106 41 0
8106 -7695 -41 0
-8107 7697 0
-8107 41 0
8107 -7697 -41 0
-8108 7699 0
-8108 37 0
8108 -7699 -37 0
-8109 7701 0
-8109 45 0
8109 -7701 -45 0
-8110 7703 0
-8110 36 0
8110 -7703 -36 0
-8111 7705 0
-8111 34 0
8111 -7705 -34 0
-8112 7707 0
-8112 35 0
8112 -7707 -35 0
-8113 7709 0
-8113 35 0
8113 -7709 -35 0
-8114 7711 0
-8114 34 0
8114 -7711 -34 0
-8115 7713 0
-8115 36 0
8115 -7713 -36 0
-8116 7715 0
-8116 93 0
8116 -7715 -93 0
-8117 7717 0
-8117 84 0
8117 -7717 -84 0
-8118 7719 0
-8118 141 0
8118 -7719 -141 0
-8119 7721 0
-8119 132 0
8119 -7721 -132 0
-8120 7723 0
-8120 189 0
8120 -7723 -189 0
-8121 8104 8105 0
-8121 -8104 -8105 0
8121 -8104 8105 0
8121 8104 -8105 0
-8122 8121 8106 0
-8122 -8121 -8106 0
8122 -8121 8106 0
8122 8121 -8106 0
-8123 8122 8107 0
-8123 -8122 -8107 0
8123 -8122 8107 0
8123 8122 -8107 0
-8124 8123 8108 0
-8124 -8123 -8108 0
8124 -8123 8108 0
8124 8123 -8108 0
-8125 8124 8109 0
-8125 -8124 -8109 0
8125 -8124 8109 0
8125 8124 -8109 0
-8126 8125 8110 0
-8126 -8125 -8110 0
8126 -8125 8110 0
8126 8125 -8110 0
-8127 8126 8111 0
-8127 -8126 -8111 0
8127 -8126 8111 0
8127 8126 -8111 0
-8128 8127 8112 0
-8128 -8127 -8112 0
8128 -8127 8112 0
8128 8127 -8112 0
-8129 8128 8113 0
-8129 -8128 -8113 0
8129 -8128 8113 0
8129 8128 -8113 0
-8130 8129 8114 0
-8130 -8129 -8114 0
8130 -8129 8114 0
8130 8129 -8114 0
-8131 8130 8115 0
-8131 -8130 -8115 0
8131 -8130 8115 0
8131 8130 -8115 0
-8132 8131 8116 0
-8132 -8131 -8116 0
8132 -8131 8116 0
8132 8131 -8116 0
-8133 8132 8117 0
-8133 -8132 -8117 0
8133 -8132 8117 0
8133 8132 -8117 0
-8134 8133 8118 0
-8134 -8133 -8118 0
8134 -8133 8118 0
8134 8133 -8118 0
-8135 8134 8119 0
-8135 -8134 -8119 0
8135 -8134 8119 0
8135 8134 -8119 0
-8136 8135 8120 0
-8136 -8135 -8120 0
8136 -8135 8120 0
8136 8135 -8120 0
-8136 0
-8137 7691 0
-8137 46 0
8137 -7691 -46 0
-8138 7693 0
-8138 40 0
8138 -7693 -40 0
-8139 7695 0
-8139 42 0
8139 -7695 -42 0
-8140 7697 0
-8140 44 0
8140 -7697 -44 0
-8141 7699 0
-8141 39 0
8141 -7699 -39 0
-8142 7701 0
-8142 47 0
8142 -7701 -47 0
-8143 7703 0
-8143 40 0
8143 -7703 -40 0
-8144 7705 0
-8144 46 0
8144 -7705 -46 0
-8145 7707 0
-8145 39 0
8145 -7707 -39 0
-8146 7709 0
-8146 47 0
8146 -7709 -47 0
-8147 7711 0
-8147 42 0
8147 -7711 -42 0
-8148 7713 0
-8148 44 0
8148 -7713 -44 0
-8149 7715 0
-8149 94 0
8149 -7715 -94 0
-8150 7717 0
-8150 88 0
8150 -7717 -88 0
-8151 7719 0
-8151 142 0
8151 -7719 -142 0
-8152 7721 0
-8152 136 0
8152 -7721 -136 0
-8153 7723 0
-8153 190 0
8153 -7723 -190 0
-8154 8137 8138 0
-8154 -8137 -8138 0
8154 -8137 8138 0
8154 8137 -8138 0
-8155 8154 8139 0
-8155 -8154 -8139 0
8155 -8154 8139 0
8155 8154 -8139 0
-8156 8155 8140 0
-8156 -8155 -8140 0
8156 -8155 8140 0
8156 8155 -8140 0
-8157 8156 8141 0
-8157 -8156 -8141 0
8157 -8156 8141 0
8157 8156 -8141 0
-8158 8157 8142 0
-8158 -8157 -8142 0
8158 -8157 8142 0
8158 8157 -8142 0
-8159 8158 8143 0
-8159 -8158 -8143 0
8159 -8158 8143 0
8159 8158 -8143 0
-8160 8159 8144 0
-8160 -8159 -8144 0
8160 -8159 8144 0
8160 8159 -8144 0
-8161 8160 8145 0
-8161 -8160 -8145 0
8161 -8160 8145 0
8161 8160 -8145 0
-8162 8161 8146 0
-8162 -8161 -8146 0
8162 -8161 8146 0
8162 8161 -8146 0
-8163 8162 8147 0
-8163 -8162 -8147 0
8163 -8162 8147 0
8163 8162 -8147 0
-8164 8163 8148 0
-8164 -8163 -8148 0
8164 -8163 8148 0
8164 8163 -8148 0
-8165 8164 8149 0
-8165 -8164 -8149 0
8165 -8164 8149 0
8165 8164 -8149 0
-8166 8165 8150 0
-8166 -8165 -8150 0
8166 -8165 8150 0
8166 8165 -8150 0
-8167 8166 8151 0
-8167 -8166 -8151 0
8167 -8166 8151 0
8167 8166 -8151 0
-8168 8167 8152 0
-8168 -8167 -8152 0
8168 -8167 8152 0
8168 8167 -8152 0
-8169 8168 8153 0
-8169 -8168 -8153 0
8169 -8168 8153 0
8169 8168 -8153 0
-8169 0
-8170 7691 0
-8170 47 0
8170 -7691 -47 0
-8171 7693 0
-8171 39 0
8171 -7693 -39 0
-8172 7695 0
-8172 44 0
8172 -7695 -44 0
-8173 7697 0
-8173 42 0
8173 -7697 -42 0
-8174 7699 0
-8174 40 0
8174 -7699 -40 0
-8175 7701 0
-8175 46 0
8175 -7701 -46 0
-8176 7703 0
-8176 44 0
8176 -7703 -44 0
-8177 7705 0
-8177 42 0
8177 -7705 -42 0
-8178 7707 0
-8178 47 0
8178 -7707 -47 0
-8179 7709 0
-8179 39 0
8179 -7709 -39 0
-8180 7711 0
-8180 46 0
8180 -7711 -46 0
-8181 7713 0
-8181 40 0
8181 -7713 -40 0
-8182 7715 0
-8182 95 0
8182 -7715 -95 0
-8183 7717 0
-8183 92 0
8183 -7717 -92 0
-8184 7719 0
-8184 143 0
8184 -7719 -143 0
-8185 7721 0
-8185 140 0
8185 -7721 -140 0
-8186 7723 0
-8186 191 0
8186 -7723 -191 0
-8187 8170 8171 0
-8187 -8170 -8171 0
8187 -8170 8171 0
8187 8170 -8171 0
-8188 8187 8172 0
-8188 -8187 -8172 0
8188 -8187 8172 0
8188 8187 -8172 0
-8189 8188 8173 0
-8189 -8188 -8173 0
8189 -8188 8173 0
8189 8188 -8173 0
-8190 8189 8174 0
-8190 -8189 -8174 0
8190 -8189 8174 0
8190 8189 -8174 0
-8191 8190 8175 0
-8191 -8190 -8175 0
8191 -8190 8175 0
8191 8190 -8175 0
-8192 8191 8176 0
-8192 -8191 -8176 0
8192 -8191 8176 0
8192 8191 -8176 0
-8193 8192 8177 0
-8193 -8192 -8177 0
8193 -8192 8177 0
8193 8192 -8177 0
-8194 8193 8178 0
-8194 -8193 -8178 0
8194 -8193 8178 0
8194 8193 -8178 0
-8195 8194 8179 0
-8195 -8194 -8179 0
8195 -8194 8179 0
8195 8194 -8179 0
-8196 8195 8180 0
-8196 -8195 -8180 0
8196 -8195 8180 0
8196 8195 -8180 0
-8197 8196 8181 0
-8197 -8196 -8181 0
8197 -8196 8181 0
8197 8196 -8181 0
-8198 8197 8182 0
-8198 -8197 -8182 0
8198 -8197 8182 0
8198 8197 -8182 0
-8199 8198 8183 0
-8199 -8198 -8183 0
8199 -8198 8183 0
8199 8198 -8183 0
-8200 8199 8184 0
-8200 -8199 -8184 0
8200 -8199 8184 0
8200 8199 -8184 0
-8201 8200 8185 0
-8201 -8200 -8185 0
8201 -8200 8185 0
8201 8200 -8185 0
-8202 8201 8186 0
-8202 -8201 -8186 0
8202 -8201 8186 0
8202 8201 -8186 0
-8202 0
-8203 7691 0
-8203 48 0
8203 -7691 -48 0
-8204 7693 0
-8204 38 0
8204 -7693 -38 0
-8205 7695 0
-8205 43 0
8205 -7695 -43 0
-8206 7697 0
-8206 43 0
8206 -7697 -43 0
-8207 7699 0
-8207 38 0
8207 -7699 -38 0
-8208 7701 0
-8208 48 0
8208 -7701 -48 0
-8209 7703 0
-8209 48 0
8209 -7703 -48 0
-8210 7705 0
-8210 38 0
8210 -7705 -38 0
-8211 7707 0
-8211 43 0
8211 -7707 -43 0
-8212 7709 0
-8212 43 0
8212 -7709 -43 0
-8213 7711 0
-8213 38 0
8213 -7711 -38 0
-8214 7713 0
-8214 48 0
8214 -7713 -48 0
-8215 7715 0
-8215 96 0
8215 -7715 -96 0
-8216 7717 0
-8216 96 0
8216 -7717 -96 0
-8217 7719 0
-8217 144 0
8217 -7719 -144 0
-8218 7721 0
-8218 144 0
8218 -7721 -144 0
-8219 7723 0
-8219 192 0
8219 -7723 -192 0
-8220 8203 8204 0
-8220 -8203 -8204 0
8220 -8203 8204 0
8220 8203 -8204 0
-8221 8220 8205 0
-8221 -8220 -8205 0
8221 -8220 8205 0
8221 8220 -8205 0
-8222 8221 8206 0
-8222 -8221 -8206 0
8222 -8221 8206 0
8222 8221 -8206 0
-8223 8222 8207 0
-8223 -8222 -8207 0
8223 -8222 8207 0
8223 8222 -8207 0
-8224 8223 8208 0
-8224 -8223 -8208 0
8224 -8223 8208 0
8224 8223 -8208 0
-8225 8224 8209 0
-8225 -8224 -8209 0
8225 -8224 8209 0
8225 8224 -8209 0
-8226 8225 8210 0
-8226 -8225 -8210 0
8226 -8225 8210 0
8226 8225 -8210 0
-8227 8226 8211 0
-8227 -8226 -8211 0
8227 -8226 8211 0
8227 8226 -8211 0
-8228 8227 8212 0
-8228 -8227 -8212 0
8228 -8227 8212 0
8228 8227 -8212 0
-8229 8228 8213 0
-8229 -8228 -8213 0
8229 -8228 8213 0
8229 8228 -8213 0
-8230 8229 8214 0
-8230 -8229 -8214 0
8230 -8229 8214 0
8230 8229 -8214 0
-8231 8230 8215 0
-8231 -8230 -8215 0
8231 -8230 8215 0
8231 8230 -8215 0
-8232 8231 8216 0
-8232 -8231 -8216 0
8232 -8231 8216 0
8232 8231 -8216 0
-8233 8232 8217 0
-8233 -8232 -8217 0
8233 -8232 8217 0
8233 8232 -8217 0
-8234 8233 8218 0
-8234 -8233 -8218 0
8234 -8233 8218 0
8234 8233 -8218 0
-8235 8234 8219 0
-8235 -8234 -8219 0
8235 -8234 8219 0
8235 8234 -8219 0
-8235 0
-8236 5 0
-8236 26 0
8236 -5 -26 0
-8237 8236 0
-8237 33 0
8237 -8236 -33 0
-8238 13 0
-8238 24 0
8238 -13 -24 0
-8239 8238 0
-8239 33 0
8239 -8238 -33 0
-8240 6 0
-8240 26 0
8240 -6 -26 0
-8241 8240 0
-8241 33 0
8241 -8240 -33 0
-8242 15 0
-8242 24 0
8242 -15 -24 0
-8243 8242 0
-8243 33 0
8243 -8242 -33 0
-8244 10 0
-8244 19 0
8244 -10 -19 0
-8245 8244 0
-8245 33 0
8245 -8244 -33 0
-8246 11 0
-8246 19 0
8246 -11 -19 0
-8247 8246 0
-8247 33 0
8247 -8246 -33 0
-8248 18 0
-8248 7 0
8248 -18 -7 0
-8249 8248 0
-8249 33 0
8249 -8248 -33 0
-8250 20 0
-8250 14 0
8250 -20 -14 0
-8251 8250 0
-8251 33 0
8251 -8250 -33 0
-8252 22 0
-8252 7 0
8252 -22 -7 0
-8253 8252 0
-8253 33 0
8253 -8252 -33 0
-8254 28 0
-8254 14 0
8254 -28 -14 0
-8255 8254 0
-8255 33 0
8255 -8254 -33 0
-8256 23 0
-8256 9 0
8256 -23 -9 0
-8257 8256 0
-8257 33 0
8257 -8256 -33 0
-8258 27 0
-8258 9 0
8258 -27 -9 0
-8259 8258 0
-8259 33 0
8259 -8258 -33 0
-8260 53 0
-8260 74 0
8260 -53 -74 0
-8261 8260 0
-8261 81 0
8261 -8260 -81 0
-8262 66 0
-8262 55 0
8262 -66 -55 0
-8263 8262 0
-8263 81 0
8263 -8262 -81 0
-8264 101 0
-8264 122 0
8264 -101 -122 0
-8265 8264 0
-8265 129 0
8265 -8264 -129 0
-8266 114 0
-8266 103 0
8266 -114 -103 0
-8267 8266 0
-8267 129 0
8267 -8266 -129 0
-8268 149 0
-8268 170 0
8268 -149 -170 0
-8269 8268 0
-8269 177 0
8269 -8268 -177 0
-8270 8237 8239 0
-8270 -8237 -8239 0
8270 -8237 8239 0
8270 8237 -8239 0
-8271 8270 8241 0
-8271 -8270 -8241 0
8271 -8270 8241 0
8271 8270 -8241 0
-8272 8271 8243 0
-8272 -8271 -8243 0
8272 -8271 8243 0
8272 8271 -8243 0
-8273 8272 8245 0
-8273 -8272 -8245 0
8273 -8272 8245 0
8273 8272 -8245 0
-8274 8273 8247 0
-8274 -8273 -8247 0
8274 -8273 8247 0
8274 8273 -8247 0
-8275 8274 8249 0
-8275 -8274 -8249 0
8275 -8274 8249 0
8275 8274 -8249 0
-8276 8275 8251 0
-8276 -8275 -8251 0
8276 -8275 8251 0
8276 8275 -8251 0
-8277 8276 8253 0
-8277 -8276 -8253 0
8277 -8276 8253 0
8277 8276 -8253 0
-8278 8277 8255 0
-8278 -8277 -8255 0
8278 -8277 8255 0
8278 8277 -8255 0
-8279 8278 8257 0
-8279 -8278 -8257 0
8279 -8278 8257 0
8279 8278 -8257 0
-8280 8279 8259 0
-8280 -8279 -8259 0
8280 -8279 8259 0
8280 8279 -8259 0
-8281 8280 8261 0
-8281 -8280 -8261 0
8281 -8280 8261 0
8281 8280 -8261 0
-8282 8281 8263 0
-8282 -8281 -8263 0
8282 -8281 8263 0
8282 8281 -8263 0
-8283 8282 8265 0
-8283 -8282 -8265 0
8283 -8282 8265 0
8283 8282 -8265 0
-8284 8283 8267 0
-8284 -8283 -8267 0
8284 -8283 8267 0
8284 8283 -8267 0
-8285 8284 8269 0
-8285 -8284 -8269 0
8285 -8284 8269 0
8285 8284 -8269 0
-8285 0
-8286 8236 0
-8286 34 0
8286 -8236 -34 0
-8287 8238 0
-8287 36 0
8287 -8238 -36 0
-8288 8240 0
-8288 34 0
8288 -8240 -34 0
-8289 8242 0
-8289 36 0
8289 -8242 -36 0
-8290 8244 0
-8290 35 0
8290 -8244 -35 0
-8291 8246 0
-8291 35 0
8291 -8246 -35 0
-8292 8248 0
-8292 37 0
8292 -8248 -37 0
-8293 8250 0
-8293 45 0
8293 -8250 -45 0
-8294 8252 0
-8294 37 0
8294 -8252 -37 0
-8295 8254 0
-8295 45 0
8295 -8254 -45 0
-8296 8256 0
-8296 41 0
8296 -8256 -41 0
-8297 8258 0
-8297 41 0
8297 -8258 -41 0
-8298 8260 0
-8298 82 0
8298 -8260 -82 0
-8299 8262 0
-8299 85 0
8299 -8262 -85 0
-8300 8264 0
-8300 130 0
8300 -8264 -130 0
-8301 8266 0
-8301 133 0
8301 -8266 -133 0
-8302 8268 0
-8302 178 0
8302 -8268 -178 0
-8303 8286 8287 0
-8303 -8286 -8287 0
8303 -8286 8287 0
8303 8286 -8287 0
-8304 8303 8288 0
-8304 -8303 -8288 0
8304 -8303 8288 0
8304 8303 -8288 0
-8305 8304 8289 0
-8305 -8304 -8289 0
8305 -8304 8289 0
8305 8304 -8289 0
-8306 8305 8290 0
-8306 -8305 -8290 0
8306 -8305 8290 0
8306 8305 -8290 0
-8307 8306 8291 0
-8307 -8306 -8291 0
8307 -8306 8291 0
8307 8306 -8291 0
-8308 8307 8292 0
-8308 -8307 -8292 0
8308 -8307 8292 0
8308 8307 -8292 0
-8309 8308 8293 0
-8309 -8308 -8293 0
8309 -8308 8293 0
8309 8308 -8293 0
-8310 8309 8294 0
-8310 -8309 -8294 0
8310 -8309 8294 0
8310 8309 -8294 0
-8311 8310 8295 0
-8311 -8310 -8295 0
8311 -8310 8295 0
8311 8310 -8295 0
-8312 8311 8296 0
-8312 -8311 -8296 0
8312 -8311 8296 0
8312 8311 -8296 0
-8313 8312 8297 0
-8313 -8312 -8297 0
8313 -8312 8297 0
8313 8312 -8297 0
-8314 8313 8298 0
-8314 -8313 -8298 0
8314 -8313 8298 0
8314 8313 -8298 0
-8315 8314 8299 0
-8315 -8314 -8299 0
8315 -8314 8299 0
8315 8314 -8299 0
-8316 8315 8300 0
-8316 -8315 -8300 0
8316 -8315 8300 0
8316 8315 -8300 0
-8317 8316 8301 0
-8317 -8316 -8301 0
8317 -8316 8301 0
8317 8316 -8301 0
-8318 8317 8302 0
-8318 -8317 -8302 0
8318 -8317 8302 0
8318 8317 -8302 0
-8318 0
-8319 8236 0
-8319 35 0
8319 -8236 -35 0
-8320 8238 0
-8320 35 0
8320 -8238 -35 0
-8321 8240 0
-8321 36 0
8321 -8240 -36 0
-8322 8242 0
-8322 34 0
8322 -8242 -34 0
-8323 8244 0
-8323 36 0
8323 -8244 -36 0
-8324 8246 0
-8324 34 0
8324 -8246 -34 0
-8325 8248 0
-8325 41 0
8325 -8248 -41 0
-8326 8250 0
-8326 41 0
8326 -8250 -41 0
-8327 8252 0
-8327 45 0
8327 -8252 -45 0
-8328 8254 0
-8328 37 0
8328 -8254 -37 0
-8329 8256 0
-8329 45 0
8329 -8256 -45 0
-8330 8258 0
-8330 37 0
8330 -8258 -37 0
-8331 8260 0
-8331 83 0
8331 -8260 -83 0
-8332 8262 0
-8332 89 0
8332 -8262 -89 0
-8333 8264 0
-8333 131 0
8333 -8264 -131 0
-8334 8266 0
-8334 137 0
8334 -8266 -137 0
-8335 8268 0
-8335 179 0
8335 -8268 -179 0
-8336 8319 8320 0
-8336 -8319 -8320 0
8336 -8319 8320 0
8336 8319 -8320 0
-8337 8336 8321 0
-8337 -8336 -8321 0
8337 -8336 8321 0
8337 8336 -8321 0
-8338 8337 8322 0
-8338 -8337 -8322 0
8338 -8337 8322 0
8338 8337 -8322 0
-8339 8338 8323 0
-8339 -8338 -8323 0
8339 -8338 8323 0
8339 8338 -8323 0
-8340 8339 8324 0
-8340 -8339 -8324 0
8340 -8339 8324 0
8340 8339 -8324 0
-8341 8340 8325 0
-8341 -8340 -8325 0
8341 -8340 8325 0
8341 8340 -8325 0
-8342 8341 8326 0
-8342 -8341 -8326 0
8342 -8341 8326 0
8342 8341 -8326 0
-8343 8342 8327 0
-8343 -8342 -8327 0
8343 -8342 8327 0
8343 8342 -8327 0
-8344 8343 8328 0
-8344 -8343 -8328 0
8344 -8343 8328 0
8344 8343 -8328 0
-8345 8344 8329 0
-8345 -8344 -8329 0
8345 -8344 8329 0
8345 8344 -8329 0
-8346 8345 8330 0
-8346 -8345 -8330 0
8346 -8345 8330 0
8346 8345 -8330 0
-8347 8346 8331 0
-8347 -8346 -8331 0
8347 -8346 8331 0
8347 8346 -8331 0
-8348 8347 8332 0
-8348 -8347 -8332 0
8348 -8347 8332 0
8348 8347 -8332 0
-8349 8348 8333 0
-8349 -8348 -8333 0
8349 -8348 8333 0
8349 8348 -8333 0
-8350 8349 8334 0
-8350 -8349 -8334 0
8350 -8349 8334 0
8350 8349 -8334 0
-8351 8350 8335 0
-8351 -8350 -8335 0
8351 -8350 8335 0
8351 8350 -8335 0
-8351 0
-8352 8236 0
-8352 36 0
8352 -8236 -36 0
-8353 8238 0
-8353 34 0
8353 -8238 -34 0
-8354 8240 0
-8354 35 0
8354 -8240 -35 0
-8355 8242 0
-8355 35 0
8355 -8242 -35 0
-8356 8244 0
-8356 34 0
8356 -8244 -34 0
-8357 8246 0
-8357 36 0
8357 -8246 -36 0
-8358 8248 0
-8358 45 0
8358 -8248 -45 0
-8359 8250 0
-8359 37 0
8359 -8250 -37 0
-8360 8252 0
-8360 41 0
8360 -8252 -41 0
-8361 8254 0
-8361 41 0
8361 -8254 -41 0
-8362 8256 0
-8362 37 0
8362 -8256 -37 0
-8363 8258 0
-8363 45 0
8363 -8258 -45 0
-8364 8260 0
-8364 84 0
8364 -8260 -84 0
-8365 8262 0
-8365 93 0
8365 -8262 -93 0
-8366 8264 0
-8366 132 0
8366 -8264 -132 0
-8367 8266 0
-8367 141 0
8367 -8266 -141 0
-8368 8268 0
-8368 180 0
8368 -8268 -180 0
-8369 8352 8353 0
-8369 -8352 -8353 0
8369 -8352 8353 0
8369 8352 -8353 0
-8370 8369 8354 0
-8370 -8369 -8354 0
8370 -8369 8354 0
8370 8369 -8354 0
-8371 8370 8355 0
-8371 -8370 -8355 0
8371 -8370 8355 0
8371 8370 -8355 0
-8372 8371 8356 0
-8372 -8371 -8356 0
8372 -8371 8356 0
8372 8371 -8356 0
-8373 8372 8357 0
-8373 -8372 -8357 0
8373 -8372 8357 0
8373 8372 -8357 0
-8374 8373 8358 0
-8374 -8373 -8358 0
8374 -8373 8358 0
8374 8373 -8358 0
-8375 8374 8359 0
-8375 -8374 -8359 0
8375 -8374 8359 0
8375 8374 -8359 0
-8376 8375 8360 0
-8376 -8375 -8360 0
8376 -8375 8360 0
8376 8375 -8360 0
-8377 8376 8361 0
-8377 -8376 -8361 0
8377 -8376 8361 0
8377 8376 -8361 0
-8378 8377 8362 0
-8378 -8377 -8362 0
8378 -8377 8362 0
8378 8377 -8362 0
-8379 8378 8363 0
-8379 -8378 -8363 0
8379 -8378 8363 0
8379 8378 -8363 0
-8380 8379 8364 0
-8380 -8379 -8364 0
8380 -8379 8364 0
8380 8379 -8364 0
-8381 8380 8365 0
-8381 -8380 -8365 0
8381 -8380 8365 0
8381 8380 -8365 0
-8382 8381 8366 0
-8382 -8381 -8366 0
8382 -8381 8366 0
8382 8381 -8366 0
-8383 8382 8367 0
-8383 -8382 -8367 0
8383 -8382 8367 0
8383 8382 -8367 0
-8384 8383 8368 0
-8384 -8383 -8368 0
8384 -8383 8368 0
8384 8383 -8368 0
-8384 0
-8385 8236 0
-8385 37 0
8385 -8236 -37 0
-8386 8238 0
-8386 45 0
8386 -8238 -45 0
-8387 8240 0
-8387 37 0
8387 -8240 -37 0
-8388 8242 0
-8388 45 0
8388 -8242 -45 0
-8389 8244 0
-8389 41 0
8389 -8244 -41 0
-8390 8246 0
-8390 41 0
8390 -8246 -41 0
-8391 8248 0
-8391 34 0
8391 -8248 -34 0
-8392 8250 0
-8392 36 0
8392 -8250 -36 0
-8393 8252 0
-8393 34 0
8393 -8252 -34 0
-8394 8254 0
-8394 36 0
8394 -8254 -36 0
-8395 8256 0
-8395 35 0
8395 -8256 -35 0
-8396 8258 0
-8396 35 0
8396 -8258 -35 0
-8397 8260 0
-8397 85 0
8397 -8260 -85 0
-8398 8262 0
-8398 82 0
8398 -8262 -82 0
-8399 8264 0
-8399 133 0
8399 -8264 -133 0
-8400 8266 0
-8400 130 0
8400 -8266 -130 0
-8401 8268 0
-8401 181 0
8401 -8268 -181 0
-8402 8385 8386 0
-8402 -8385 -8386 0
8402 -8385 8386 0
8402 8385 -8386 0
-8403 8402 8387 0
-8403 -8402 -8387 0
8403 -8402 8387 0
8403 8402 -8387 0
-8404 8403 8388 0
-8404 -8403 -8388 0
8404 -8403 8388 0
8404 8403 -8388 0
-8405 8404 8389 0
-8405 -8404 -8389 0
8405 -8404 8389 0
8405 8404 -8389 0
-8406 8405 8390 0
-8406 -8405 -8390 0
8406 -8405 8390 0
8406 8405 -8390 0
-8407 8406 8391 0
-8407 -8406 -8391 0
8407 -8406 8391 0
8407 8406 -8391 0
-8408 8407 8392 0
-8408 -8407 -8392 0
8408 -8407 8392 0
8408 8407 -8392 0
-8409 8408 8393 0
-8409 -8408 -8393 0
8409 -8408 8393 0
8409 8408 -8393 0
-8410 8409 8394 0
-8410 -8409 -8394 0
8410 -8409 8394 0
8410 8409 -8394 0
-8411 8410 8395 0
-8411 -8410 -8395 0
8411 -8410 8395 0
8411 8410 -8395 0
-8412 8411 8396 0
-8412 -8411 -8396 0
8412 -8411 8396 0
8412 8411 -8396 0
-8413 8412 8397 0
-8413 -8412 -8397 0
8413 -8412 8397 0
8413 8412 -8397 0
-8414 8413 8398 0
-8414 -8413 -8398 0
8414 -8413 8398 0
8414 8413 -8398 0
-8415 8414 8399 0
-8415 -8414 -8399 0
8415 -8414 8399 0
8415 8414 -8399 0
-8416 8415 8400 0
-8416 -8415 -8400 0
8416 -8415 8400 0
8416 8415 -8400 0
-8417 8416 8401 0
-8417 -8416 -8401 0
8417 -8416 8401 0
8417 8416 -8401 0
-8417 0
-8418 8236 0
-8418 38 0
8418 -8236 -38 0
-8419 8238 0
-8419 48 0
8419 -8238 -48 0
-8420 8240 0
-8420 38 0
8420 -8240 -38 0
-8421 8242 0
-8421 48 0
8421 -8242 -48 0
-8422 8244 0
-8422 43 0
8422 -8244 -43 0
-8423 8246 0
-8423 43 0
8423 -8246 -43 0
-8424 8248 0
-8424 38 0
8424 -8248 -38 0
-8425 8250 0
-8425 48 0
8425 -8250 -48 0
-8426 8252 0
-8426 38 0
8426 -8252 -38 0
-8427 8254 0
-8427 48 0
8427 -8254 -48 0
-8428 8256 0
-8428 43 0
8428 -8256 -43 0
-8429 8258 0
-8429 43 0
8429 -8258 -43 0
-8430 8260 0
-8430 86 0
8430 -8260 -86 0
-8431 8262 0
-8431 86 0
8431 -8262 -86 0
-8432 8264 0
-8432 134 0
8432 -8264 -134 0
-8433 8266 0
-8433 134 0
8433 -8266 -134 0
-8434 8268 0
-8434 182 0
8434 -8268 -182 0
-8435 8418 8419 0
-8435 -8418 -8419 0
8435 -8418 8419 0
8435 8418 -8419 0
-8436 8435 8420 0
-8436 -8435 -8420 0
8436 -8435 8420 0
8436 8435 -8420 0
-8437 8436 8421 0
-8437 -8436 -8421 0
8437 -8436 8421 0
8437 8436 -8421 0
-8438 8437 8422 0
-8438 -8437 -8422 0
8438 -8437 8422 0
8438 8437 -8422 0
-8439 8438 8423 0
-8439 -8438 -8423 0
8439 -8438 8423 0
8439 8438 -8423 0
-8440 8439 8424 0
-8440 -8439 -8424 0
8440 -8439 8424 0
8440 8439 -8424 0
-8441 8440 8425 0
-8441 -8440 -8425 0
8441 -8440 8425 0
8441 8440 -8425 0
-8442 8441 8426 0
-8442 -8441 -8426 0
8442 -8441 8426 0
8442 8441 -8426 0
-8443 8442 8427 0
-8443 -8442 -8427 0
8443 -8442 8427 0
8443 8442 -8427 0
-8444 8443 8428 0
-8444 -8443 -8428 0
8444 -8443 8428 0
8444 8443 -8428 0
-8445 8444 8429 0
-8445 -8444 -8429 0
8445 -8444 8429 0
8445 8444 -8429 0
-8446 8445 8430 0
-8446 -8445 -8430 0
8446 -8445 8430 0
8446 8445 -8430 0
-8447 8446 8431 0
-8447 -8446 -8431 0
8447 -8446 8431 0
8447 8446 -8431 0
-8448 8447 8432 0
-8448 -8447 -8432 0
8448 -8447 8432 0
8448 8447 -8432 0
-8449 8448 8433 0
-8449 -8448 -8433 0
8449 -8448 8433 0
8449 8448 -8433 0
-8450 8449 8434 0
-8450 -8449 -8434 0
8450 -8449 8434 0
8450 8449 -8434 0
-8450 0
-8451 8236 0
-8451 39 0
8451 -8236 -39 0
-8452 8238 0
-8452 47 0
8452 -8238 -47 0
-8453 8240 0
-8453 40 0
8453 -8240 -40 0
-8454 8242 0
-8454 46 0
8454 -8242 -46 0
-8455 8244 0
-8455 44 0
8455 -8244 -44 0
-8456 8246 0
-8456 42 0
8456 -8246 -42 0
-8457 8248 0
-8457 42 0
8457 -8248 -42 0
-8458 8250 0
-8458 44 0
8458 -8250 -44 0
-8459 8252 0
-8459 46 0
8459 -8252 -46 0
-8460 8254 0
-8460 40 0
8460 -8254 -40 0
-8461 8256 0
-8461 47 0
8461 -8256 -47 0
-8462 8258 0
-8462 39 0
8462 -8258 -39 0
-8463 8260 0
-8463 87 0
8463 -8260 -87 0
-8464 8262 0
-8464 90 0
8464 -8262 -90 0
-8465 8264 0
-8465 135 0
8465 -8264 -135 0
-8466 8266 0
-8466 138 0
8466 -8266 -138 0
-8467 8268 0
-8467 183 0
8467 -8268 -183 0
-8468 8451 8452 0
-8468 -8451 -8452 0
8468 -8451 8452 0
8468 8451 -8452 0
-8469 8468 8453 0
-8469 -8468 -8453 0
8469 -8468 8453 0
8469 8468 -8453 0
-8470 8469 8454 0
-8470 -8469 -8454 0
8470 -8469 8454 0
8470 8469 -8454 0
-8471 8470 8455 0
-8471 -8470 -8455 0
8471 -8470 8455 0
8471 8470 -8455 0
-8472 8471 8456 0
-8472 -8471 -8456 0
8472 -8471 8456 0
8472 8471 -8456 0
-8473 8472 8457 0
-8473 -8472 -8457 0
8473 -8472 8457 0
8473 8472 -8457 0
-8474 8473 8458 0
-8474 -8473 -8458 0
8474 -8473 8458 0
8474 8473 -8458 0
-8475 8474 8459 0
-8475 -8474 -8459 0
8475 -8474 8459 0
8475 8474 -8459 0
-8476 8475 8460 0
-8476 -8475 -8460 0
8476 -8475 8460 0
8476 8475 -8460 0
-8477 8476 8461 0
-8477 -8476 -8461 0
8477 -8476 8461 0
8477 8476 -8461 0
-8478 8477 8462 0
-8478 -8477 -8462 0
8478 -8477 8462 0
8478 8477 -8462 0
-8479 8478 8463 0
-8479 -8478 -8463 0
8479 -8478 8463 0
8479 8478 -8463 0
-8480 8479 8464 0
-8480 -8479 -8464 0
8480 -8479 8464 0
8480 8479 -8464 0
-8481 8480 8465 0
-8481 -8480 -8465 0
8481 -8480 8465 0
8481 8480 -8465 0
-8482 8481 8466 0
-8482 -8481 -8466 0
8482 -8481 8466 0
8482 8481 -8466 0
-8483 8482 8467 0
-8483 -8482 -8467 0
8483 -8482 8467 0
8483 8482 -8467 0
-8483 0
-8484 8236 0
-8484 40 0
8484 -8236 -40 0
-8485 8238 0
-8485 46 0
8485 -8238 -46 0
-8486 8240 0
-8486 39 0
8486 -8240 -39 0
-8487 8242 0
-8487 47 0
8487 -8242 -47 0
-8488 8244 0
-8488 42 0
8488 -8244 -42 0
-8489 8246 0
-8489 44 0
8489 -8246 -44 0
-8490 8248 0
-8490 46 0
8490 -8248 -46 0
-8491 8250 0
-8491 40 0
8491 -8250 -40 0
-8492 8252 0
-8492 42 0
8492 -8252 -42 0
-8493 8254 0
-8493 44 0
8493 -8254 -44 0
-8494 8256 0
-8494 39 0
8494 -8256 -39 0
-8495 8258 0
-8495 47 0
8495 -8258 -47 0
-8496 8260 0
-8496 88 0
8496 -8260 -88 0
-8497 8262 0
-8497 94 0
8497 -8262 -94 0
-8498 8264 0
-8498 136 0
8498 -8264 -136 0
-8499 8266 0
-8499 142 0
8499 -8266 -142 0
-8500 8268 0
-8500 184 0
8500 -8268 -184 0
-8501 8484 8485 0
-8501 -8484 -8485 0
8501 -8484 8485 0
8501 8484 -8485 0
-8502 8501 8486 0
-8502 -8501 -8486 0
8502 -8501 8486 0
8502 8501 -8486 0
-8503 8502 8487 0
-8503 -8502 -8487 0
8503 -8502 8487 0
8503 8502 -8487 0
-8504 8503 8488 0
-8504 -8503 -8488 0
8504 -8503 8488 0
8504 8503 -8488 0
-8505 8504 8489 0
-8505 -8504 -8489 0
8505 -8504 8489 0
8505 8504 -8489 0
-8506 8505 8490 0
-8506 -8505 -8490 0
8506 -8505 8490 0
8506 8505 -8490 0
-8507 8506 8491 0
-8507 -8506 -8491 0
8507 -8506 8491 0
8507 8506 -8491 0
-8508 8507 8492 0
-8508 -8507 -8492 0
8508 -8507 8492 0
8508 8507 -8492 0
-8509 8508 8493 0
-8509 -8508 -8493 0
8509 -8508 8493 0
8509 8508 -8493 0
-8510 8509 8494 0
-8510 -8509 -8494 0
8510 -8509 8494 0
8510 8509 -8494 0
-8511 8510 8495 0
-8511 -8510 -8495 0
8511 -8510 8495 0
8511 8510 -8495 0
-8512 8511 8496 0
-8512 -8511 -8496 0
8512 -8511 8496 0
8512 8511 -8496 0
-8513 8512 8497 0
-8513 -8512 -8497 0
8513 -8512 8497 0
8513 8512 -8497 0
-8514 8513 8498 0
-8514 -8513 -8498 0
8514 -8513 8498 0
8514 8513 -8498 0
-8515 8514 8499 0
-8515 -8514 -8499 0
8515 -8514 8499 0
8515 8514 -8499 0
-8516 8515 8500 0
-8516 -8515 -8500 0
8516 -8515 8500 0
8516 8515 -8500 0
-8516 0
-8517 8236 0
-8517 41 0
8517 -8236 -41 0
-8518 8238 0
-8518 41 0
8518 -8238 -41 0
-8519 8240 0
-8519 45 0
8519 -8240 -45 0
-8520 8242 0
-8520 37 0
8520 -8242 -37 0
-8521 8244 0
-8521 45 0
8521 -8244 -45 0
-8522 8246 0
-8522 37 0
8522 -8246 -37 0
-8523 8248 0
-8523 35 0
8523 -8248 -35 0
-8524 8250 0
-8524 35 0
8524 -8250 -35 0
-8525 8252 0
-8525 36 0
8525 -8252 -36 0
-8526 8254 0
-8526 34 0
8526 -8254 -34 0
-8527 8256 0
-8527 36 0
8527 -8256 -36 0
-8528 8258 0
-8528 34 0
8528 -8258 -34 0
-8529 8260 0
-8529 89 0
8529 -8260 -89 0
-8530 8262 0
-8530 83 0
8530 -8262 -83 0
-8531 8264 0
-8531 137 0
8531 -8264 -137 0
-8532 8266 0
-8532 131 0
8532 -8266 -131 0
-8533 8268 0
-8533 185 0
8533 -8268 -185 0
-8534 8517 8518 0
-8534 -8517 -8518 0
8534 -8517 8518 0
8534 8517 -8518 0
-8535 8534 8519 0
-8535 -8534 -8519 0
8535 -8534 8519 0
8535 8534 -8519 0
-8536 8535 8520 0
-8536 -8535 -8520 0
8536 -8535 8520 0
8536 8535 -8520 0
-8537 8536 8521 0
-8537 -8536 -8521 0
8537 -8536 8521 0
8537 8536 -8521 0
-8538 8537 8522 0
-8538 -8537 -8522 0
8538 -8537 8522 0
8538 8537 -8522 0
-8539 8538 8523 0
-8539 -8538 -8523 0
8539 -8538 8523 0
8539 8538 -8523 0
-8540 8539 8524 0
-8540 -8539 -8524 0
8540 -8539 8524 0
8540 8539 -8524 0
-8541 8540 8525 0
-8541 -8540 -8525 0
8541 -8540 8525 0
8541 8540 -8525 0
-8542 8541 8526 0
-8542 -8541 -8526 0
8542 -8541 8526 0
8542 8541 -8526 0
-8543 8542 8527 0
-8543 -8542 -8527 0
8543 -8542 8527 0
8543 8542 -8527 0
-8544 8543 8528 0
-8544 -8543 -8528 0
8544 -8543 8528 0
8544 8543 -8528 0
-8545 8544 8529 0
-8545 -8544 -8529 0
8545 -8544 8529 0
8545 8544 -8529 0
-8546 8545 8530 0
-8546 -8545 -8530 0
8546 -8545 8530 0
8546 8545 -8530 0
-8547 8546 8531 0
-8547 -8546 -8531 0
8547 -8546 8531 0
8547 8546 -8531 0
-8548 8547 8532 0
-8548 -8547 -8532 0
8548 -8547 8532 0
8548 8547 -8532 0
-8549 8548 8533 0
-8549 -8548 -8533 0
8549 -8548 8533 0
8549 8548 -8533 0
-8549 0
-8550 8236 0
-8550 42 0
8550 -8236 -42 0
-8551 8238 0
-8551 44 0
8551 -8238 -44 0
-8552 8240 0
-8552 46 0
8552 -8240 -46 0
-8553 8242 0
-8553 40 0
8553 -8242 -40 0
-8554 8244 0
-8554 47 0
8554 -8244 -47 0
-8555 8246 0
-8555 39 0
8555 -8246 -39 0
-8556 8248 0
-8556 39 0
8556 -8248 -39 0
-8557 8250 0
-8557 47 0
8557 -8250 -47 0
-8558 8252 0
-8558 40 0
8558 -8252 -40 0
-8559 8254 0
-8559 46 0
8559 -8254 -46 0
-8560 8256 0
-8560 44 0
8560 -8256 -44 0
-8561 8258 0
-8561 42 0
8561 -8258 -42 0
-8562 8260 0
-8562 90 0
8562 -8260 -90 0
-8563 8262 0
-8563 87 0
8563 -8262 -87 0
-8564 8264 0
-8564 138 0
8564 -8264 -138 0
-8565 8266 0
-8565 135 0
8565 -8266 -135 0
-8566 8268 0
-8566 186 0
8566 -8268 -186 0
-8567 8550 8551 0
-8567 -8550 -8551 0
8567 -8550 8551 0
8567 8550 -8551 0
-8568 8567 8552 0
-8568 -8567 -8552 0
8568 -8567 8552 0
8568 8567 -8552 0
-8569 8568 8553 0
-8569 -8568 -8553 0
8569 -8568 8553 0
8569 8568 -8553 0
-8570 8569 8554 0
-8570 -8569 -8554 0
8570 -8569 8554 0
8570 8569 -8554 0
-8571 8570 8555 0
-8571 -8570 -8555 0
8571 -8570 8555 0
8571 8570 -8555 0
-8572 8571 8556 0
-8572 -8571 -8556 0
8572 -8571 8556 0
8572 8571 -8556 0
-8573 8572 8557 0
-8573 -8572 -8557 0
8573 -8572 8557 0
8573 8572 -8557 0
-8574 8573 8558 0
-8574 -8573 -8558 0
8574 -8573 8558 0
8574 8573 -8558 0
-8575 8574 8559 0
-8575 -8574 -8559 0
8575 -8574 8559 0
8575 8574 -8559 0
-8576 8575 8560 0
-8576 -8575 -8560 0
8576 -8575 8560 0
8576 8575 -8560 0
-8577 8576 8561 0
-8577 -8576 -8561 0
8577 -8576 8561 0
8577 8576 -8561 0
-8578 8577 8562 0
-8578 -8577 -8562 0
8578 -8577 8562 0
8578 8577 -8562 0
-8579 8578 8563 0
-8579 -8578 -8563 0
8579 -8578 8563 0
8579 8578 -8563 0
-8580 8579 8564 0
-8580 -8579 -8564 0
8580 -8579 8564 0
8580 8579 -8564 0
-8581 8580 8565 0
-8581 -8580 -8565 0
8581 -8580 8565 0
8581 8580 -8565 0
-8582 8581 8566 0
-8582 -8581 -8566 0
8582 -8581 8566 0
8582 8581 -8566 0
-8582 0
-8583 8236 0
-8583 43 0
8583 -8236 -43 0
-8584 8238 0
-8584 43 0
8584 -8238 -43 0
-8585 8240 0
-8585 48 0
8585 -8240 -48 0
-8586 8242 0
-8586 38 0
8586 -8242 -38 0
-8587 8244 0
-8587 48 0
8587 -8244 -48 0
-8588 8246 0
-8588 38 0
8588 -8246 -38 0
-8589 8248 0
-8589 43 0
8589 -8248 -43 0
-8590 8250 0
-8590 43 0
8590 -8250 -43 0
-8591 8252 0
-8591 48 0
8591 -8252 -48 0
-8592 8254 0
-8592 38 0
8592 -8254 -38 0
-8593 8256 0
-8593 48 0
8593 -8256 -48 0
-8594 8258 0
-8594 38 0
8594 -8258 -38 0
-8595 8260 0
-8595 91 0
8595 -8260 -91 0
-8596 8262 0
-8596 91 0
8596 -8262 -91 0
-8597 8264 0
-8597 139 0
8597 -8264 -139 0
-8598 8266 0
-8598 139 0
8598 -8266 -139 0
-8599 8268 0
-8599 187 0
8599 -8268 -187 0
-8600 8583 8584 0
-8600 -8583 -8584 0
8600 -8583 8584 0
8600 8583 -8584 0
-8601 8600 8585 0
-8601 -8600 -8585 0
8601 -8600 8585 0
8601 8600 -8585 0
-8602 8601 8586 0
-8602 -8601 -8586 0
8602 -8601 8586 0
8602 8601 -8586 0
-8603 8602 8587 0
-8603 -8602 -8587 0
8603 -8602 8587 0
8603 8602 -8587 0
-8604 8603 8588 0
-8604 -8603 -8588 0
8604 -8603 8588 0
8604 8603 -8588 0
-8605 8604 8589 0
-8605 -8604 -8589 0
8605 -8604 8589 0
8605 8604 -8589 0
-8606 8605 8590 0
-8606 -8605 -8590 0
8606 -8605 8590 0
8606 8605 -8590 0
-8607 8606 8591 0
-8607 -8606 -8591 0
8607 -8606 8591 0
8607 8606 -8591 0
-8608 8607 8592 0
-8608 -8607 -8592 0
8608 -8607 8592 0
8608 8607 -8592 0
-8609 8608 8593 0
-8609 -8608 -8593 0
8609 -8608 8593 0
8609 8608 -8593 0
-8610 8609 8594 0
-8610 -8609 -8594 0
8610 -8609 8594 0
8610 8609 -8594 0
-8611 8610 8595 0
-8611 -8610 -8595 0
8611 -8610 8595 0
8611 8610 -8595 0
-8612 8611 8596 0
-8612 -8611 -8596 0
8612 -8611 8596 0
8612 8611 -8596 0
-8613 8612 8597 0
-8613 -8612 -8597 0
8613 -8612 8597 0
8613 8612 -8597 0
-8614 8613 8598 0
-8614 -8613 -8598 0
8614 -8613 8598 0
8614 8613 -8598 0
-8615 8614 8599 0
-8615 -8614 -8599 0
8615 -8614 8599 0
8615 8614 -8599 0
-8615 0
-8616 8236 0
-8616 44 0
8616 -8236 -44 0
-8617 8238 0
-8617 42 0
8617 -8238 -42 0
-8618 8240 0
-8618 47 0
8618 -8240 -47 0
-8619 8242 0
-8619 39 0
8619 -8242 -39 0
-8620 8244 0
-8620 46 0
8620 -8244 -46 0
-8621 8246 0
-8621 40 0
8621 -8246 -40 0
-8622 8248 0
-8622 47 0
8622 -8248 -47 0
-8623 8250 0
-8623 39 0
8623 -8250 -39 0
-8624 8252 0
-8624 44 0
8624 -8252 -44 0
-8625 8254 0
-8625 42 0
8625 -8254 -42 0
-8626 8256 0
-8626 40 0
8626 -8256 -40 0
-8627 8258 0
-8627 46 0
8627 -8258 -46 0
-8628 8260 0
-8628 92 0
8628 -8260 -92 0
-8629 8262 0
-8629 95 0
8629 -8262 -95 0
-8630 8264 0
-8630 140 0
8630 -8264 -140 0
-8631 8266 0
-8631 143 0
8631 -8266 -143 0
-8632 8268 0
-8632 188 0
8632 -8268 -188 0
-8633 8616 8617 0
-8633 -8616 -8617 0
8633 -8616 8617 0
8633 8616 -8617 0
-8634 8633 8618 0
-8634 -8633 -8618 0
8634 -8633 8618 0
8634 8633 -8618 0
-8635 8634 8619 0
-8635 -8634 -8619 0
8635 -8634 8619 0
8635 8634 -8619 0
-8636 8635 8620 0
-8636 -8635 -8620 0
8636 -8635 8620 0
8636 8635 -8620 0
-8637 8636 8621 0
-8637 -8636 -8621 0
8637 -8636 8621 0
8637 8636 -8621 0
-8638 8637 8622 0
-8638 -8637 -8622 0
8638 -8637 8622 0
8638 8637 -8622 0
-8639 8638 8623 0
-8639 -8638 -8623 0
8639 -8638 8623 0
8639 8638 -8623 0
-8640 8639 8624 0
-8640 -8639 -8624 0
8640 -8639 8624 0
8640 8639 -8624 0
-8641 8640 8625 0
-8641 -8640 -8625 0
8641 -8640 8625 0
8641 8640 -8625 0
-8642 8641 8626 0
-8642 -8641 -8626 0
8642 -8641 8626 0
8642 8641 -8626 0
-8643 8642 8627 0
-8643 -8642 -8627 0
8643 -8642 8627 0
8643 8642 -8627 0
-8644 8643 8628 0
-8644 -8643 -8628 0
8644 -8643 8628 0
8644 8643 -8628 0
-8645 8644 8629 0
-8645 -8644 -8629 0
8645 -8644 8629 0
8645 8644 -8629 0
-8646 8645 8630 0
-8646 -8645 -8630 0
8646 -8645 8630 0
8646 8645 -8630 0
-8647 8646 8631 0
-8647 -8646 -8631 0
8647 -8646 8631 0
8647 8646 -8631 0
-8648 8647 8632 0
-8648 -8647 -8632 0
8648 -8647 8632 0
8648 8647 -8632 0
-8648 0
-8649 8236 0
-8649 45 0
8649 -8236 -45 0
-8650 8238 0
-8650 37 0
8650 -8238 -37 0
-8651 8240 0
-8651 41 0
8651 -8240 -41 0
-8652 8242 0
-8652 41 0
8652 -8242 -41 0
-8653 8244 0
-8653 37 0
8653 -8244 -37 0
-8654 8246 0
-8654 45 0
8654 -8246 -45 0
-8655 8248 0
-8655 36 0
8655 -8248 -36 0
-8656 8250 0
-8656 34 0
8656 -8250 -34 0
-8657 8252 0
-8657 35 0
8657 -8252 -35 0
-8658 8254 0
-8658 35 0
8658 -8254 -35 0
-8659 8256 0
-8659 34 0
8659 -8256 -34 0
-8660 8258 0
-8660 36 0
8660 -8258 -36 0
-8661 8260 0
-8661 93 0
8661 -8260 -93 0
-8662 8262 0
-8662 84 0
8662 -8262 -84 0
-8663 8264 0
-8663 141 0
8663 -8264 -141 0
-8664 8266 0
-8664 132 0
8664 -8266 -132 0
-8665 8268 0
-8665 189 0
8665 -8268 -189 0
-8666 8649 8650 0
-8666 -8649 -8650 0
8666 -8649 8650 0
8666 8649 -8650 0
-8667 8666 8651 0
-8667 -8666 -8651 0
8667 -8666 8651 0
8667 8666 -8651 0
-8668 8667 8652 0
-8668 -8667 -8652 0
8668 -8667 8652 0
8668 8667 -8652 0
-8669 8668 8653 0
-8669 -8668 -8653 0
8669 -8668 8653 0
8669 8668 -8653 0
-8670 8669 8654 0
-8670 -8669 -8654 0
8670 -8669 8654 0
8670 8669 -8654 0
-8671 8670 8655 0
-8671 -8670 -8655 0
8671 -8670 8655 0
8671 8670 -8655 0
-8672 8671 8656 0
-8672 -8671 -8656 0
8672 -8671 8656 0
8672 8671 -8656 0
-8673 8672 8657 0
-8673 -8672 -8657 0
8673 -8672 8657 0
8673 8672 -8657 0
-8674 8673 8658 0
-8674 -8673 -8658 0
8674 -8673 8658 0
8674 8673 -8658 0
-8675 8674 8659 0
-8675 -8674 -8659 0
8675 -8674 8659 0
8675 8674 -8659 0
-8676 8675 8660 0
-8676 -8675 -8660 0
8676 -8675 8660 0
8676 8675 -8660 0
-8677 8676 8661 0
-8677 -8676 -8661 0
8677 -8676 8661 0
8677 8676 -8661 0
-8678 8677 8662 0
-8678 -8677 -8662 0
8678 -8677 8662 0
8678 8677 -8662 0
-8679 8678 8663 0
-8679 -8678 -8663 0
8679 -8678 8663 0
8679 8678 -8663 0
-8680 8679 8664 0
-8680 -8679 -8664 0
8680 -8679 8664 0
8680 8679 -8664 0
-8681 8680 8665 0
-8681 -8680 -8665 0
8681 -8680 8665 0
8681 8680 -8665 0
-8681 0
-8682 8236 0
-8682 46 0
8682 -8236 -46 0
-8683 8238 0
-8683 40 0
8683 -8238 -40 0
-8684 8240 0
-8684 42 0
8684 -8240 -42 0
-8685 8242 0
-8685 44 0
8685 -8242 -44 0
-8686 8244 0
-8686 39 0
8686 -8244 -39 0
-8687 8246 0
-8687 47 0
8687 -8246 -47 0
-8688 8248 0
-8688 40 0
8688 -8248 -40 0
-8689 8250 0
-8689 46 0
8689 -8250 -46 0
-8690 8252 0
-8690 39 0
8690 -8252 -39 0
-8691 8254 0
-8691 47 0
8691 -8254 -47 0
-8692 8256 0
-8692 42 0
8692 -8256 -42 0
-8693 8258 0
-8693 44 0
8693 -8258 -44 0
-8694 8260 0
-8694 94 0
8694 -8260 -94 0
-8695 8262 0
-8695 88 0
8695 -8262 -88 0
-8696 8264 0
-8696 142 0
8696 -8264 -142 0
-8697 8266 0
-8697 136 0
8697 -8266 -136 0
-8698 8268 0
-8698 190 0
8698 -8268 -190 0
-8699 8682 8683 0
-8699 -8682 -8683 0
8699 -8682 8683 0
8699 8682 -8683 0
-8700 8699 8684 0
-8700 -8699 -8684 0
8700 -8699 8684 0
8700 8699 -8684 0
-8701 8700 8685 0
-8701 -8700 -8685 0
8701 -8700 8685 0
8701 8700 -8685 0
-8702 8701 8686 0
-8702 -8701 -8686 0
8702 -8701 8686 0
8702 8701 -8686 0
-8703 8702 8687 0
-8703 -8702 -8687 0
8703 -8702 8687 0
8703 8702 -8687 0
-8704 8703 8688 0
-8704 -8703 -8688 0
8704 -8703 8688 0
8704 8703 -8688 0
-8705 8704 8689 0
-8705 -8704 -8689 0
8705 -8704 8689 0
8705 8704 -8689 0
-8706 8705 8690 0
-8706 -8705 -8690 0
8706 -8705 8690 0
8706 8705 -8690 0
-8707 8706 8691 0
-8707 -8706 -8691 0
8707 -8706 8691 0
8707 8706 -8691 0
-8708 8707 8692 0
-8708 -8707 -8692 0
8708 -8707 8692 0
8708 8707 -8692 0
-8709 8708 8693 0
-8709 -8708 -8693 0
8709 -8708 8693 0
8709 8708 -8693 0
-8710 8709 8694 0
-8710 -8709 -8694 0
8710 -8709 8694 0
8710 8709 -8694 0
-8711 8710 8695 0
-8711 -8710 -8695 0
8711 -8710 8695 0
8711 8710 -8695 0
-8712 8711 8696 0
-8712 -8711 -8696 0
8712 -8711 8696 0
8712 8711 -8696 0
-8713 8712 8697 0
-8713 -8712 -8697 0
8713 -8712 8697 0
8713 8712 -8697 0
-8714 8713 8698 0
-8714 -8713 -8698 0
8714 -8713 8698 0
8714 8713 -8698 0
-8714 0
-8715 8236 0
-8715 47 0
8715 -8236 -47 0
-8716 8238 0
-8716 39 0
8716 -8238 -39 0
-8717 8240 0
-8717 44 0
8717 -8240 -44 0
-8718 8242 0
-8718 42 0
8718 -8242 -42 0
-8719 8244 0
-8719 40 0
8719 -8244 -40 0
-8720 8246 0
-8720 46 0
8720 -8246 -46 0
-8721 8248 0
-8721 44 0
8721 -8248 -44 0
-8722 8250 0
-8722 42 0
8722 -8250 -42 0
-8723 8252 0
-8723 47 0
8723 -8252 -47 0
-8724 8254 0
-8724 39 0
8724 -8254 -39 0
-8725 8256 0
-8725 46 0
8725 -8256 -46 0
-8726 8258 0
-8726 40 0
8726 -8258 -40 0
-8727 8260 0
-8727 95 0
8727 -8260 -95 0
-8728 8262 0
-8728 92 0
8728 -8262 -92 0
-8729 8264 0
-8729 143 0
8729 -8264 -143 0
-8730 8266 0
-8730 140 0
8730 -8266 -140 0
-8731 8268 0
-8731 191 0
8731 -8268 -191 0
-8732 8715 8716 0
-8732 -8715 -8716 0
8732 -8715 8716 0
8732 8715 -8716 0
-8733 8732 8717 0
-8733 -8732 -8717 0
8733 -8732 8717 0
8733 8732 -8717 0
-8734 8733 8718 0
-8734 -8733 -8718 0
8734 -8733 8718 0
8734 8733 -8718 0
-8735 8734 8719 0
-8735 -8734 -8719 0
8735 -8734 8719 0
8735 8734 -8719 0
-8736 8735 8720 0
-8736 -8735 -8720 0
8736 -8735 8720 0
8736 8735 -8720 0
-8737 8736 8721 0
-8737 -8736 -8721 0
8737 -8736 8721 0
8737 8736 -8721 0
-8738 8737 8722 0
-8738 -8737 -8722 0
8738 -8737 8722 0
8738 8737 -8722 0
-8739 8738 8723 0
-8739 -8738 -8723 0
8739 -8738 8723 0
8739 8738 -8723 0
-8740 8739 8724 0
-8740 -8739 -8724 0
8740 -8739 8724 0
8740 8739 -8724 0
-8741 8740 8725 0
-8741 -8740 -8725 0
8741 -8740 8725 0
8741 8740 -8725 0
-8742 8741 8726 0
-8742 -8741 -8726 0
8742 -8741 8726 0
8742 8741 -8726 0
-8743 8742 8727 0
-8743 -8742 -8727 0
8743 -8742 8727 0
8743 8742 -8727 0
-8744 8743 8728 0
-8744 -8743 -8728 0
8744 -8743 8728 0
8744 8743 -8728 0
-8745 8744 8729 0
-8745 -8744 -8729 0
8745 -8744 8729 0
8745 8744 -8729 0
-8746 8745 8730 0
-8746 -8745 -8730 0
8746 -8745 8730 0
8746 8745 -8730 0
-8747 8746 8731 0
-8747 -8746 -8731 0
8747 -8746 8731 0
8747 8746 -8731 0
-8747 0
-8748 8236 0
-8748 48 0
8748 -8236 -48 0
-8749 8238 0
-8749 38 0
8749 -8238 -38 0
-8750 8240 0
-8750 43 0
8750 -8240 -43 0
-8751 8242 0
-8751 43 0
8751 -8242 -43 0
-8752 8244 0
-8752 38 0
8752 -8244 -38 0
-8753 8246 0
-8753 48 0
8753 -8246 -48 0
-8754 8248 0
-8754 48 0
8754 -8248 -48 0
-8755 8250 0
-8755 38 0
8755 -8250 -38 0
-8756 8252 0
-8756 43 0
8756 -8252 -43 0
-8757 8254 0
-8757 43 0
8757 -8254 -43 0
-8758 8256 0
-8758 38 0
8758 -8256 -38 0
-8759 8258 0
-8759 48 0
8759 -8258 -48 0
-8760 8260 0
-8760 96 0
8760 -8260 -96 0
-8761 8262 0
-8761 96 0
8761 -8262 -96 0
-8762 8264 0
-8762 144 0
8762 -8264 -144 0
-8763 8266 0
-8763 144 0
8763 -8266 -144 0
-8764 8268 0
-8764 192 0
8764 -8268 -192 0
-8765 8748 8749 0
-8765 -8748 -8749 0
8765 -8748 8749 0
8765 8748 -8749 0
-8766 8765 8750 0
-8766 -8765 -8750 0
8766 -8765 8750 0
8766 8765 -8750 0
-8767 8766 8751 0
-8767 -8766 -8751 0
8767 -8766 8751 0
8767 8766 -8751 0
-8768 8767 8752 0
-8768 -8767 -8752 0
8768 -8767 8752 0
8768 8767 -8752 0
-8769 8768 8753 0
-8769 -8768 -8753 0
8769 -8768 8753 0
8769 8768 -8753 0
-8770 8769 8754 0
-8770 -8769 -8754 0
8770 -8769 8754 0
8770 8769 -8754 0
-8771 8770 8755 0
-8771 -8770 -8755 0
8771 -8770 8755 0
8771 8770 -8755 0
-8772 8771 8756 0
-8772 -8771 -8756 0
8772 -8771 8756 0
8772 8771 -8756 0
-8773 8772 8757 0
-8773 -8772 -8757 0
8773 -8772 8757 0
8773 8772 -8757 0
-8774 8773 8758 0
-8774 -8773 -8758 0
8774 -8773 8758 0
8774 8773 -8758 0
-8775 8774 8759 0
-8775 -8774 -8759 0
8775 -8774 8759 0
8775 8774 -8759 0
-8776 8775 8760 0
-8776 -8775 -8760 0
8776 -8775 8760 0
8776 8775 -8760 0
-8777 8776 8761 0
-8777 -8776 -8761 0
8777 -8776 8761 0
8777 8776 -8761 0
-8778 8777 8762 0
-8778 -8777 -8762 0
8778 -8777 8762 0
8778 8777 -8762 0
-8779 8778 8763 0
-8779 -8778 -8763 0
8779 -8778 8763 0
8779 8778 -8763 0
-8780 8779 8764 0
-8780 -8779 -8764 0
8780 -8779 8764 0
8780 8779 -8764 0
-8780 0
-8781 5 0
-8781 27 0
8781 -5 -27 0
-8782 8781 0
-8782 33 0
8782 -8781 -33 0
-8783 13 0
-8783 23 0
8783 -13 -23 0
-8784 8783 0
-8784 33 0
8784 -8783 -33 0
-8785 6 0
-8785 28 0
8785 -6 -28 0
-8786 8785 0
-8786 33 0
8786 -8785 -33 0
-8787 15 0
-8787 22 0
8787 -15 -22 0
-8788 8787 0
-8788 33 0
8788 -8787 -33 0
-8789 10 0
-8789 20 0
8789 -10 -20 0
-8790 8789 0
-8790 33 0
8790 -8789 -33 0
-8791 11 0
-8791 18 0
8791 -11 -18 0
-8792 8791 0
-8792 33 0
8792 -8791 -33 0
-8793 53 0
-8793 75 0
8793 -53 -75 0
-8794 8793 0
-8794 81 0
8794 -8793 -81 0
-8795 66 0
-8795 59 0
8795 -66 -59 0
-8796 8795 0
-8796 81 0
8796 -8795 -81 0
-8797 101 0
-8797 123 0
8797 -101 -123 0
-8798 8797 0
-8798 129 0
8798 -8797 -129 0
-8799 114 0
-8799 107 0
8799 -114 -107 0
-8800 8799 0
-8800 129 0
8800 -8799 -129 0
-8801 149 0
-8801 171 0
8801 -149 -171 0
-8802 8801 0
-8802 177 0
8802 -8801 -177 0
-8803 8782 8784 0
-8803 -8782 -8784 0
8803 -8782 8784 0
8803 8782 -8784 0
-8804 8803 8786 0
-8804 -8803 -8786 0
8804 -8803 8786 0
8804 8803 -8786 0
-8805 8804 8788 0
-8805 -8804 -8788 0
8805 -8804 8788 0
8805 8804 -8788 0
-8806 8805 8790 0
-8806 -8805 -8790 0
8806 -8805 8790 0
8806 8805 -8790 0
-8807 8806 8792 0
-8807 -8806 -8792 0
8807 -8806 8792 0
8807 8806 -8792 0
-8808 8807 8792 0
-8808 -8807 -8792 0
8808 -8807 8792 0
8808 8807 -8792 0
-8809 8808 8790 0
-8809 -8808 -8790 0
8809 -8808 8790 0
8809 8808 -8790 0
-8810 8809 8788 0
-8810 -8809 -8788 0
8810 -8809 8788 0
8810 8809 -8788 0
-8811 8810 8786 0
-8811 -8810 -8786 0
8811 -8810 8786 0
8811 8810 -8786 0
-8812 8811 8784 0
-8812 -8811 -8784 0
8812 -8811 8784 0
8812 8811 -8784 0
-8813 8812 8782 0
-8813 -8812 -8782 0
8813 -8812 8782 0
8813 8812 -8782 0
-8814 8813 8794 0
-8814 -8813 -8794 0
8814 -8813 8794 0
8814 8813 -8794 0
-8815 8814 8796 0
-8815 -8814 -8796 0
8815 -8814 8796 0
8815 8814 -8796 0
-8816 8815 8798 0
-8816 -8815 -8798 0
8816 -8815 8798 0
8816 8815 -8798 0
-8817 8816 8800 0
-8817 -8816 -8800 0
8817 -8816 8800 0
8817 8816 -8800 0
-8818 8817 8802 0
-8818 -8817 -8802 0
8818 -8817 8802 0
8818 8817 -8802 0
-8818 0
-8819 8781 0
-8819 34 0
8819 -8781 -34 0
-8820 8783 0
-8820 36 0
8820 -8783 -36 0
-8821 8785 0
-8821 34 0
8821 -8785 -34 0
-8822 8787 0
-8822 36 0
8822 -8787 -36 0
-8823 8789 0
-8823 35 0
8823 -8789 -35 0
-8824 8791 0
-8824 35 0
8824 -8791 -35 0
-8825 8791 0
-8825 37 0
8825 -8791 -37 0
-8826 8789 0
-8826 45 0
8826 -8789 -45 0
-8827 8787 0
-8827 37 0
8827 -8787 -37 0
-8828 8785 0
-8828 45 0
8828 -8785 -45 0
-8829 8783 0
-8829 41 0
8829 -8783 -41 0
-8830 8781 0
-8830 41 0
8830 -8781 -41 0
-8831 8793 0
-8831 82 0
8831 -8793 -82 0
-8832 8795 0
-8832 85 0
8832 -8795 -85 0
-8833 8797 0
-8833 130 0
8833 -8797 -130 0
-8834 8799 0
-8834 133 0
8834 -8799 -133 0
-8835 8801 0
-8835 178 0
8835 -8801 -178 0
-8836 8819 8820 0
-8836 -8819 -8820 0
8836 -8819 8820 0
8836 8819 -8820 0
-8837 8836 8821 0
-8837 -8836 -8821 0
8837 -8836 8821 0
8837 8836 -8821 0
-8838 8837 8822 0
-8838 -8837 -8822 0
8838 -8837 8822 0
8838 8837 -8822 0
-8839 8838 8823 0
-8839 -8838 -8823 0
8839 -8838 8823 0
8839 8838 -8823 0
-8840 8839 8824 0
-8840 -8839 -8824 0
8840 -8839 8824 0
8840 8839 -8824 0
-8841 8840 8825 0
-8841 -8840 -8825 0
8841 -8840 8825 0
8841 8840 -8825 0
-8842 8841 8826 0
-8842 -8841 -8826 0
8842 -8841 8826 0
8842 8841 -8826 0
-8843 8842 8827 0
-8843 -8842 -8827 0
8843 -8842 8827 0
8843 8842 -8827 0
-8844 8843 8828 0
-8844 -8843 -8828 0
8844 -8843 8828 0
8844 8843 -8828 0
-8845 8844 8829 0
-8845 -8844 -8829 0
8845 -8844 8829 0
8845 8844 -8829 0
-8846 8845 8830 0
-8846 -8845 -8830 0
8846 -8845 8830 0
8846 8845 -8830 0
-8847 8846 8831 0
-8847 -8846 -8831 0
8847 -8846 8831 0
8847 8846 -8831 0
-8848 8847 8832 0
-8848 -8847 -8832 0
8848 -8847 8832 0
8848 8847 -8832 0
-8849 8848 8833 0
-8849 -8848 -8833 0
8849 -8848 8833 0
8849 8848 -8833 0
-8850 8849 8834 0
-8850 -8849 -8834 0
8850 -8849 8834 0
8850 8849 -8834 0
-8851 8850 8835 0
-8851 -8850 -8835 0
8851 -8850 8835 0
8851 8850 -8835 0
8851 0
-8852 8781 0
-8852 35 0
8852 -8781 -35 0
-8853 8783 0
-8853 35 0
8853 -8783 -35 0
-8854 8785 0
-8854 36 0
8854 -8785 -36 0
-8855 8787 0
-8855 34 0
8855 -8787 -34 0
-8856 8789 0
-8856 36 0
8856 -8789 -36 0
-8857 8791 0
-8857 34 0
8857 -8791 -34 0
-8858 8791 0
-8858 41 0
8858 -8791 -41 0
-8859 8789 0
-8859 41 0
8859 -8789 -41 0
-8860 8787 0
-8860 45 0
8860 -8787 -45 0
-8861 8785 0
-8861 37 0
8861 -8785 -37 0
-8862 8783 0
-8862 45 0
8862 -8783 -45 0
-8863 8781 0
-8863 37 0
8863 -8781 -37 0
-8864 8793 0
-8864 83 0
8864 -8793 -83 0
-8865 8795 0
-8865 89 0
8865 -8795 -89 0
-8866 8797 0
-8866 131 0
8866 -8797 -131 0
-8867 8799 0
-8867 137 0
8867 -8799 -137 0
-8868 8801 0
-8868 179 0
8868 -8801 -179 0
-8869 8852 8853 0
-8869 -8852 -8853 0
8869 -8852 8853 0
8869 8852 -8853 0
-8870 8869 8854 0
-8870 -8869 -8854 0
8870 -8869 8854 0
8870 8869 -8854 0
-8871 8870 8855 0
-8871 -8870 -8855 0
8871 -8870 8855 0
8871 8870 -8855 0
-8872 8871 8856 0
-8872 -8871 -8856 0
8872 -8871 8856 0
8872 8871 -8856 0
-8873 8872 8857 0
-8873 -8872 -8857 0
8873 -8872 8857 0
8873 8872 -8857 0
-8874 8873 8858 0
-8874 -8873 -8858 0
8874 -8873 8858 0
8874 8873 -8858 0
-8875 8874 8859 0
-8875 -8874 -8859 0
8875 -8874 8859 0
8875 8874 -8859 0
-8876 8875 8860 0
-8876 -8875 -8860 0
8876 -8875 8860 0
8876 8875 -8860 0
-8877 8876 8861 0
-8877 -8876 -8861 0
8877 -8876 8861 0
8877 8876 -8861 0
-8878 8877 8862 0
-8878 -8877 -8862 0
8878 -8877 8862 0
8878 8877 -8862 0
-8879 8878 8863 0
-8879 -8878 -8863 0
8879 -8878 8863 0
8879 8878 -8863 0
-8880 8879 8864 0
-8880 -8879 -8864 0
8880 -8879 8864 0
8880 8879 -8864 0
-8881 8880 8865 0
-8881 -8880 -8865 0
8881 -8880 8865 0
8881 8880 -8865 0
-8882 8881 8866 0
-8882 -8881 -8866 0
8882 -8881 8866 0
8882 8881 -8866 0
-8883 8882 8867 0
-8883 -8882 -8867 0
8883 -8882 8867 0
8883 8882 -8867 0
-8884 8883 8868 0
-8884 -8883 -8868 0
8884 -8883 8868 0
8884 8883 -8868 0
-8884 0
-8885 8781 0
-8885 36 0
8885 -8781 -36 0
-8886 8783 0
-8886 34 0
8886 -8783 -34 0
-8887 8785 0
-8887 35 0
8887 -8785 -35 0
-8888 8787 0
-8888 35 0
8888 -8787 -35 0
-8889 8789 0
-8889 34 0
8889 -8789 -34 0
-8890 8791 0
-8890 36 0
8890 -8791 -36 0
-8891 8791 0
-8891 45 0
8891 -8791 -45 0
-8892 8789 0
-8892 37 0
8892 -8789 -37 0
-8893 8787 0
-8893 41 0
8893 -8787 -41 0
-8894 8785 0
-8894 41 0
8894 -8785 -41 0
-8895 8783 0
-8895 37 0
8895 -8783 -37 0
-8896 8781 0
-8896 45 0
8896 -8781 -45 0
-8897 8793 0
-8897 84 0
8897 -8793 -84 0
-8898 8795 0
-8898 93 0
8898 -8795 -93 0
-8899 8797 0
-8899 132 0
8899 -8797 -132 0
-8900 8799 0
-8900 141 0
8900 -8799 -141 0
-8901 8801 0
-8901 180 0
8901 -8801 -180 0
-8902 8885 8886 0
-8902 -8885 -8886 0
8902 -8885 8886 0
8902 8885 -8886 0
-8903 8902 8887 0
-8903 -8902 -8887 0
8903 -8902 8887 0
8903 8902 -8887 0
-8904 8903 8888 0
-8904 -8903 -8888 0
8904 -8903 8888 0
8904 8903 -8888 0
-8905 8904 8889 0
-8905 -8904 -8889 0
8905 -8904 8889 0
8905 8904 -8889 0
-8906 8905 8890 0
-8906 -8905 -8890 0
8906 -8905 8890 0
8906 8905 -8890 0
-8907 8906 8891 0
-8907 -8906 -8891 0
8907 -8906 8891 0
8907 8906 -8891 0
-8908 8907 8892 0
-8908 -8907 -8892 0
8908 -8907 8892 0
8908 8907 -8892 0
-8909 8908 8893 0
-8909 -8908 -8893 0
8909 -8908 8893 0
8909 8908 -8893 0
-8910 8909 8894 0
-8910 -8909 -8894 0
8910 -8909 8894 0
8910 8909 -8894 0
-8911 8910 8895 0
-8911 -8910 -8895 0
8911 -8910 8895 0
8911 8910 -8895 0
-8912 8911 8896 0
-8912 -8911 -8896 0
8912 -8911 8896 0
8912 8911 -8896 0
-8913 8912 8897 0
-8913 -8912 -8897 0
8913 -8912 8897 0
8913 8912 -8897 0
-8914 8913 8898 0
-8914 -8913 -8898 0
8914 -8913 8898 0
8914 8913 -8898 0
-8915 8914 8899 0
-8915 -8914 -8899 0
8915 -8914 8899 0
8915 8914 -8899 0
-8916 8915 8900 0
-8916 -8915 -8900 0
8916 -8915 8900 0
8916 8915 -8900 0
-8917 8916 8901 0
-8917 -8916 -8901 0
8917 -8916 8901 0
8917 8916 -8901 0
-8917 0
-8918 8781 0
-8918 38 0
8918 -8781 -38 0
-8919 8783 0
-8919 48 0
8919 -8783 -48 0
-8920 8785 0
-8920 38 0
8920 -8785 -38 0
-8921 8787 0
-8921 48 0
8921 -8787 -48 0
-8922 8789 0
-8922 43 0
8922 -8789 -43 0
-8923 8791 0
-8923 43 0
8923 -8791 -43 0
-8924 8791 0
-8924 38 0
8924 -8791 -38 0
-8925 8789 0
-8925 48 0
8925 -8789 -48 0
-8926 8787 0
-8926 38 0
8926 -8787 -38 0
-8927 8785 0
-8927 48 0
8927 -8785 -48 0
-8928 8783 0
-8928 43 0
8928 -8783 -43 0
-8929 8781 0
-8929 43 0
8929 -8781 -43 0
-8930 8793 0
-8930 86 0
8930 -8793 -86 0
-8931 8795 0
-8931 86 0
8931 -8795 -86 0
-8932 8797 0
-8932 134 0
8932 -8797 -134 0
-8933 8799 0
-8933 134 0
8933 -8799 -134 0
-8934 8801 0
-8934 182 0
8934 -8801 -182 0
-8935 8918 8919 0
-8935 -8918 -8919 0
8935 -8918 8919 0
8935 8918 -8919 0
-8936 8935 8920 0
-8936 -8935 -8920 0
8936 -8935 8920 0
8936 8935 -8920 0
-8937 8936 8921 0
-8937 -8936 -8921 0
8937 -8936 8921 0
8937 8936 -8921 0
-8938 8937 8922 0
-8938 -8937 -8922 0
8938 -8937 8922 0
8938 8937 -8922 0
-8939 8938 8923 0
-8939 -8938 -8923 0
8939 -8938 8923 0
8939 8938 -8923 0
-8940 8939 8924 0
-8940 -8939 -8924 0
8940 -8939 8924 0
8940 8939 -8924 0
-8941 8940 8925 0
-8941 -8940 -8925 0
8941 -8940 8925 0
8941 8940 -8925 0
-8942 8941 8926 0
-8942 -8941 -8926 0
8942 -8941 8926 0
8942 8941 -8926 0
-8943 8942 8927 0
-8943 -8942 -8927 0
8943 -8942 8927 0
8943 8942 -8927 0
-8944 8943 8928 0
-8944 -8943 -8928 0
8944 -8943 8928 0
8944 8943 -8928 0
-8945 8944 8929 0
-8945 -8944 -8929 0
8945 -8944 8929 0
8945 8944 -8929 0
-8946 8945 8930 0
-8946 -8945 -8930 0
8946 -8945 8930 0
8946 8945 -8930 0
-8947 8946 8931 0
-8947 -8946 -8931 0
8947 -8946 8931 0
8947 8946 -8931 0
-8948 8947 8932 0
-8948 -8947 -8932 0
8948 -8947 8932 0
8948 8947 -8932 0
-8949 8948 8933 0
-8949 -8948 -8933 0
8949 -8948 8933 0
8949 8948 -8933 0
-8950 8949 8934 0
-8950 -8949 -8934 0
8950 -8949 8934 0
8950 8949 -8934 0
8950 0
-8951 8781 0
-8951 39 0
8951 -8781 -39 0
-8952 8783 0
-8952 47 0
8952 -8783 -47 0
-8953 8785 0
-8953 40 0
8953 -8785 -40 0
-8954 8787 0
-8954 46 0
8954 -8787 -46 0
-8955 8789 0
-8955 44 0
8955 -8789 -44 0
-8956 8791 0
-8956 42 0
8956 -8791 -42 0
-8957 8793 0
-8957 87 0
8957 -8793 -87 0
-8958 8795 0
-8958 90 0
8958 -8795 -90 0
-8959 8797 0
-8959 135 0
8959 -8797 -135 0
-8960 8799 0
-8960 138 0
8960 -8799 -138 0
-8961 8801 0
-8961 183 0
8961 -8801 -183 0
-8962 8951 8952 0
-8962 -8951 -8952 0
8962 -8951 8952 0
8962 8951 -8952 0
-8963 8962 8953 0
-8963 -8962 -8953 0
8963 -8962 8953 0
8963 8962 -8953 0
-8964 8963 8954 0
-8964 -8963 -8954 0
8964 -8963 8954 0
8964 8963 -8954 0
-8965 8964 8955 0
-8965 -8964 -8955 0
8965 -8964 8955 0
8965 8964 -8955 0
-8966 8965 8956 0
-8966 -8965 -8956 0
8966 -8965 8956 0
8966 8965 -8956 0
-8967 8966 8956 0
-8967 -8966 -8956 0
8967 -8966 8956 0
8967 8966 -8956 0
-8968 8967 8955 0
-8968 -8967 -8955 0
8968 -8967 8955 0
8968 8967 -8955 0
-8969 8968 8954 0
-8969 -8968 -8954 0
8969 -8968 8954 0
8969 8968 -8954 0
-8970 8969 8953 0
-8970 -8969 -8953 0
8970 -8969 8953 0
8970 8969 -8953 0
-8971 8970 8952 0
-8971 -8970 -8952 0
8971 -8970 8952 0
8971 8970 -8952 0
-8972 8971 8951 0
-8972 -8971 -8951 0
8972 -8971 8951 0
8972 8971 -8951 0
-8973 8972 8957 0
-8973 -8972 -8957 0
8973 -8972 8957 0
8973 8972 -8957 0
-8974 8973 8958 0
-8974 -8973 -8958 0
8974 -8973 8958 0
8974 8973 -8958 0
-8975 8974 8959 0
-8975 -8974 -8959 0
8975 -8974 8959 0
8975 8974 -8959 0
-8976 8975 8960 0
-8976 -8975 -8960 0
8976 -8975 8960 0
8976 8975 -8960 0
-8977 8976 8961 0
-8977 -8976 -8961 0
8977 -8976 8961 0
8977 8976 -8961 0
-8977 0
-8978 8781 0
-8978 40 0
8978 -8781 -40 0
-8979 8783 0
-8979 46 0
8979 -8783 -46 0
-8980 8785 0
-8980 39 0
8980 -8785 -39 0
-8981 8787 0
-8981 47 0
8981 -8787 -47 0
-8982 8789 0
-8982 42 0
8982 -8789 -42 0
-8983 8791 0
-8983 44 0
8983 -8791 -44 0
-8984 8791 0
-8984 46 0
8984 -8791 -46 0
-8985 8789 0
-8985 40 0
8985 -8789 -40 0
-8986 8787 0
-8986 42 0
8986 -8787 -42 0
-8987 8785 0
-8987 44 0
8987 -8785 -44 0
-8988 8783 0
-8988 39 0
8988 -8783 -39 0
-8989 8781 0
-8989 47 0
8989 -8781 -47 0
-8990 8793 0
-8990 88 0
8990 -8793 -88 0
-8991 8795 0
-8991 94 0
8991 -8795 -94 0
-8992 8797 0
-8992 136 0
8992 -8797 -136 0
-8993 8799 0
-8993 142 0
8993 -8799 -142 0
-8994 8801 0
-8994 184 0
8994 -8801 -184 0
-8995 8978 8979 0
-8995 -8978 -8979 0
8995 -8978 8979 0
8995 8978 -8979 0
-8996 8995 8980 0
-8996 -8995 -8980 0
8996 -8995 8980 0
8996 8995 -8980 0
-8997 8996 8981 0
-8997 -8996 -8981 0
8997 -8996 8981 0
8997 8996 -8981 0
-8998 8997 8982 0
-8998 -8997 -8982 0
8998 -8997 8982 0
8998 8997 -8982 0
-8999 8998 8983 0
-8999 -8998 -8983 0
8999 -8998 8983 0
8999 8998 -8983 0
-9000 8999 8984 0
-9000 -8999 -8984 0
9000 -8999 8984 0
9000 8999 -8984 0
-9001 9000 8985 0
-9001 -9000 -8985 0
9001 -9000 8985 0
9001 9000 -8985 0
-9002 9001 8986 0
-9002 -9001 -8986 0
9002 -9001 8986 0
9002 9001 -8986 0
-9003 9002 8987 0
-9003 -9002 -8987 0
9003 -9002 8987 0
9003 9002 -8987 0
-9004 9003 8988 0
-9004 -9003 -8988 0
9004 -9003 8988 0
9004 9003 -8988 0
-9005 9004 8989 0
-9005 -9004 -8989 0
9005 -9004 8989 0
9005 9004 -8989 0
-9006 9005 8990 0
-9006 -9005 -8990 0
9006 -9005 8990 0
9006 9005 -8990 0
-9007 9006 8991 0
-9007 -9006 -8991 0
9007 -9006 8991 0
9007 9006 -8991 0
-9008 9007 8992 0
-9008 -9007 -8992 0
9008 -9007 8992 0
9008 9007 -8992 0
-9009 9008 8993 0
-9009 -9008 -8993 0
9009 -9008 8993 0
9009 9008 -8993 0
-9010 9009 8994 0
-9010 -9009 -8994 0
9010 -9009 8994 0
9010 9009 -8994 0
-9010 0
-9011 8781 0
-9011 42 0
9011 -8781 -42 0
-9012 8783 0
-9012 44 0
9012 -8783 -44 0
-9013 8785 0
-9013 46 0
9013 -8785 -46 0
-9014 8787 0
-9014 40 0
9014 -8787 -40 0
-9015 8789 0
-9015 47 0
9015 -8789 -47 0
-9016 8791 0
-9016 39 0
9016 -8791 -39 0
-9017 8793 0
-9017 90 0
9017 -8793 -90 0
-9018 8795 0
-9018 87 0
9018 -8795 -87 0
-9019 8797 0
-9019 138 0
9019 -8797 -138 0
-9020 8799 0
-9020 135 0
9020 -8799 -135 0
-9021 8801 0
-9021 186 0
9021 -8801 -186 0
-9022 9011 9012 0
-9022 -9011 -9012 0
9022 -9011 9012 0
9022 9011 -9012 0
-9023 9022 9013 0
-9023 -9022 -9013 0
9023 -9022 9013 0
9023 9022 -9013 0
-9024 9023 9014 0
-9024 -9023 -9014 0
9024 -9023 9014 0
9024 9023 -9014 0
-9025 9024 9015 0
-9025 -9024 -9015 0
9025 -9024 9015 0
9025 9024 -9015 0
-9026 9025 9016 0
-9026 -9025 -9016 0
9026 -9025 9016 0
9026 9025 -9016 0
-9027 9026 9016 0
-9027 -9026 -9016 0
9027 -9026 9016 0
9027 9026 -9016 0
-9028 9027 9015 0
-9028 -9027 -9015 0
9028 -9027 9015 0
9028 9027 -9015 0
-9029 9028 9014 0
-9029 -9028 -9014 0
9029 -9028 9014 0
9029 9028 -9014 0
-9030 9029 9013 0
-9030 -9029 -9013 0
9030 -9029 9013 0
9030 9029 -9013 0
-9031 9030 9012 0
-9031 -9030 -9012 0
9031 -9030 9012 0
9031 9030 -9012 0
-9032 9031 9011 0
-9032 -9031 -9011 0
9032 -9031 9011 0
9032 9031 -9011 0
-9033 9032 9017 0
-9033 -9032 -9017 0
9033 -9032 9017 0
9033 9032 -9017 0
-9034 9033 9018 0
-9034 -9033 -9018 0
9034 -9033 9018 0
9034 9033 -9018 0
-9035 9034 9019 0
-9035 -9034 -9019 0
9035 -9034 9019 0
9035 9034 -9019 0
-9036 9035 9020 0
-9036 -9035 -9020 0
9036 -9035 9020 0
9036 9035 -9020 0
-9037 9036 9021 0
-9037 -9036 -9021 0
9037 -9036 9021 0
9037 9036 -9021 0
-9037 0
-9038 8781 0
-9038 44 0
9038 -8781 -44 0
-9039 8783 0
-9039 42 0
9039 -8783 -42 0
-9040 8785 0
-9040 47 0
9040 -8785 -47 0
-9041 8787 0
-9041 39 0
9041 -8787 -39 0
-9042 8789 0
-9042 46 0
9042 -8789 -46 0
-9043 8791 0
-9043 40 0
9043 -8791 -40 0
-9044 8791 0
-9044 47 0
9044 -8791 -47 0
-9045 8789 0
-9045 39 0
9045 -8789 -39 0
-9046 8787 0
-9046 44 0
9046 -8787 -44 0
-9047 8785 0
-9047 42 0
9047 -8785 -42 0
-9048 8783 0
-9048 40 0
9048 -8783 -40 0
-9049 8781 0
-9049 46 0
9049 -8781 -46 0
-9050 8793 0
-9050 92 0
9050 -8793 -92 0
-9051 8795 0
-9051 95 0
9051 -8795 -95 0
-9052 8797 0
-9052 140 0
9052 -8797 -140 0
-9053 8799 0
-9053 143 0
9053 -8799 -143 0
-9054 8801 0
-9054 188 0
9054 -8801 -188 0
-9055 9038 9039 0
-9055 -9038 -9039 0
9055 -9038 9039 0
9055 9038 -9039 0
-9056 9055 9040 0
-9056 -9055 -9040 0
9056 -9055 9040 0
9056 9055 -9040 0
-9057 9056 9041 0
-9057 -9056 -9041 0
9057 -9056 9041 0
9057 9056 -9041 0
-9058 9057 9042 0
-9058 -9057 -9042 0
9058 -9057 9042 0
9058 9057 -9042 0
-9059 9058 9043 0
-9059 -9058 -9043 0
9059 -9058 9043 0
9059 9058 -9043 0
-9060 9059 9044 0
-9060 -9059 -9044 0
9060 -9059 9044 0
9060 9059 -9044 0
-9061 9060 9045 0
-9061 -9060 -9045 0
9061 -9060 9045 0
9061 9060 -9045 0
-9062 9061 9046 0
-9062 -9061 -9046 0
9062 -9061 9046 0
9062 9061 -9046 0
-9063 9062 9047 0
-9063 -9062 -9047 0
9063 -9062 9047 0
9063 9062 -9047 0
-9064 9063 9048 0
-9064 -9063 -9048 0
9064 -9063 9048 0
9064 9063 -9048 0
-9065 9064 9049 0
-9065 -9064 -9049 0
9065 -9064 9049 0
9065 9064 -9049 0
-9066 9065 9050 0
-9066 -9065 -9050 0
9066 -9065 9050 0
9066 9065 -9050 0
-9067 9066 9051 0
-9067 -9066 -9051 0
9067 -9066 9051 0
9067 9066 -9051 0
-9068 9067 9052 0
-9068 -9067 -9052 0
9068 -9067 9052 0
9068 9067 -9052 0
-9069 9068 9053 0
-9069 -9068 -9053 0
9069 -9068 9053 0
9069 9068 -9053 0
-9070 9069 9054 0
-9070 -9069 -9054 0
9070 -9069 9054 0
9070 9069 -9054 0
-9070 0
-9071 8781 0
-9071 48 0
9071 -8781 -48 0
-9072 8783 0
-9072 38 0
9072 -8783 -38 0
-9073 8785 0
-9073 43 0
9073 -8785 -43 0
-9074 8787 0
-9074 43 0
9074 -8787 -43 0
-9075 8789 0
-9075 38 0
9075 -8789 -38 0
-9076 8791 0
-9076 48 0
9076 -8791 -48 0
-9077 8793 0
-9077 96 0
9077 -8793 -96 0
-9078 8795 0
-9078 96 0
9078 -8795 -96 0
-9079 8797 0
-9079 144 0
9079 -8797 -144 0
-9080 8799 0
-9080 144 0
9080 -8799 -144 0
-9081 8801 0
-9081 192 0
9081 -8801 -192 0
-9082 9071 9072 0
-9082 -9071 -9072 0
9082 -9071 9072 0
9082 9071 -9072 0
-9083 9082 9073 0
-9083 -9082 -9073 0
9083 -9082 9073 0
9083 9082 -9073 0
-9084 9083 9074 0
-9084 -9083 -9074 0
9084 -9083 9074 0
9084 9083 -9074 0
-9085 9084 9075 0
-9085 -9084 -9075 0
9085 -9084 9075 0
9085 9084 -9075 0
-9086 9085 9076 0
-9086 -9085 -9076 0
9086 -9085 9076 0
9086 9085 -9076 0
-9087 9086 9076 0
-9087 -9086 -9076 0
9087 -9086 9076 0
9087 9086 -9076 0
-9088 9087 9075 0
-9088 -9087 -9075 0
9088 -9087 9075 0
9088 9087 -9075 0
-9089 9088 9074 0
-9089 -9088 -9074 0
9089 -9088 9074 0
9089 9088 -9074 0
-9090 9089 9073 0
-9090 -9089 -9073 0
9090 -9089 9073 0
9090 9089 -9073 0
-9091 9090 9072 0
-9091 -9090 -9072 0
9091 -9090 9072 0
9091 9090 -9072 0
-9092 9091 9071 0
-9092 -9091 -9071 0
9092 -9091 9071 0
9092 9091 -9071 0
-9093 9092 9077 0
-9093 -9092 -9077 0
9093 -9092 9077 0
9093 9092 -9077 0
-9094 9093 9078 0
-9094 -9093 -9078 0
9094 -9093 9078 0
9094 9093 -9078 0
-9095 9094 9079 0
-9095 -9094 -9079 0
9095 -9094 9079 0
9095 9094 -9079 0
-9096 9095 9080 0
-9096 -9095 -9080 0
9096 -9095 9080 0
9096 9095 -9080 0
-9097 9096 9081 0
-9097 -9096 -9081 0
9097 -9096 9081 0
9097 9096 -9081 0
-9097 0
-9098 5 0
-9098 30 0
9098 -5 -30 0
-9099 9098 0
-9099 33 0
9099 -9098 -33 0
-9100 13 0
-9100 32 0
9100 -13 -32 0
-9101 9100 0
-9101 33 0
9101 -9100 -33 0
-9102 6 0
-9102 30 0
9102 -6 -30 0
-9103 9102 0
-9103 33 0
9103 -9102 -33 0
-9104 15 0
-9104 32 0
9104 -15 -32 0
-9105 9104 0
-9105 33 0
9105 -9104 -33 0
-9106 10 0
-9106 31 0
9106 -10 -31 0
-9107 9106 0
-9107 33 0
9107 -9106 -33 0
-9108 11 0
-9108 31 0
9108 -11 -31 0
-9109 9108 0
-9109 33 0
9109 -9108 -33 0
-9110 18 0
-9110 8 0
9110 -18 -8 0
-9111 9110 0
-9111 33 0
9111 -9110 -33 0
-9112 20 0
-9112 16 0
9112 -20 -16 0
-9113 9112 0
-9113 33 0
9113 -9112 -33 0
-9114 22 0
-9114 8 0
9114 -22 -8 0
-9115 9114 0
-9115 33 0
9115 -9114 -33 0
-9116 28 0
-9116 16 0
9116 -28 -16 0
-9117 9116 0
-9117 33 0
9117 -9116 -33 0
-9118 23 0
-9118 12 0
9118 -23 -12 0
-9119 9118 0
-9119 33 0
9119 -9118 -33 0
-9120 27 0
-9120 12 0
9120 -27 -12 0
-9121 9120 0
-9121 33 0
9121 -9120 -33 0
-9122 53 0
-9122 78 0
9122 -53 -78 0
-9123 9122 0
-9123 81 0
9123 -9122 -81 0
-9124 66 0
-9124 56 0
9124 -66 -56 0
-9125 9124 0
-9125 81 0
9125 -9124 -81 0
-9126 101 0
-9126 126 0
9126 -101 -126 0
-9127 9126 0
-9127 129 0
9127 -9126 -129 0
-9128 114 0
-9128 104 0
9128 -114 -104 0
-9129 9128 0
-9129 129 0
9129 -9128 -129 0
-9130 149 0
-9130 174 0
9130 -149 -174 0
-9131 9130 0
-9131 177 0
9131 -9130 -177 0
-9132 9099 9101 0
-9132 -9099 -9101 0
9132 -9099 9101 0
9132 9099 -9101 0
-9133 9132 9103 0
-9133 -9132 -9103 0
9133 -9132 9103 0
9133 9132 -9103 0
-9134 9133 9105 0
-9134 -9133 -9105 0
9134 -9133 9105 0
9134 9133 -9105 0
-9135 9134 9107 0
-9135 -9134 -9107 0
9135 -9134 9107 0
9135 9134 -9107 0
-9136 9135 9109 0
-9136 -9135 -9109 0
9136 -9135 9109 0
9136 9135 -9109 0
-9137 9136 9111 0
-9137 -9136 -9111 0
9137 -9136 9111 0
9137 9136 -9111 0
-9138 9137 9113 0
-9138 -9137 -9113 0
9138 -9137 9113 0
9138 9137 -9113 0
-9139 9138 9115 0
-9139 -9138 -9115 0
9139 -9138 9115 0
9139 9138 -9115 0
-9140 9139 9117 0
-9140 -9139 -9117 0
9140 -9139 9117 0
9140 9139 -9117 0
-9141 9140 9119 0
-9141 -9140 -9119 0
9141 -9140 9119 0
9141 9140 -9119 0
-9142 9141 9121 0
-9142 -9141 -9121 0
9142 -9141 9121 0
9142 9141 -9121 0
-9143 9142 9123 0
-9143 -9142 -9123 0
9143 -9142 9123 0
9143 9142 -9123 0
-9144 9143 9125 0
-9144 -9143 -9125 0
9144 -9143 9125 0
9144 9143 -9125 0
-9145 9144 9127 0
-9145 -9144 -9127 0
9145 -9144 9127 0
9145 9144 -9127 0
-9146 9145 9129 0
-9146 -9145 -9129 0
9146 -9145 9129 0
9146 9145 -9129 0
-9147 9146 9131 0
-9147 -9146 -9131 0
9147 -9146 9131 0
9147 9146 -9131 0
-9147 0
-9148 9098 0
-9148 34 0
9148 -9098 -34 0
-9149 9100 0
-9149 36 0
9149 -9100 -36 0
-9150 9102 0
-9150 34 0
9150 -9102 -34 0
-9151 9104 0
-9151 36 0
9151 -9104 -36 0
-9152 9106 0
-9152 35 0
9152 -9106 -35 0
-9153 9108 0
-9153 35 0
9153 -9108 -35 0
-9154 9110 0
-9154 37 0
9154 -9110 -37 0
-9155 9112 0
-9155 45 0
9155 -9112 -45 0
-9156 9114 0
-9156 37 0
9156 -9114 -37 0
-9157 9116 0
-9157 45 0
9157 -9116 -45 0
-9158 9118 0
-9158 41 0
9158 -9118 -41 0
-9159 9120 0
-9159 41 0
9159 -9120 -41 0
-9160 9122 0
-9160 82 0
9160 -9122 -82 0
-9161 9124 0
-9161 85 0
9161 -9124 -85 0
-9162 9126 0
-9162 130 0
9162 -9126 -130 0
-9163 9128 0
-9163 133 0
9163 -9128 -133 0
-9164 9130 0
-9164 178 0
9164 -9130 -178 0
-9165 9148 9149 0
-9165 -9148 -9149 0
9165 -9148 9149 0
9165 9148 -9149 0
-9166 9165 9150 0
-9166 -9165 -9150 0
9166 -9165 9150 0
9166 9165 -9150 0
-9167 9166 9151 0
-9167 -9166 -9151 0
9167 -9166 9151 0
9167 9166 -9151 0
-9168 9167 9152 0
-9168 -9167 -9152 0
9168 -9167 9152 0
9168 9167 -9152 0
-9169 9168 9153 0
-9169 -9168 -9153 0
9169 -9168 9153 0
9169 9168 -9153 0
-9170 9169 9154 0
-9170 -9169 -9154 0
9170 -9169 9154 0
9170 9169 -9154 0
-9171 9170 9155 0
-9171 -9170 -9155 0
9171 -9170 9155 0
9171 9170 -9155 0
-9172 9171 9156 0
-9172 -9171 -9156 0
9172 -9171 9156 0
9172 9171 -9156 0
-9173 9172 9157 0
-9173 -9172 -9157 0
9173 -9172 9157 0
9173 9172 -9157 0
-9174 9173 9158 0
-9174 -9173 -9158 0
9174 -9173 9158 0
9174 9173 -9158 0
-9175 9174 9159 0
-9175 -9174 -9159 0
9175 -9174 9159 0
9175 9174 -9159 0
-9176 9175 9160 0
-9176 -9175 -9160 0
9176 -9175 9160 0
9176 9175 -9160 0
-9177 9176 9161 0
-9177 -9176 -9161 0
9177 -9176 9161 0
9177 9176 -9161 0
-9178 9177 9162 0
-9178 -9177 -9162 0
9178 -9177 9162 0
9178 9177 -9162 0
-9179 9178 9163 0
-9179 -9178 -9163 0
9179 -9178 9163 0
9179 9178 -9163 0
-9180 9179 9164 0
-9180 -9179 -9164 0
9180 -9179 9164 0
9180 9179 -9164 0
-9180 0
-9181 9098 0
-9181 35 0
9181 -9098 -35 0
-9182 9100 0
-9182 35 0
9182 -9100 -35 0
-9183 9102 0
-9183 36 0
9183 -9102 -36 0
-9184 9104 0
-9184 34 0
9184 -9104 -34 0
-9185 9106 0
-9185 36 0
9185 -9106 -36 0
-9186 9108 0
-9186 34 0
9186 -9108 -34 0
-9187 9110 0
-9187 41 0
9187 -9110 -41 0
-9188 9112 0
-9188 41 0
9188 -9112 -41 0
-9189 9114 0
-9189 45 0
9189 -9114 -45 0
-9190 9116 0
-9190 37 0
9190 -9116 -37 0
-9191 9118 0
-9191 45 0
9191 -9118 -45 0
-9192 9120 0
-9192 37 0
9192 -9120 -37 0
-9193 9122 0
-9193 83 0
9193 -9122 -83 0
-9194 9124 0
-9194 89 0
9194 -9124 -89 0
-9195 9126 0
-9195 131 0
9195 -9126 -131 0
-9196 9128 0
-9196 137 0
9196 -9128 -137 0
-9197 9130 0
-9197 179 0
9197 -9130 -179 0
-9198 9181 9182 0
-9198 -9181 -9182 0
9198 -9181 9182 0
9198 9181 -9182 0
-9199 9198 9183 0
-9199 -9198 -9183 0
9199 -9198 9183 0
9199 9198 -9183 0
-9200 9199 9184 0
-9200 -9199 -9184 0
9200 -9199 9184 0
9200 9199 -9184 0
-9201 9200 9185 0
-9201 -9200 -9185 0
9201 -9200 9185 0
9201 9200 -9185 0
-9202 9201 9186 0
-9202 -9201 -9186 0
9202 -9201 9186 0
9202 9201 -9186 0
-9203 9202 9187 0
-9203 -9202 -9187 0
9203 -9202 9187 0
9203 9202 -9187 0
-9204 9203 9188 0
-9204 -9203 -9188 0
9204 -9203 9188 0
9204 9203 -9188 0
-9205 9204 9189 0
-9205 -9204 -9189 0
9205 -9204 9189 0
9205 9204 -9189 0
-9206 9205 9190 0
-9206 -9205 -9190 0
9206 -9205 9190 0
9206 9205 -9190 0
-9207 9206 9191 0
-9207 -9206 -9191 0
9207 -9206 9191 0
9207 9206 -9191 0
-9208 9207 9192 0
-9208 -9207 -9192 0
9208 -9207 9192 0
9208 9207 -9192 0
-9209 9208 9193 0
-9209 -9208 -9193 0
9209 -9208 9193 0
9209 9208 -9193 0
-9210 9209 9194 0
-9210 -9209 -9194 0
9210 -9209 9194 0
9210 9209 -9194 0
-9211 9210 9195 0
-9211 -9210 -9195 0
9211 -9210 9195 0
9211 9210 -9195 0
-9212 9211 9196 0
-9212 -9211 -9196 0
9212 -9211 9196 0
9212 9211 -9196 0
-9213 9212 9197 0
-9213 -9212 -9197 0
9213 -9212 9197 0
9213 9212 -9197 0
-9213 0
-9214 9098 0
-9214 36 0
9214 -9098 -36 0
-9215 9100 0
-9215 34 0
9215 -9100 -34 0
-9216 9102 0
-9216 35 0
9216 -9102 -35 0
-9217 9104 0
-9217 35 0
9217 -9104 -35 0
-9218 9106 0
-9218 34 0
9218 -9106 -34 0
-9219 9108 0
-9219 36 0
9219 -9108 -36 0
-9220 9110 0
-9220 45 0
9220 -9110 -45 0
-9221 9112 0
-9221 37 0
9221 -9112 -37 0
-9222 9114 0
-9222 41 0
9222 -9114 -41 0
-9223 9116 0
-9223 41 0
9223 -9116 -41 0
-9224 9118 0
-9224 37 0
9224 -9118 -37 0
-9225 9120 0
-9225 45 0
9225 -9120 -45 0
-9226 9122 0
-9226 84 0
9226 -9122 -84 0
-9227 9124 0
-9227 93 0
9227 -9124 -93 0
-9228 9126 0
-9228 132 0
9228 -9126 -132 0
-9229 9128 0
-9229 141 0
9229 -9128 -141 0
-9230 9130 0
-9230 180 0
9230 -9130 -180 0
-9231 9214 9215 0
-9231 -9214 -9215 0
9231 -9214 9215 0
9231 9214 -9215 0
-9232 9231 9216 0
-9232 -9231 -9216 0
9232 -9231 9216 0
9232 9231 -9216 0
-9233 9232 9217 0
-9233 -9232 -9217 0
9233 -9232 9217 0
9233 9232 -9217 0
-9234 9233 9218 0
-9234 -9233 -9218 0
9234 -9233 9218 0
9234 9233 -9218 0
-9235 9234 9219 0
-9235 -9234 -9219 0
9235 -9234 9219 0
9235 9234 -9219 0
-9236 9235 9220 0
-9236 -9235 -9220 0
9236 -9235 9220 0
9236 9235 -9220 0
-9237 9236 9221 0
-9237 -9236 -9221 0
9237 -9236 9221 0
9237 9236 -9221 0
-9238 9237 9222 0
-9238 -9237 -9222 0
9238 -9237 9222 0
9238 9237 -9222 0
-9239 9238 9223 0
-9239 -9238 -9223 0
9239 -9238 9223 0
9239 9238 -9223 0
-9240 9239 9224 0
-9240 -9239 -9224 0
9240 -9239 9224 0
9240 9239 -9224 0
-9241 9240 9225 0
-9241 -9240 -9225 0
9241 -9240 9225 0
9241 9240 -9225 0
-9242 9241 9226 0
-9242 -9241 -9226 0
9242 -9241 9226 0
9242 9241 -9226 0
-9243 9242 9227 0
-9243 -9242 -9227 0
9243 -9242 9227 0
9243 9242 -9227 0
-9244 9243 9228 0
-9244 -9243 -9228 0
9244 -9243 9228 0
9244 9243 -9228 0
-9245 9244 9229 0
-9245 -9244 -9229 0
9245 -9244 9229 0
9245 9244 -9229 0
-9246 9245 9230 0
-9246 -9245 -9230 0
9246 -9245 9230 0
9246 9245 -9230 0
-9246 0
-9247 9098 0
-9247 37 0
9247 -9098 -37 0
-9248 9100 0
-9248 45 0
9248 -9100 -45 0
-9249 9102 0
-9249 37 0
9249 -9102 -37 0
-9250 9104 0
-9250 45 0
9250 -9104 -45 0
-9251 9106 0
-9251 41 0
9251 -9106 -41 0
-9252 9108 0
-9252 41 0
9252 -9108 -41 0
-9253 9110 0
-9253 34 0
9253 -9110 -34 0
-9254 9112 0
-9254 36 0
9254 -9112 -36 0
-9255 9114 0
-9255 34 0
9255 -9114 -34 0
-9256 9116 0
-9256 36 0
9256 -9116 -36 0
-9257 9118 0
-9257 35 0
9257 -9118 -35 0
-9258 9120 0
-9258 35 0
9258 -9120 -35 0
-9259 9122 0
-9259 85 0
9259 -9122 -85 0
-9260 9124 0
-9260 82 0
9260 -9124 -82 0
-9261 9126 0
-9261 133 0
9261 -9126 -133 0
-9262 9128 0
-9262 130 0
9262 -9128 -130 0
-9263 9130 0
-9263 181 0
9263 -9130 -181 0
-9264 9247 9248 0
-9264 -9247 -9248 0
9264 -9247 9248 0
9264 9247 -9248 0
-9265 9264 9249 0
-9265 -9264 -9249 0
9265 -9264 9249 0
9265 9264 -9249 0
-9266 9265 9250 0
-9266 -9265 -9250 0
9266 -9265 9250 0
9266 9265 -9250 0
-9267 9266 9251 0
-9267 -9266 -9251 0
9267 -9266 9251 0
9267 9266 -9251 0
-9268 9267 9252 0
-9268 -9267 -9252 0
9268 -9267 9252 0
9268 9267 -9252 0
-9269 9268 9253 0
-9269 -9268 -9253 0
9269 -9268 9253 0
9269 9268 -9253 0
-9270 9269 9254 0
-9270 -9269 -9254 0
9270 -9269 9254 0
9270 9269 -9254 0
-9271 9270 9255 0
-9271 -9270 -9255 0
9271 -9270 9255 0
9271 9270 -9255 0
-9272 9271 9256 0
-9272 -9271 -9256 0
9272 -9271 9256 0
9272 9271 -9256 0
-9273 9272 9257 0
-9273 -9272 -9257 0
9273 -9272 9257 0
9273 9272 -9257 0
-9274 9273 9258 0
-9274 -9273 -9258 0
9274 -9273 9258 0
9274 9273 -9258 0
-9275 9274 9259 0
-9275 -9274 -9259 0
9275 -9274 9259 0
9275 9274 -9259 0
-9276 9275 9260 0
-9276 -9275 -9260 0
9276 -9275 9260 0
9276 9275 -9260 0
-9277 9276 9261 0
-9277 -9276 -9261 0
9277 -9276 9261 0
9277 9276 -9261 0
-9278 9277 9262 0
-9278 -9277 -9262 0
9278 -9277 9262 0
9278 9277 -9262 0
-9279 9278 9263 0
-9279 -9278 -9263 0
9279 -9278 9263 0
9279 9278 -9263 0
-9279 0
-9280 9098 0
-9280 38 0
9280 -9098 -38 0
-9281 9100 0
-9281 48 0
9281 -9100 -48 0
-9282 9102 0
-9282 38 0
9282 -9102 -38 0
-9283 9104 0
-9283 48 0
9283 -9104 -48 0
-9284 9106 0
-9284 43 0
9284 -9106 -43 0
-9285 9108 0
-9285 43 0
9285 -9108 -43 0
-9286 9110 0
-9286 38 0
9286 -9110 -38 0
-9287 9112 0
-9287 48 0
9287 -9112 -48 0
-9288 9114 0
-9288 38 0
9288 -9114 -38 0
-9289 9116 0
-9289 48 0
9289 -9116 -48 0
-9290 9118 0
-9290 43 0
9290 -9118 -43 0
-9291 9120 0
-9291 43 0
9291 -9120 -43 0
-9292 9122 0
-9292 86 0
9292 -9122 -86 0
-9293 9124 0
-9293 86 0
9293 -9124 -86 0
-9294 9126 0
-9294 134 0
9294 -9126 -134 0
-9295 9128 0
-9295 134 0
9295 -9128 -134 0
-9296 9130 0
-9296 182 0
9296 -9130 -182 0
-9297 9280 9281 0
-9297 -9280 -9281 0
9297 -9280 9281 0
9297 9280 -9281 0
-9298 9297 9282 0
-9298 -9297 -9282 0
9298 -9297 9282 0
9298 9297 -9282 0
-9299 9298 9283 0
-9299 -9298 -9283 0
9299 -9298 9283 0
9299 9298 -9283 0
-9300 9299 9284 0
-9300 -9299 -9284 0
9300 -9299 9284 0
9300 9299 -9284 0
-9301 9300 9285 0
-9301 -9300 -9285 0
9301 -9300 9285 0
9301 9300 -9285 0
-9302 9301 9286 0
-9302 -9301 -9286 0
9302 -9301 9286 0
9302 9301 -9286 0
-9303 9302 9287 0
-9303 -9302 -9287 0
9303 -9302 9287 0
9303 9302 -9287 0
-9304 9303 9288 0
-9304 -9303 -9288 0
9304 -9303 9288 0
9304 9303 -9288 0
-9305 9304 9289 0
-9305 -9304 -9289 0
9305 -9304 9289 0
9305 9304 -9289 0
-9306 9305 9290 0
-9306 -9305 -9290 0
9306 -9305 9290 0
9306 9305 -9290 0
-9307 9306 9291 0
-9307 -9306 -9291 0
9307 -9306 9291 0
9307 9306 -9291 0
-9308 9307 9292 0
-9308 -9307 -9292 0
9308 -9307 9292 0
9308 9307 -9292 0
-9309 9308 9293 0
-9309 -9308 -9293 0
9309 -9308 9293 0
9309 9308 -9293 0
-9310 9309 9294 0
-9310 -9309 -9294 0
9310 -9309 9294 0
9310 9309 -9294 0
-9311 9310 9295 0
-9311 -9310 -9295 0
9311 -9310 9295 0
9311 9310 -9295 0
-9312 9311 9296 0
-9312 -9311 -9296 0
9312 -9311 9296 0
9312 9311 -9296 0
-9312 0
-9313 9098 0
-9313 39 0
9313 -9098 -39 0
-9314 9100 0
-9314 47 0
9314 -9100 -47 0
-9315 9102 0
-9315 40 0
9315 -9102 -40 0
-9316 9104 0
-9316 46 0
9316 -9104 -46 0
-9317 9106 0
-9317 44 0
9317 -9106 -44 0
-9318 9108 0
-9318 42 0
9318 -9108 -42 0
-9319 9110 0
-9319 42 0
9319 -9110 -42 0
-9320 9112 0
-9320 44 0
9320 -9112 -44 0
-9321 9114 0
-9321 46 0
9321 -9114 -46 0
-9322 9116 0
-9322 40 0
9322 -9116 -40 0
-9323 9118 0
-9323 47 0
9323 -9118 -47 0
-9324 9120 0
-9324 39 0
9324 -9120 -39 0
-9325 9122 0
-9325 87 0
9325 -9122 -87 0
-9326 9124 0
-9326 90 0
9326 -9124 -90 0
-9327 9126 0
-9327 135 0
9327 -9126 -135 0
-9328 9128 0
-9328 138 0
9328 -9128 -138 0
-9329 9130 0
-9329 183 0
9329 -9130 -183 0
-9330 9313 9314 0
-9330 -9313 -9314 0
9330 -9313 9314 0
9330 9313 -9314 0
-9331 9330 9315 0
-9331 -9330 -9315 0
9331 -9330 9315 0
9331 9330 -9315 0
-9332 9331 9316 0
-9332 -9331 -9316 0
9332 -9331 9316 0
9332 9331 -9316 0
-9333 9332 9317 0
-9333 -9332 -9317 0
9333 -9332 9317 0
9333 9332 -9317 0
-9334 9333 9318 0
-9334 -9333 -9318 0
9334 -9333 9318 0
9334 9333 -9318 0
-9335 9334 9319 0
-9335 -9334 -9319 0
9335 -9334 9319 0
9335 9334 -9319 0
-9336 9335 9320 0
-9336 -9335 -9320 0
9336 -9335 9320 0
9336 9335 -9320 0
-9337 9336 9321 0
-9337 -9336 -9321 0
9337 -9336 9321 0
9337 9336 -9321 0
-9338 9337 9322 0
-9338 -9337 -9322 0
9338 -9337 9322 0
9338 9337 -9322 0
-9339 9338 9323 0
-9339 -9338 -9323 0
9339 -9338 9323 0
9339 9338 -9323 0
-9340 9339 9324 0
-9340 -9339 -9324 0
9340 -9339 9324 0
9340 9339 -9324 0
-9341 9340 9325 0
-9341 -9340 -9325 0
9341 -9340 9325 0
9341 9340 -9325 0
-9342 9341 9326 0
-9342 -9341 -9326 0
9342 -9341 9326 0
9342 9341 -9326 0
-9343 9342 9327 0
-9343 -9342 -9327 0
9343 -9342 9327 0
9343 9342 -9327 0
-9344 9343 9328 0
-9344 -9343 -9328 0
9344 -9343 9328 0
9344 9343 -9328 0
-9345 9344 9329 0
-9345 -9344 -9329 0
9345 -9344 9329 0
9345 9344 -9329 0
-9345 0
-9346 9098 0
-9346 40 0
9346 -9098 -40 0
-9347 9100 0
-9347 46 0
9347 -9100 -46 0
-9348 9102 0
-9348 39 0
9348 -9102 -39 0
-9349 9104 0
-9349 47 0
9349 -9104 -47 0
-9350 9106 0
-9350 42 0
9350 -9106 -42 0
-9351 9108 0
-9351 44 0
9351 -9108 -44 0
-9352 9110 0
-9352 46 0
9352 -9110 -46 0
-9353 9112 0
-9353 40 0
9353 -9112 -40 0
-9354 9114 0
-9354 42 0
9354 -9114 -42 0
-9355 9116 0
-9355 44 0
9355 -9116 -44 0
-9356 9118 0
-9356 39 0
9356 -9118 -39 0
-9357 9120 0
-9357 47 0
9357 -9120 -47 0
-9358 9122 0
-9358 88 0
9358 -9122 -88 0
-9359 9124 0
-9359 94 0
9359 -9124 -94 0
-9360 9126 0
-9360 136 0
9360 -9126 -136 0
-9361 9128 0
-9361 142 0
9361 -9128 -142 0
-9362 9130 0
-9362 184 0
9362 -9130 -184 0
-9363 9346 9347 0
-9363 -9346 -9347 0
9363 -9346 9347 0
9363 9346 -9347 0
-9364 9363 9348 0
-9364 -9363 -9348 0
9364 -9363 9348 0
9364 9363 -9348 0
-9365 9364 9349 0
-9365 -9364 -9349 0
9365 -9364 9349 0
9365 9364 -9349 0
-9366 9365 9350 0
-9366 -9365 -9350 0
9366 -9365 9350 0
9366 9365 -9350 0
-9367 9366 9351 0
-9367 -9366 -9351 0
9367 -9366 9351 0
9367 9366 -9351 0
-9368 9367 9352 0
-9368 -9367 -9352 0
9368 -9367 9352 0
9368 9367 -9352 0
-9369 9368 9353 0
-9369 -9368 -9353 0
9369 -9368 9353 0
9369 9368 -9353 0
-9370 9369 9354 0
-9370 -9369 -9354 0
9370 -9369 9354 0
9370 9369 -9354 0
-9371 9370 9355 0
-9371 -9370 -9355 0
9371 -9370 9355 0
9371 9370 -9355 0
-9372 9371 9356 0
-9372 -9371 -9356 0
9372 -9371 9356 0
9372 9371 -9356 0
-9373 9372 9357 0
-9373 -9372 -9357 0
9373 -9372 9357 0
9373 9372 -9357 0
-9374 9373 9358 0
-9374 -9373 -9358 0
9374 -9373 9358 0
9374 9373 -9358 0
-9375 9374 9359 0
-9375 -9374 -9359 0
9375 -9374 9359 0
9375 9374 -9359 0
-9376 9375 9360 0
-9376 -9375 -9360 0
9376 -9375 9360 0
9376 9375 -9360 0
-9377 9376 9361 0
-9377 -9376 -9361 0
9377 -9376 9361 0
9377 9376 -9361 0
-9378 9377 9362 0
-9378 -9377 -9362 0
9378 -9377 9362 0
9378 9377 -9362 0
-9378 0
-9379 9098 0
-9379 41 0
9379 -9098 -41 0
-9380 9100 0
-9380 41 0
9380 -9100 -41 0
-9381 9102 0
-9381 45 0
9381 -9102 -45 0
-9382 9104 0
-9382 37 0
9382 -9104 -37 0
-9383 9106 0
-9383 45 0
9383 -9106 -45 0
-9384 9108 0
-9384 37 0
9384 -9108 -37 0
-9385 9110 0
-9385 35 0
9385 -9110 -35 0
-9386 9112 0
-9386 35 0
9386 -9112 -35 0
-9387 9114 0
-9387 36 0
9387 -9114 -36 0
-9388 9116 0
-9388 34 0
9388 -9116 -34 0
-9389 9118 0
-9389 36 0
9389 -9118 -36 0
-9390 9120 0
-9390 34 0
9390 -9120 -34 0
-9391 9122 0
-9391 89 0
9391 -9122 -89 0
-9392 9124 0
-9392 83 0
9392 -9124 -83 0
-9393 9126 0
-9393 137 0
9393 -9126 -137 0
-9394 9128 0
-9394 131 0
9394 -9128 -131 0
-9395 9130 0
-9395 185 0
9395 -9130 -185 0
-9396 9379 9380 0
-9396 -9379 -9380 0
9396 -9379 9380 0
9396 9379 -9380 0
-9397 9396 9381 0
-9397 -9396 -9381 0
9397 -9396 9381 0
9397 9396 -9381 0
-9398 9397 9382 0
-9398 -9397 -9382 0
9398 -9397 9382 0
9398 9397 -9382 0
-9399 9398 9383 0
-9399 -9398 -9383 0
9399 -9398 9383 0
9399 9398 -9383 0
-9400 9399 9384 0
-9400 -9399 -9384 0
9400 -9399 9384 0
9400 9399 -9384 0
-9401 9400 9385 0
-9401 -9400 -9385 0
9401 -9400 9385 0
9401 9400 -9385 0
-9402 9401 9386 0
-9402 -9401 -9386 0
9402 -9401 9386 0
9402 9401 -9386 0
-9403 9402 9387 0
-9403 -9402 -9387 0
9403 -9402 9387 0
9403 9402 -9387 0
-9404 9403 9388 0
-9404 -9403 -9388 0
9404 -9403 9388 0
9404 9403 -9388 0
-9405 9404 9389 0
-9405 -9404 -9389 0
9405 -9404 9389 0
9405 9404 -9389 0
-9406 9405 9390 0
-9406 -9405 -9390 0
9406 -9405 9390 0
9406 9405 -9390 0
-9407 9406 9391 0
-9407 -9406 -9391 0
9407 -9406 9391 0
9407 9406 -9391 0
-9408 9407 9392 0
-9408 -9407 -9392 0
9408 -9407 9392 0
9408 9407 -9392 0
-9409 9408 9393 0
-9409 -9408 -9393 0
9409 -9408 9393 0
9409 9408 -9393 0
-9410 9409 9394 0
-9410 -9409 -9394 0
9410 -9409 9394 0
9410 9409 -9394 0
-9411 9410 9395 0
-9411 -9410 -9395 0
9411 -9410 9395 0
9411 9410 -9395 0
-9411 0
-9412 9098 0
-9412 42 0
9412 -9098 -42 0
-9413 9100 0
-9413 44 0
9413 -9100 -44 0
-9414 9102 0
-9414 46 0
9414 -9102 -46 0
-9415 9104 0
-9415 40 0
9415 -9104 -40 0
-9416 9106 0
-9416 47 0
9416 -9106 -47 0
-9417 9108 0
-9417 39 0
9417 -9108 -39 0
-9418 9110 0
-9418 39 0
9418 -9110 -39 0
-9419 9112 0
-9419 47 0
9419 -9112 -47 0
-9420 9114 0
-9420 40 0
9420 -9114 -40 0
-9421 9116 0
-9421 46 0
9421 -9116 -46 0
-9422 9118 0
-9422 44 0
9422 -9118 -44 0
-9423 9120 0
-9423 42 0
9423 -9120 -42 0
-9424 9122 0
-9424 90 0
9424 -9122 -90 0
-9425 9124 0
-9425 87 0
9425 -9124 -87 0
-9426 9126 0
-9426 138 0
9426 -9126 -138 0
-9427 9128 0
-9427 135 0
9427 -9128 -135 0
-9428 9130 0
-9428 186 0
9428 -9130 -186 0
-9429 9412 9413 0
-9429 -9412 -9413 0
9429 -9412 9413 0
9429 9412 -9413 0
-9430 9429 9414 0
-9430 -9429 -9414 0
9430 -9429 9414 0
9430 9429 -9414 0
-9431 9430 9415 0
-9431 -9430 -9415 0
9431 -9430 9415 0
9431 9430 -9415 0
-9432 9431 9416 0
-9432 -9431 -9416 0
9432 -9431 9416 0
9432 9431 -9416 0
-9433 9432 9417 0
-9433 -9432 -9417 0
9433 -9432 9417 0
9433 9432 -9417 0
-9434 9433 9418 0
-9434 -9433 -9418 0
9434 -9433 9418 0
9434 9433 -9418 0
-9435 9434 9419 0
-9435 -9434 -9419 0
9435 -9434 9419 0
9435 9434 -9419 0
-9436 9435 9420 0
-9436 -9435 -9420 0
9436 -9435 9420 0
9436 9435 -9420 0
-9437 9436 9421 0
-9437 -9436 -9421 0
9437 -9436 9421 0
9437 9436 -9421 0
-9438 9437 9422 0
-9438 -9437 -9422 0
9438 -9437 9422 0
9438 9437 -9422 0
-9439 9438 9423 0
-9439 -9438 -9423 0
9439 -9438 9423 0
9439 9438 -9423 0
-9440 9439 9424 0
-9440 -9439 -9424 0
9440 -9439 9424 0
9440 9439 -9424 0
-9441 9440 9425 0
-9441 -9440 -9425 0
9441 -9440 9425 0
9441 9440 -9425 0
-9442 9441 9426 0
-9442 -9441 -9426 0
9442 -9441 9426 0
9442 9441 -9426 0
-9443 9442 9427 0
-9443 -9442 -9427 0
9443 -9442 9427 0
9443 9442 -9427 0
-9444 9443 9428 0
-9444 -9443 -9428 0
9444 -9443 9428 0
9444 9443 -9428 0
-9444 0
-9445 9098 0
-9445 43 0
9445 -9098 -43 0
-9446 9100 0
-9446 43 0
9446 -9100 -43 0
-9447 9102 0
-9447 48 0
9447 -9102 -48 0
-9448 9104 0
-9448 38 0
9448 -9104 -38 0
-9449 9106 0
-9449 48 0
9449 -9106 -48 0
-9450 9108 0
-9450 38 0
9450 -9108 -38 0
-9451 9110 0
-9451 43 0
9451 -9110 -43 0
-9452 9112 0
-9452 43 0
9452 -9112 -43 0
-9453 9114 0
-9453 48 0
9453 -9114 -48 0
-9454 9116 0
-9454 38 0
9454 -9116 -38 0
-9455 9118 0
-9455 48 0
9455 -9118 -48 0
-9456 9120 0
-9456 38 0
9456 -9120 -38 0
-9457 9122 0
-9457 91 0
9457 -9122 -91 0
-9458 9124 0
-9458 91 0
9458 -9124 -91 0
-9459 9126 0
-9459 139 0
9459 -9126 -139 0
-9460 9128 0
-9460 139 0
9460 -9128 -139 0
-9461 9130 0
-9461 187 0
9461 -9130 -187 0
-9462 9445 9446 0
-9462 -9445 -9446 0
9462 -9445 9446 0
9462 9445 -9446 0
-9463 9462 9447 0
-9463 -9462 -9447 0
9463 -9462 9447 0
9463 9462 -9447 0
-9464 9463 9448 0
-9464 -9463 -9448 0
9464 -9463 9448 0
9464 9463 -9448 0
-9465 9464 9449 0
-9465 -9464 -9449 0
9465 -9464 9449 0
9465 9464 -9449 0
-9466 9465 9450 0
-9466 -9465 -9450 0
9466 -9465 9450 0
9466 9465 -9450 0
-9467 9466 9451 0
-9467 -9466 -9451 0
9467 -9466 9451 0
9467 9466 -9451 0
-9468 9467 9452 0
-9468 -9467 -9452 0
9468 -9467 9452 0
9468 9467 -9452 0
-9469 9468 9453 0
-9469 -9468 -9453 0
9469 -9468 9453 0
9469 9468 -9453 0
-9470 9469 9454 0
-9470 -9469 -9454 0
9470 -9469 9454 0
9470 9469 -9454 0
-9471 9470 9455 0
-9471 -9470 -9455 0
9471 -9470 9455 0
9471 9470 -9455 0
-9472 9471 9456 0
-9472 -9471 -9456 0
9472 -9471 9456 0
9472 9471 -9456 0
-9473 9472 9457 0
-9473 -9472 -9457 0
9473 -9472 9457 0
9473 9472 -9457 0
-9474 9473 9458 0
-9474 -9473 -9458 0
9474 -9473 9458 0
9474 9473 -9458 0
-9475 9474 9459 0
-9475 -9474 -9459 0
9475 -9474 9459 0
9475 9474 -9459 0
-9476 9475 9460 0
-9476 -9475 -9460 0
9476 -9475 9460 0
9476 9475 -9460 0
-9477 9476 9461 0
-9477 -9476 -9461 0
9477 -9476 9461 0
9477 9476 -9461 0
-9477 0
-9478 9098 0
-9478 44 0
9478 -9098 -44 0
-9479 9100 0
-9479 42 0
9479 -9100 -42 0
-9480 9102 0
-9480 47 0
9480 -9102 -47 0
-9481 9104 0
-9481 39 0
9481 -9104 -39 0
-9482 9106 0
-9482 46 0
9482 -9106 -46 0
-9483 9108 0
-9483 40 0
9483 -9108 -40 0
-9484 9110 0
-9484 47 0
9484 -9110 -47 0
-9485 9112 0
-9485 39 0
9485 -9112 -39 0
-9486 9114 0
-9486 44 0
9486 -9114 -44 0
-9487 9116 0
-9487 42 0
9487 -9116 -42 0
-9488 9118 0
-9488 40 0
9488 -9118 -40 0
-9489 9120 0
-9489 46 0
9489 -9120 -46 0
-9490 9122 0
-9490 92 0
9490 -9122 -92 0
-9491 9124 0
-9491 95 0
9491 -9124 -95 0
-9492 9126 0
-9492 140 0
9492 -9126 -140 0
-9493 9128 0
-9493 143 0
9493 -9128 -143 0
-9494 9130 0
-9494 188 0
9494 -9130 -188 0
-9495 9478 9479 0
-9495 -9478 -9479 0
9495 -9478 9479 0
9495 9478 -9479 0
-9496 9495 9480 0
-9496 -9495 -9480 0
9496 -9495 9480 0
9496 9495 -9480 0
-9497 9496 9481 0
-9497 -9496 -9481 0
9497 -9496 9481 0
9497 9496 -9481 0
-9498 9497 9482 0
-9498 -9497 -9482 0
9498 -9497 9482 0
9498 9497 -9482 0
-9499 9498 9483 0
-9499 -9498 -9483 0
9499 -9498 9483 0
9499 9498 -9483 0
-9500 9499 9484 0
-9500 -9499 -9484 0
9500 -9499 9484 0
9500 9499 -9484 0
-9501 9500 9485 0
-9501 -9500 -9485 0
9501 -9500 9485 0
9501 9500 -9485 0
-9502 9501 9486 0
-9502 -9501 -9486 0
9502 -9501 9486 0
9502 9501 -9486 0
-9503 9502 9487 0
-9503 -9502 -9487 0
9503 -9502 9487 0
9503 9502 -9487 0
-9504 9503 9488 0
-9504 -9503 -9488 0
9504 -9503 9488 0
9504 9503 -9488 0
-9505 9504 9489 0
-9505 -9504 -9489 0
9505 -9504 9489 0
9505 9504 -9489 0
-9506 9505 9490 0
-9506 -9505 -9490 0
9506 -9505 9490 0
9506 9505 -9490 0
-9507 9506 9491 0
-9507 -9506 -9491 0
9507 -9506 9491 0
9507 9506 -9491 0
-9508 9507 9492 0
-9508 -9507 -9492 0
9508 -9507 9492 0
9508 9507 -9492 0
-9509 9508 9493 0
-9509 -9508 -9493 0
9509 -9508 9493 0
9509 9508 -9493 0
-9510 9509 9494 0
-9510 -9509 -9494 0
9510 -9509 9494 0
9510 9509 -9494 0
-9510 0
-9511 9098 0
-9511 45 0
9511 -9098 -45 0
-9512 9100 0
-9512 37 0
9512 -9100 -37 0
-9513 9102 0
-9513 41 0
9513 -9102 -41 0
-9514 9104 0
-9514 41 0
9514 -9104 -41 0
-9515 9106 0
-9515 37 0
9515 -9106 -37 0
-9516 9108 0
-9516 45 0
9516 -9108 -45 0
-9517 9110 0
-9517 36 0
9517 -9110 -36 0
-9518 9112 0
-9518 34 0
9518 -9112 -34 0
-9519 9114 0
-9519 35 0
9519 -9114 -35 0
-9520 9116 0
-9520 35 0
9520 -9116 -35 0
-9521 9118 0
-9521 34 0
9521 -9118 -34 0
-9522 9120 0
-9522 36 0
9522 -9120 -36 0
-9523 9122 0
-9523 93 0
9523 -9122 -93 0
-9524 9124 0
-9524 84 0
9524 -9124 -84 0
-9525 9126 0
-9525 141 0
9525 -9126 -141 0
-9526 9128 0
-9526 132 0
9526 -9128 -132 0
-9527 9130 0
-9527 189 0
9527 -9130 -189 0
-9528 9511 9512 0
-9528 -9511 -9512 0
9528 -9511 9512 0
9528 9511 -9512 0
-9529 9528 9513 0
-9529 -9528 -9513 0
9529 -9528 9513 0
9529 9528 -9513 0
-9530 9529 9514 0
-9530 -9529 -9514 0
9530 -9529 9514 0
9530 9529 -9514 0
-9531 9530 9515 0
-9531 -9530 -9515 0
9531 -9530 9515 0
9531 9530 -9515 0
-9532 9531 9516 0
-9532 -9531 -9516 0
9532 -9531 9516 0
9532 9531 -9516 0
-9533 9532 9517 0
-9533 -9532 -9517 0
9533 -9532 9517 0
9533 9532 -9517 0
-9534 9533 9518 0
-9534 -9533 -9518 0
9534 -9533 9518 0
9534 9533 -9518 0
-9535 9534 9519 0
-9535 -9534 -9519 0
9535 -9534 9519 0
9535 9534 -9519 0
-9536 9535 9520 0
-9536 -9535 -9520 0
9536 -9535 9520 0
9536 9535 -9520 0
-9537 9536 9521 0
-9537 -9536 -9521 0
9537 -9536 9521 0
9537 9536 -9521 0
-9538 9537 9522 0
-9538 -9537 -9522 0
9538 -9537 9522 0
9538 9537 -9522 0
-9539 9538 9523 0
-9539 -9538 -9523 0
9539 -9538 9523 0
9539 9538 -9523 0
-9540 9539 9524 0
-9540 -9539 -9524 0
9540 -9539 9524 0
9540 9539 -9524 0
-9541 9540 9525 0
-9541 -9540 -9525 0
9541 -9540 9525 0
9541 9540 -9525 0
-9542 9541 9526 0
-9542 -9541 -9526 0
9542 -9541 9526 0
9542 9541 -9526 0
-9543 9542 9527 0
-9543 -9542 -9527 0
9543 -9542 9527 0
9543 9542 -9527 0
-9543 0
-9544 9098 0
-9544 46 0
9544 -9098 -46 0
-9545 9100 0
-9545 40 0
9545 -9100 -40 0
-9546 9102 0
-9546 42 0
9546 -9102 -42 0
-9547 9104 0
-9547 44 0
9547 -9104 -44 0
-9548 9106 0
-9548 39 0
9548 -9106 -39 0
-9549 9108 0
-9549 47 0
9549 -9108 -47 0
-9550 9110 0
-9550 40 0
9550 -9110 -40 0
-9551 9112 0
-9551 46 0
9551 -9112 -46 0
-9552 9114 0
-9552 39 0
9552 -9114 -39 0
-9553 9116 0
-9553 47 0
9553 -9116 -47 0
-9554 9118 0
-9554 42 0
9554 -9118 -42 0
-9555 9120 0
-9555 44 0
9555 -9120 -44 0
-9556 9122 0
-9556 94 0
9556 -9122 -94 0
-9557 9124 0
-9557 88 0
9557 -9124 -88 0
-9558 9126 0
-9558 142 0
9558 -9126 -142 0
-9559 9128 0
-9559 136 0
9559 -9128 -136 0
-9560 9130 0
-9560 190 0
9560 -9130 -190 0
-9561 9544 9545 0
-9561 -9544 -9545 0
9561 -9544 9545 0
9561 9544 -9545 0
-9562 9561 9546 0
-9562 -9561 -9546 0
9562 -9561 9546 0
9562 9561 -9546 0
-9563 9562 9547 0
-9563 -9562 -9547 0
9563 -9562 9547 0
9563 9562 -9547 0
-9564 9563 9548 0
-9564 -9563 -9548 0
9564 -9563 9548 0
9564 9563 -9548 0
-9565 9564 9549 0
-9565 -9564 -9549 0
9565 -9564 9549 0
9565 9564 -9549 0
-9566 9565 9550 0
-9566 -9565 -9550 0
9566 -9565 9550 0
9566 9565 -9550 0
-9567 9566 9551 0
-9567 -9566 -9551 0
9567 -9566 9551 0
9567 9566 -9551 0
-9568 9567 9552 0
-9568 -9567 -9552 0
9568 -9567 9552 0
9568 9567 -9552 0
-9569 9568 9553 0
-9569 -9568 -9553 0
9569 -9568 9553 0
9569 9568 -9553 0
-9570 9569 9554 0
-9570 -9569 -9554 0
9570 -9569 9554 0
9570 9569 -9554 0
-9571 9570 9555 0
-9571 -9570 -9555 0
9571 -9570 9555 0
9571 9570 -9555 0
-9572 9571 9556 0
-9572 -9571 -9556 0
9572 -9571 9556 0
9572 9571 -9556 0
-9573 9572 9557 0
-9573 -9572 -9557 0
9573 -9572 9557 0
9573 9572 -9557 0
-9574 9573 9558 0
-9574 -9573 -9558 0
9574 -9573 9558 0
9574 9573 -9558 0
-9575 9574 9559 0
-9575 -9574 -9559 0
9575 -9574 9559 0
9575 9574 -9559 0
-9576 9575 9560 0
-9576 -9575 -9560 0
9576 -9575 9560 0
9576 9575 -9560 0
-9576 0
-9577 9098 0
-9577 47 0
9577 -9098 -47 0
-9578 9100 0
-9578 39 0
9578 -9100 -39 0
-9579 9102 0
-9579 44 0
9579 -9102 -44 0
-9580 9104 0
-9580 42 0
9580 -9104 -42 0
-9581 9106 0
-9581 40 0
9581 -9106 -40 0
-9582 9108 0
-9582 46 0
9582 -9108 -46 0
-9583 9110 0
-9583 44 0
9583 -9110 -44 0
-9584 9112 0
-9584 42 0
9584 -9112 -42 0
-9585 9114 0
-9585 47 0
9585 -9114 -47 0
-9586 9116 0
-9586 39 0
9586 -9116 -39 0
-9587 9118 0
-9587 46 0
9587 -9118 -46 0
-9588 9120 0
-9588 40 0
9588 -9120 -40 0
-9589 9122 0
-9589 95 0
9589 -9122 -95 0
-9590 9124 0
-9590 92 0
9590 -9124 -92 0
-9591 9126 0
-9591 143 0
9591 -9126 -143 0
-9592 9128 0
-9592 140 0
9592 -9128 -140 0
-9593 9130 0
-9593 191 0
9593 -9130 -191 0
-9594 9577 9578 0
-9594 -9577 -9578 0
9594 -9577 9578 0
9594 9577 -9578 0
-9595 9594 9579 0
-9595 -9594 -9579 0
9595 -9594 9579 0
9595 9594 -9579 0
-9596 9595 9580 0
-9596 -9595 -9580 0
9596 -9595 9580 0
9596 9595 -9580 0
-9597 9596 9581 0
-9597 -9596 -9581 0
9597 -9596 9581 0
9597 9596 -9581 0
-9598 9597 9582 0
-9598 -9597 -9582 0
9598 -9597 9582 0
9598 9597 -9582 0
-9599 9598 9583 0
-9599 -9598 -9583 0
9599 -9598 9583 0
9599 9598 -9583 0
-9600 9599 9584 0
-9600 -9599 -9584 0
9600 -9599 9584 0
9600 9599 -9584 0
-9601 9600 9585 0
-9601 -9600 -9585 0
9601 -9600 9585 0
9601 9600 -9585 0
-9602 9601 9586 0
-9602 -9601 -9586 0
9602 -9601 9586 0
9602 9601 -9586 0
-9603 9602 9587 0
-9603 -9602 -9587 0
9603 -9602 9587 0
9603 9602 -9587 0
-9604 9603 9588 0
-9604 -9603 -9588 0
9604 -9603 9588 0
9604 9603 -9588 0
-9605 9604 9589 0
-9605 -9604 -9589 0
9605 -9604 9589 0
9605 9604 -9589 0
-9606 9605 9590 0
-9606 -9605 -9590 0
9606 -9605 9590 0
9606 9605 -9590 0
-9607 9606 9591 0
-9607 -9606 -9591 0
9607 -9606 9591 0
9607 9606 -9591 0
-9608 9607 9592 0
-9608 -9607 -9592 0
9608 -9607 9592 0
9608 9607 -9592 0
-9609 9608 9593 0
-9609 -9608 -9593 0
9609 -9608 9593 0
9609 9608 -9593 0
-9609 0
-9610 9098 0
-9610 48 0
9610 -9098 -48 0
-9611 9100 0
-9611 38 0
9611 -9100 -38 0
-9612 9102 0
-9612 43 0
9612 -9102 -43 0
-9613 9104 0
-9613 43 0
9613 -9104 -43 0
-9614 9106 0
-9614 38 0
9614 -9106 -38 0
-9615 9108 0
-9615 48 0
9615 -9108 -48 0
-9616 9110 0
-9616 48 0
9616 -9110 -48 0
-9617 9112 0
-9617 38 0
9617 -9112 -38 0
-9618 9114 0
-9618 43 0
9618 -9114 -43 0
-9619 9116 0
-9619 43 0
9619 -9116 -43 0
-9620 9118 0
-9620 38 0
9620 -9118 -38 0
-9621 9120 0
-9621 48 0
9621 -9120 -48 0
-9622 9122 0
-9622 96 0
9622 -9122 -96 0
-9623 9124 0
-9623 96 0
9623 -9124 -96 0
-9624 9126 0
-9624 144 0
9624 -9126 -144 0
-9625 9128 0
-9625 144 0
9625 -9128 -144 0
-9626 9130 0
-9626 192 0
9626 -9130 -192 0
-9627 9610 9611 0
-9627 -9610 -9611 0
9627 -9610 9611 0
9627 9610 -9611 0
-9628 9627 9612 0
-9628 -9627 -9612 0
9628 -9627 9612 0
9628 9627 -9612 0
-9629 9628 9613 0
-9629 -9628 -9613 0
9629 -9628 9613 0
9629 9628 -9613 0
-9630 9629 9614 0
-9630 -9629 -9614 0
9630 -9629 9614 0
9630 9629 -9614 0
-9631 9630 9615 0
-9631 -9630 -9615 0
9631 -9630 9615 0
9631 9630 -9615 0
-9632 9631 9616 0
-9632 -9631 -9616 0
9632 -9631 9616 0
9632 9631 -9616 0
-9633 9632 9617 0
-9633 -9632 -9617 0
9633 -9632 9617 0
9633 9632 -9617 0
-9634 9633 9618 0
-9634 -9633 -9618 0
9634 -9633 9618 0
9634 9633 -9618 0
-9635 9634 9619 0
-9635 -9634 -9619 0
9635 -9634 9619 0
9635 9634 -9619 0
-9636 9635 9620 0
-9636 -9635 -9620 0
9636 -9635 9620 0
9636 9635 -9620 0
-9637 9636 9621 0
-9637 -9636 -9621 0
9637 -9636 9621 0
9637 9636 -9621 0
-9638 9637 9622 0
-9638 -9637 -9622 0
9638 -9637 9622 0
9638 9637 -9622 0
-9639 9638 9623 0
-9639 -9638 -9623 0
9639 -9638 9623 0
9639 9638 -9623 0
-9640 9639 9624 0
-9640 -9639 -9624 0
9640 -9639 9624 0
9640 9639 -9624 0
-9641 9640 9625 0
-9641 -9640 -9625 0
9641 -9640 9625 0
9641 9640 -9625 0
-9642 9641 9626 0
-9642 -9641 -9626 0
9642 -9641 9626 0
9642 9641 -9626 0
-9642 0
-9643 5 0
-9643 31 0
9643 -5 -31 0
-9644 9643 0
-9644 33 0
9644 -9643 -33 0
-9645 13 0
-9645 31 0
9645 -13 -31 0
-9646 9645 0
-9646 33 0
9646 -9645 -33 0
-9647 6 0
-9647 32 0
9647 -6 -32 0
-9648 9647 0
-9648 33 0
9648 -9647 -33 0
-9649 15 0
-9649 30 0
9649 -15 -30 0
-9650 9649 0
-9650 33 0
9650 -9649 -33 0
-9651 10 0
-9651 32 0
9651 -10 -32 0
-9652 9651 0
-9652 33 0
9652 -9651 -33 0
-9653 11 0
-9653 30 0
9653 -11 -30 0
-9654 9653 0
-9654 33 0
9654 -9653 -33 0
-9655 18 0
-9655 12 0
9655 -18 -12 0
-9656 9655 0
-9656 33 0
9656 -9655 -33 0
-9657 20 0
-9657 12 0
9657 -20 -12 0
-9658 9657 0
-9658 33 0
9658 -9657 -33 0
-9659 22 0
-9659 16 0
9659 -22 -16 0
-9660 9659 0
-9660 33 0
9660 -9659 -33 0
-9661 28 0
-9661 8 0
9661 -28 -8 0
-9662 9661 0
-9662 33 0
9662 -9661 -33 0
-9663 23 0
-9663 16 0
9663 -23 -16 0
-9664 9663 0
-9664 33 0
9664 -9663 -33 0
-9665 27 0
-9665 8 0
9665 -27 -8 0
-9666 9665 0
-9666 33 0
9666 -9665 -33 0
-9667 53 0
-9667 79 0
9667 -53 -79 0
-9668 9667 0
-9668 81 0
9668 -9667 -81 0
-9669 66 0
-9669 60 0
9669 -66 -60 0
-9670 9669 0
-9670 81 0
9670 -9669 -81 0
-9671 101 0
-9671 127 0
9671 -101 -127 0
-9672 9671 0
-9672 129 0
9672 -9671 -129 0
-9673 114 0
-9673 108 0
9673 -114 -108 0
-9674 9673 0
-9674 129 0
9674 -9673 -129 0
-9675 149 0
-9675 175 0
9675 -149 -175 0
-9676 9675 0
-9676 177 0
9676 -9675 -177 0
-9677 9644 9646 0
-9677 -9644 -9646 0
9677 -9644 9646 0
9677 9644 -9646 0
-9678 9677 9648 0
-9678 -9677 -9648 0
9678 -9677 9648 0
9678 9677 -9648 0
-9679 9678 9650 0
-9679 -9678 -9650 0
9679 -9678 9650 0
9679 9678 -9650 0
-9680 9679 9652 0
-9680 -9679 -9652 0
9680 -9679 9652 0
9680 9679 -9652 0
-9681 9680 9654 0
-9681 -9680 -9654 0
9681 -9680 9654 0
9681 9680 -9654 0
-9682 9681 9656 0
-9682 -9681 -9656 0
9682 -9681 9656 0
9682 9681 -9656 0
-9683 9682 9658 0
-9683 -9682 -9658 0
9683 -9682 9658 0
9683 9682 -9658 0
-9684 9683 9660 0
-9684 -9683 -9660 0
9684 -9683 9660 0
9684 9683 -9660 0
-9685 9684 9662 0
-9685 -9684 -9662 0
9685 -9684 9662 0
9685 9684 -9662 0
-9686 9685 9664 0
-9686 -9685 -9664 0
9686 -9685 9664 0
9686 9685 -9664 0
-9687 9686 9666 0
-9687 -9686 -9666 0
9687 -9686 9666 0
9687 9686 -9666 0
-9688 9687 9668 0
-9688 -9687 -9668 0
9688 -9687 9668 0
9688 9687 -9668 0
-9689 9688 9670 0
-9689 -9688 -9670 0
9689 -9688 9670 0
9689 9688 -9670 0
-9690 9689 9672 0
-9690 -9689 -9672 0
9690 -9689 9672 0
9690 9689 -9672 0
-9691 9690 9674 0
-9691 -9690 -9674 0
9691 -9690 9674 0
9691 9690 -9674 0
-9692 9691 9676 0
-9692 -9691 -9676 0
9692 -9691 9676 0
9692 9691 -9676 0
-9692 0
-9693 9643 0
-9693 34 0
9693 -9643 -34 0
-9694 9645 0
-9694 36 0
9694 -9645 -36 0
-9695 9647 0
-9695 34 0
9695 -9647 -34 0
-9696 9649 0
-9696 36 0
9696 -9649 -36 0
-9697 9651 0
-9697 35 0
9697 -9651 -35 0
-9698 9653 0
-9698 35 0
9698 -9653 -35 0
-9699 9655 0
-9699 37 0
9699 -9655 -37 0
-9700 9657 0
-9700 45 0
9700 -9657 -45 0
-9701 9659 0
-9701 37 0
9701 -9659 -37 0
-9702 9661 0
-9702 45 0
9702 -9661 -45 0
-9703 9663 0
-9703 41 0
9703 -9663 -41 0
-9704 9665 0
-9704 41 0
9704 -9665 -41 0
-9705 9667 0
-9705 82 0
9705 -9667 -82 0
-9706 9669 0
-9706 85 0
9706 -9669 -85 0
-9707 9671 0
-9707 130 0
9707 -9671 -130 0
-9708 9673 0
-9708 133 0
9708 -9673 -133 0
-9709 9675 0
-9709 178 0
9709 -9675 -178 0
-9710 9693 9694 0
-9710 -9693 -9694 0
9710 -9693 9694 0
9710 9693 -9694 0
-9711 9710 9695 0
-9711 -9710 -9695 0
9711 -9710 9695 0
9711 9710 -9695 0
-9712 9711 9696 0
-9712 -9711 -9696 0
9712 -9711 9696 0
9712 9711 -9696 0
-9713 9712 9697 0
-9713 -9712 -9697 0
9713 -9712 9697 0
9713 9712 -9697 0
-9714 9713 9698 0
-9714 -9713 -9698 0
9714 -9713 9698 0
9714 9713 -9698 0
-9715 9714 9699 0
-9715 -9714 -9699 0
9715 -9714 9699 0
9715 9714 -9699 0
-9716 9715 9700 0
-9716 -9715 -9700 0
9716 -9715 9700 0
9716 9715 -9700 0
-9717 9716 9701 0
-9717 -9716 -9701 0
9717 -9716 9701 0
9717 9716 -9701 0
-9718 9717 9702 0
-9718 -9717 -9702 0
9718 -9717 9702 0
9718 9717 -9702 0
-9719 9718 9703 0
-9719 -9718 -9703 0
9719 -9718 9703 0
9719 9718 -9703 0
-9720 9719 9704 0
-9720 -9719 -9704 0
9720 -9719 9704 0
9720 9719 -9704 0
-9721 9720 9705 0
-9721 -9720 -9705 0
9721 -9720 9705 0
9721 9720 -9705 0
-9722 9721 9706 0
-9722 -9721 -9706 0
9722 -9721 9706 0
9722 9721 -9706 0
-9723 9722 9707 0
-9723 -9722 -9707 0
9723 -9722 9707 0
9723 9722 -9707 0
-9724 9723 9708 0
-9724 -9723 -9708 0
9724 -9723 9708 0
9724 9723 -9708 0
-9725 9724 9709 0
-9725 -9724 -9709 0
9725 -9724 9709 0
9725 9724 -9709 0
-9725 0
-9726 9643 0
-9726 35 0
9726 -9643 -35 0
-9727 9645 0
-9727 35 0
9727 -9645 -35 0
-9728 9647 0
-9728 36 0
9728 -9647 -36 0
-9729 9649 0
-9729 34 0
9729 -9649 -34 0
-9730 9651 0
-9730 36 0
9730 -9651 -36 0
-9731 9653 0
-9731 34 0
9731 -9653 -34 0
-9732 9655 0
-9732 41 0
9732 -9655 -41 0
-9733 9657 0
-9733 41 0
9733 -9657 -41 0
-9734 9659 0
-9734 45 0
9734 -9659 -45 0
-9735 9661 0
-9735 37 0
9735 -9661 -37 0
-9736 9663 0
-9736 45 0
9736 -9663 -45 0
-9737 9665 0
-9737 37 0
9737 -9665 -37 0
-9738 9667 0
-9738 83 0
9738 -9667 -83 0
-9739 9669 0
-9739 89 0
9739 -9669 -89 0
-9740 9671 0
-9740 131 0
9740 -9671 -131 0
-9741 9673 0
-9741 137 0
9741 -9673 -137 0
-9742 9675 0
-9742 179 0
9742 -9675 -179 0
-9743 9726 9727 0
-9743 -9726 -9727 0
9743 -9726 9727 0
9743 9726 -9727 0
-9744 9743 9728 0
-9744 -9743 -9728 0
9744 -9743 9728 0
9744 9743 -9728 0
-9745 9744 9729 0
-9745 -9744 -9729 0
9745 -9744 9729 0
9745 9744 -9729 0
-9746 9745 9730 0
-9746 -9745 -9730 0
9746 -9745 9730 0
9746 9745 -9730 0
-9747 9746 9731 0
-9747 -9746 -9731 0
9747 -9746 9731 0
9747 9746 -9731 0
-9748 9747 9732 0
-9748 -9747 -9732 0
9748 -9747 9732 0
9748 9747 -9732 0
-9749 9748 9733 0
-9749 -9748 -9733 0
9749 -9748 9733 0
9749 9748 -9733 0
-9750 9749 9734 0
-9750 -9749 -9734 0
9750 -9749 9734 0
9750 9749 -9734 0
-9751 9750 9735 0
-9751 -9750 -9735 0
9751 -9750 9735 0
9751 9750 -9735 0
-9752 9751 9736 0
-9752 -9751 -9736 0
9752 -9751 9736 0
9752 9751 -9736 0
-9753 9752 9737 0
-9753 -9752 -9737 0
9753 -9752 9737 0
9753 9752 -9737 0
-9754 9753 9738 0
-9754 -9753 -9738 0
9754 -9753 9738 0
9754 9753 -9738 0
-9755 9754 9739 0
-9755 -9754 -9739 0
9755 -9754 9739 0
9755 9754 -9739 0
-9756 9755 9740 0
-9756 -9755 -9740 0
9756 -9755 9740 0
9756 9755 -9740 0
-9757 9756 9741 0
-9757 -9756 -9741 0
9757 -9756 9741 0
9757 9756 -9741 0
-9758 9757 9742 0
-9758 -9757 -9742 0
9758 -9757 9742 0
9758 9757 -9742 0
-9758 0
-9759 9643 0
-9759 36 0
9759 -9643 -36 0
-9760 9645 0
-9760 34 0
9760 -9645 -34 0
-9761 9647 0
-9761 35 0
9761 -9647 -35 0
-9762 9649 0
-9762 35 0
9762 -9649 -35 0
-9763 9651 0
-9763 34 0
9763 -9651 -34 0
-9764 9653 0
-9764 36 0
9764 -9653 -36 0
-9765 9655 0
-9765 45 0
9765 -9655 -45 0
-9766 9657 0
-9766 37 0
9766 -9657 -37 0
-9767 9659 0
-9767 41 0
9767 -9659 -41 0
-9768 9661 0
-9768 41 0
9768 -9661 -41 0
-9769 9663 0
-9769 37 0
9769 -9663 -37 0
-9770 9665 0
-9770 45 0
9770 -9665 -45 0
-9771 9667 0
-9771 84 0
9771 -9667 -84 0
-9772 9669 0
-9772 93 0
9772 -9669 -93 0
-9773 9671 0
-9773 132 0
9773 -9671 -132 0
-9774 9673 0
-9774 141 0
9774 -9673 -141 0
-9775 9675 0
-9775 180 0
9775 -9675 -180 0
-9776 9759 9760 0
-9776 -9759 -9760 0
9776 -9759 9760 0
9776 9759 -9760 0
-9777 9776 9761 0
-9777 -9776 -9761 0
9777 -9776 9761 0
9777 9776 -9761 0
-9778 9777 9762 0
-9778 -9777 -9762 0
9778 -9777 9762 0
9778 9777 -9762 0
-9779 9778 9763 0
-9779 -9778 -9763 0
9779 -9778 9763 0
9779 9778 -9763 0
-9780 9779 9764 0
-9780 -9779 -9764 0
9780 -9779 9764 0
9780 9779 -9764 0
-9781 9780 9765 0
-9781 -9780 -9765 0
9781 -9780 9765 0
9781 9780 -9765 0
-9782 9781 9766 0
-9782 -9781 -9766 0
9782 -9781 9766 0
9782 9781 -9766 0
-9783 9782 9767 0
-9783 -9782 -9767 0
9783 -9782 9767 0
9783 9782 -9767 0
-9784 9783 9768 0
-9784 -9783 -9768 0
9784 -9783 9768 0
9784 9783 -9768 0
-9785 9784 9769 0
-9785 -9784 -9769 0
9785 -9784 9769 0
9785 9784 -9769 0
-9786 9785 9770 0
-9786 -9785 -9770 0
9786 -9785 9770 0
9786 9785 -9770 0
-9787 9786 9771 0
-9787 -9786 -9771 0
9787 -9786 9771 0
9787 9786 -9771 0
-9788 9787 9772 0
-9788 -9787 -9772 0
9788 -9787 9772 0
9788 9787 -9772 0
-9789 9788 9773 0
-9789 -9788 -9773 0
9789 -9788 9773 0
9789 9788 -9773 0
-9790 9789 9774 0
-9790 -9789 -9774 0
9790 -9789 9774 0
9790 9789 -9774 0
-9791 9790 9775 0
-9791 -9790 -9775 0
9791 -9790 9775 0
9791 9790 -9775 0
-9791 0
-9792 9643 0
-9792 37 0
9792 -9643 -37 0
-9793 9645 0
-9793 45 0
9793 -9645 -45 0
-9794 9647 0
-9794 37 0
9794 -9647 -37 0
-9795 9649 0
-9795 45 0
9795 -9649 -45 0
-9796 9651 0
-9796 41 0
9796 -9651 -41 0
-9797 9653 0
-9797 41 0
9797 -9653 -41 0
-9798 9655 0
-9798 34 0
9798 -9655 -34 0
-9799 9657 0
-9799 36 0
9799 -9657 -36 0
-9800 9659 0
-9800 34 0
9800 -9659 -34 0
-9801 9661 0
-9801 36 0
9801 -9661 -36 0
-9802 9663 0
-9802 35 0
9802 -9663 -35 0
-9803 9665 0
-9803 35 0
9803 -9665 -35 0
-9804 9667 0
-9804 85 0
9804 -9667 -85 0
-9805 9669 0
-9805 82 0
9805 -9669 -82 0
-9806 9671 0
-9806 133 0
9806 -9671 -133 0
-9807 9673 0
-9807 130 0
9807 -9673 -130 0
-9808 9675 0
-9808 181 0
9808 -9675 -181 0
-9809 9792 9793 0
-9809 -9792 -9793 0
9809 -9792 9793 0
9809 9792 -9793 0
-9810 9809 9794 0
-9810 -9809 -9794 0
9810 -9809 9794 0
9810 9809 -9794 0
-9811 9810 9795 0
-9811 -9810 -9795 0
9811 -9810 9795 0
9811 9810 -9795 0
-9812 9811 9796 0
-9812 -9811 -9796 0
9812 -9811 9796 0
9812 9811 -9796 0
-9813 9812 9797 0
-9813 -9812 -9797 0
9813 -9812 9797 0
9813 9812 -9797 0
-9814 9813 9798 0
-9814 -9813 -9798 0
9814 -9813 9798 0
9814 9813 -9798 0
-9815 9814 9799 0
-9815 -9814 -9799 0
9815 -9814 9799 0
9815 9814 -9799 0
-9816 9815 9800 0
-9816 -9815 -9800 0
9816 -9815 9800 0
9816 9815 -9800 0
-9817 9816 9801 0
-9817 -9816 -9801 0
9817 -9816 9801 0
9817 9816 -9801 0
-9818 9817 9802 0
-9818 -9817 -9802 0
9818 -9817 9802 0
9818 9817 -9802 0
-9819 9818 9803 0
-9819 -9818 -9803 0
9819 -9818 9803 0
9819 9818 -9803 0
-9820 9819 9804 0
-9820 -9819 -9804 0
9820 -9819 9804 0
9820 9819 -9804 0
-9821 9820 9805 0
-9821 -9820 -9805 0
9821 -9820 9805 0
9821 9820 -9805 0
-9822 9821 9806 0
-9822 -9821 -9806 0
9822 -9821 9806 0
9822 9821 -9806 0
-9823 9822 9807 0
-9823 -9822 -9807 0
9823 -9822 9807 0
9823 9822 -9807 0
-9824 9823 9808 0
-9824 -9823 -9808 0
9824 -9823 9808 0
9824 9823 -9808 0
-9824 0
-9825 9643 0
-9825 38 0
9825 -9643 -38 0
-9826 9645 0
-9826 48 0
9826 -9645 -48 0
-9827 9647 0
-9827 38 0
9827 -9647 -38 0
-9828 9649 0
-9828 48 0
9828 -9649 -48 0
-9829 9651 0
-9829 43 0
9829 -9651 -43 0
-9830 9653 0
-9830 43 0
9830 -9653 -43 0
-9831 9655 0
-9831 38 0
9831 -9655 -38 0
-9832 9657 0
-9832 48 0
9832 -9657 -48 0
-9833 9659 0
-9833 38 0
9833 -9659 -38 0
-9834 9661 0
-9834 48 0
9834 -9661 -48 0
-9835 9663 0
-9835 43 0
9835 -9663 -43 0
-9836 9665 0
-9836 43 0
9836 -9665 -43 0
-9837 9667 0
-9837 86 0
9837 -9667 -86 0
-9838 9669 0
-9838 86 0
9838 -9669 -86 0
-9839 9671 0
-9839 134 0
9839 -9671 -134 0
-9840 9673 0
-9840 134 0
9840 -9673 -134 0
-9841 9675 0
-9841 182 0
9841 -9675 -182 0
-9842 9825 9826 0
-9842 -9825 -9826 0
9842 -9825 9826 0
9842 9825 -9826 0
-9843 9842 9827 0
-9843 -9842 -9827 0
9843 -9842 9827 0
9843 9842 -9827 0
-9844 9843 9828 0
-9844 -9843 -9828 0
9844 -9843 9828 0
9844 9843 -9828 0
-9845 9844 9829 0
-9845 -9844 -9829 0
9845 -9844 9829 0
9845 9844 -9829 0
-9846 9845 9830 0
-9846 -9845 -9830 0
9846 -9845 9830 0
9846 9845 -9830 0
-9847 9846 9831 0
-9847 -9846 -9831 0
9847 -9846 9831 0
9847 9846 -9831 0
-9848 9847 9832 0
-9848 -9847 -9832 0
9848 -9847 9832 0
9848 9847 -9832 0
-9849 9848 9833 0
-9849 -9848 -9833 0
9849 -9848 9833 0
9849 9848 -9833 0
-9850 9849 9834 0
-9850 -9849 -9834 0
9850 -9849 9834 0
9850 9849 -9834 0
-9851 9850 9835 0
-9851 -9850 -9835 0
9851 -9850 9835 0
9851 9850 -9835 0
-9852 9851 9836 0
-9852 -9851 -9836 0
9852 -9851 9836 0
9852 9851 -9836 0
-9853 9852 9837 0
-9853 -9852 -9837 0
9853 -9852 9837 0
9853 9852 -9837 0
-9854 9853 9838 0
-9854 -9853 -9838 0
9854 -9853 9838 0
9854 9853 -9838 0
-9855 9854 9839 0
-9855 -9854 -9839 0
9855 -9854 9839 0
9855 9854 -9839 0
-9856 9855 9840 0
-9856 -9855 -9840 0
9856 -9855 9840 0
9856 9855 -9840 0
-9857 9856 9841 0
-9857 -9856 -9841 0
9857 -9856 9841 0
9857 9856 -9841 0
-9857 0
-9858 9643 0
-9858 39 0
9858 -9643 -39 0
-9859 9645 0
-9859 47 0
9859 -9645 -47 0
-9860 9647 0
-9860 40 0
9860 -9647 -40 0
-9861 9649 0
-9861 46 0
9861 -9649 -46 0
-9862 9651 0
-9862 44 0
9862 -9651 -44 0
-9863 9653 0
-9863 42 0
9863 -9653 -42 0
-9864 9655 0
-9864 42 0
9864 -9655 -42 0
-9865 9657 0
-9865 44 0
9865 -9657 -44 0
-9866 9659 0
-9866 46 0
9866 -9659 -46 0
-9867 9661 0
-9867 40 0
9867 -9661 -40 0
-9868 9663 0
-9868 47 0
9868 -9663 -47 0
-9869 9665 0
-9869 39 0
9869 -9665 -39 0
-9870 9667 0
-9870 87 0
9870 -9667 -87 0
-9871 9669 0
-9871 90 0
9871 -9669 -90 0
-9872 9671 0
-9872 135 0
9872 -9671 -135 0
-9873 9673 0
-9873 138 0
9873 -9673 -138 0
-9874 9675 0
-9874 183 0
9874 -9675 -183 0
-9875 9858 9859 0
-9875 -9858 -9859 0
9875 -9858 9859 0
9875 9858 -9859 0
-9876 9875 9860 0
-9876 -9875 -9860 0
9876 -9875 9860 0
9876 9875 -9860 0
-9877 9876 9861 0
-9877 -9876 -9861 0
9877 -9876 9861 0
9877 9876 -9861 0
-9878 9877 9862 0
-9878 -9877 -9862 0
9878 -9877 9862 0
9878 9877 -9862 0
-9879 9878 9863 0
-9879 -9878 -9863 0
9879 -9878 9863 0
9879 9878 -9863 0
-9880 9879 9864 0
-9880 -9879 -9864 0
9880 -9879 9864 0
9880 9879 -9864 0
-9881 9880 9865 0
-9881 -9880 -9865 0
9881 -9880 9865 0
9881 9880 -9865 0
-9882 9881 9866 0
-9882 -9881 -9866 0
9882 -9881 9866 0
9882 9881 -9866 0
-9883 9882 9867 0
-9883 -9882 -9867 0
9883 -9882 9867 0
9883 9882 -9867 0
-9884 9883 9868 0
-9884 -9883 -9868 0
9884 -9883 9868 0
9884 9883 -9868 0
-9885 9884 9869 0
-9885 -9884 -9869 0
9885 -9884 9869 0
9885 9884 -9869 0
-9886 9885 9870 0
-9886 -9885 -9870 0
9886 -9885 9870 0
9886 9885 -9870 0
-9887 9886 9871 0
-9887 -9886 -9871 0
9887 -9886 9871 0
9887 9886 -9871 0
-9888 9887 9872 0
-9888 -9887 -9872 0
9888 -9887 9872 0
9888 9887 -9872 0
-9889 9888 9873 0
-9889 -9888 -9873 0
9889 -9888 9873 0
9889 9888 -9873 0
-9890 9889 9874 0
-9890 -9889 -9874 0
9890 -9889 9874 0
9890 9889 -9874 0
-9890 0
-9891 9643 0
-9891 40 0
9891 -9643 -40 0
-9892 9645 0
-9892 46 0
9892 -9645 -46 0
-9893 9647 0
-9893 39 0
9893 -9647 -39 0
-9894 9649 0
-9894 47 0
9894 -9649 -47 0
-9895 9651 0
-9895 42 0
9895 -9651 -42 0
-9896 9653 0
-9896 44 0
9896 -9653 -44 0
-9897 9655 0
-9897 46 0
9897 -9655 -46 0
-9898 9657 0
-9898 40 0
9898 -9657 -40 0
-9899 9659 0
-9899 42 0
9899 -9659 -42 0
-9900 9661 0
-9900 44 0
9900 -9661 -44 0
-9901 9663 0
-9901 39 0
9901 -9663 -39 0
-9902 9665 0
-9902 47 0
9902 -9665 -47 0
-9903 9667 0
-9903 88 0
9903 -9667 -88 0
-9904 9669 0
-9904 94 0
9904 -9669 -94 0
-9905 9671 0
-9905 136 0
9905 -9671 -136 0
-9906 9673 0
-9906 142 0
9906 -9673 -142 0
-9907 9675 0
-9907 184 0
9907 -9675 -184 0
-9908 9891 9892 0
-9908 -9891 -9892 0
9908 -9891 9892 0
9908 9891 -9892 0
-9909 9908 9893 0
-9909 -9908 -9893 0
9909 -9908 9893 0
9909 9908 -9893 0
-9910 9909 9894 0
-9910 -9909 -9894 0
9910 -9909 9894 0
9910 9909 -9894 0
-9911 9910 9895 0
-9911 -9910 -9895 0
9911 -9910 9895 0
9911 9910 -9895 0
-9912 9911 9896 0
-9912 -9911 -9896 0
9912 -9911 9896 0
9912 9911 -9896 0
-9913 9912 9897 0
-9913 -9912 -9897 0
9913 -9912 9897 0
9913 9912 -9897 0
-9914 9913 9898 0
-9914 -9913 -9898 0
9914 -9913 9898 0
9914 9913 -9898 0
-9915 9914 9899 0
-9915 -9914 -9899 0
9915 -9914 9899 0
9915 9914 -9899 0
-9916 9915 9900 0
-9916 -9915 -9900 0
9916 -9915 9900 0
9916 9915 -9900 0
-9917 9916 9901 0
-9917 -9916 -9901 0
9917 -9916 9901 0
9917 9916 -9901 0
-9918 9917 9902 0
-9918 -9917 -9902 0
9918 -9917 9902 0
9918 9917 -9902 0
-9919 9918 9903 0
-9919 -9918 -9903 0
9919 -9918 9903 0
9919 9918 -9903 0
-9920 9919 9904 0
-9920 -9919 -9904 0
9920 -9919 9904 0
9920 9919 -9904 0
-9921 9920 9905 0
-9921 -9920 -9905 0
9921 -9920 9905 0
9921 9920 -9905 0
-9922 9921 9906 0
-9922 -9921 -9906 0
9922 -9921 9906 0
9922 9921 -9906 0
-9923 9922 9907 0
-9923 -9922 -9907 0
9923 -9922 9907 0
9923 9922 -9907 0
-9923 0
-9924 9643 0
-9924 41 0
9924 -9643 -41 0
-9925 9645 0
-9925 41 0
9925 -9645 -41 0
-9926 9647 0
-9926 45 0
9926 -9647 -45 0
-9927 9649 0
-9927 37 0
9927 -9649 -37 0
-9928 9651 0
-9928 45 0
9928 -9651 -45 0
-9929 9653 0
-9929 37 0
9929 -9653 -37 0
-9930 9655 0
-9930 35 0
9930 -9655 -35 0
-9931 9657 0
-9931 35 0
9931 -9657 -35 0
-9932 9659 0
-9932 36 0
9932 -9659 -36 0
-9933 9661 0
-9933 34 0
9933 -9661 -34 0
-9934 9663 0
-9934 36 0
9934 -9663 -36 0
-9935 9665 0
-9935 34 0
9935 -9665 -34 0
-9936 9667 0
-9936 89 0
9936 -9667 -89 0
-9937 9669 0
-9937 83 0
9937 -9669 -83 0
-9938 9671 0
-9938 137 0
9938 -9671 -137 0
-9939 9673 0
-9939 131 0
9939 -9673 -131 0
-9940 9675 0
-9940 185 0
9940 -9675 -185 0
-9941 9924 9925 0
-9941 -9924 -9925 0
9941 -9924 9925 0
9941 9924 -9925 0
-9942 9941 9926 0
-9942 -9941 -9926 0
9942 -9941 9926 0
9942 9941 -9926 0
-9943 9942 9927 0
-9943 -9942 -9927 0
9943 -9942 9927 0
9943 9942 -9927 0
-9944 9943 9928 0
-9944 -9943 -9928 0
9944 -9943 9928 0
9944 9943 -9928 0
-9945 9944 9929 0
-9945 -9944 -9929 0
9945 -9944 9929 0
9945 9944 -9929 0
-9946 9945 9930 0
-9946 -9945 -9930 0
9946 -9945 9930 0
9946 9945 -9930 0
-9947 9946 9931 0
-9947 -9946 -9931 0
9947 -9946 9931 0
9947 9946 -9931 0
-9948 9947 9932 0
-9948 -9947 -9932 0
9948 -9947 9932 0
9948 9947 -9932 0
-9949 9948 9933 0
-9949 -9948 -9933 0
9949 -9948 9933 0
9949 9948 -9933 0
-9950 9949 9934 0
-9950 -9949 -9934 0
9950 -9949 9934 0
9950 9949 -9934 0
-9951 9950 9935 0
-9951 -9950 -9935 0
9951 -9950 9935 0
9951 9950 -9935 0
-9952 9951 9936 0
-9952 -9951 -9936 0
9952 -9951 9936 0
9952 9951 -9936 0
-9953 9952 9937 0
-9953 -9952 -9937 0
9953 -9952 9937 0
9953 9952 -9937 0
-9954 9953 9938 0
-9954 -9953 -9938 0
9954 -9953 9938 0
9954 9953 -9938 0
-9955 9954 9939 0
-9955 -9954 -9939 0
9955 -9954 9939 0
9955 9954 -9939 0
-9956 9955 9940 0
-9956 -9955 -9940 0
9956 -9955 9940 0
9956 9955 -9940 0
-9956 0
-9957 9643 0
-9957 42 0
9957 -9643 -42 0
-9958 9645 0
-9958 44 0
9958 -9645 -44 0
-9959 9647 0
-9959 46 0
9959 -9647 -46 0
-9960 9649 0
-9960 40 0
9960 -9649 -40 0
-9961 9651 0
-9961 47 0
9961 -9651 -47 0
-9962 9653 0
-9962 39 0
9962 -9653 -39 0
-9963 9655 0
-9963 39 0
9963 -9655 -39 0
-9964 9657 0
-9964 47 0
9964 -9657 -47 0
-9965 9659 0
-9965 40 0
9965 -9659 -40 0
-9966 9661 0
-9966 46 0
9966 -9661 -46 0
-9967 9663 0
-9967 44 0
9967 -9663 -44 0
-9968 9665 0
-9968 42 0
9968 -9665 -42 0
-9969 9667 0
-9969 90 0
9969 -9667 -90 0
-9970 9669 0
-9970 87 0
9970 -9669 -87 0
-9971 9671 0
-9971 138 0
9971 -9671 -138 0
-9972 9673 0
-9972 135 0
9972 -9673 -135 0
-9973 9675 0
-9973 186 0
9973 -9675 -186 0
-9974 9957 9958 0
-9974 -9957 -9958 0
9974 -9957 9958 0
9974 9957 -9958 0
-9975 9974 9959 0
-9975 -9974 -9959 0
9975 -9974 9959 0
9975 9974 -9959 0
-9976 9975 9960 0
-9976 -9975 -9960 0
9976 -9975 9960 0
9976 9975 -9960 0
-9977 9976 9961 0
-9977 -9976 -9961 0
9977 -9976 9961 0
9977 9976 -9961 0
-9978 9977 9962 0
-9978 -9977 -9962 0
9978 -9977 9962 0
9978 9977 -9962 0
-9979 9978 9963 0
-9979 -9978 -9963 0
9979 -9978 9963 0
9979 9978 -9963 0
-9980 9979 9964 0
-9980 -9979 -9964 0
9980 -9979 9964 0
9980 9979 -9964 0
-9981 9980 9965 0
-9981 -9980 -9965 0
9981 -9980 9965 0
9981 9980 -9965 0
-9982 9981 9966 0
-9982 -9981 -9966 0
9982 -9981 9966 0
9982 9981 -9966 0
-9983 9982 9967 0
-9983 -9982 -9967 0
9983 -9982 9967 0
9983 9982 -9967 0
-9984 9983 9968 0
-9984 -9983 -9968 0
9984 -9983 9968 0
9984 9983 -9968 0
-9985 9984 9969 0
-9985 -9984 -9969 0
9985 -9984 9969 0
9985 9984 -9969 0
-9986 9985 9970 0
-9986 -9985 -9970 0
9986 -9985 9970 0
9986 9985 -9970 0
-9987 9986 9971 0
-9987 -9986 -9971 0
9987 -9986 9971 0
9987 9986 -9971 0
-9988 9987 9972 0
-9988 -9987 -9972 0
9988 -9987 9972 0
9988 9987 -9972 0
-9989 9988 9973 0
-9989 -9988 -9973 0
9989 -9988 9973 0
9989 9988 -9973 0
-9989 0
-9990 9643 0
-9990 43 0
9990 -9643 -43 0
-9991 9645 0
-9991 43 0
9991 -9645 -43 0
-9992 9647 0
-9992 48 0
9992 -9647 -48 0
-9993 9649 0
-9993 38 0
9993 -9649 -38 0
-9994 9651 0
-9994 48 0
9994 -9651 -48 0
-9995 9653 0
-9995 38 0
9995 -9653 -38 0
-9996 9655 0
-9996 43 0
9996 -9655 -43 0
-9997 9657 0
-9997 43 0
9997 -9657 -43 0
-9998 9659 0
-9998 48 0
9998 -9659 -48 0
-9999 9661 0
-9999 38 0
9999 -9661 -38 0
-10000 9663 0
-10000 48 0
10000 -9663 -48 0
-10001 9665 0
-10001 38 0
10001 -9665 -38 0
-10002 9667 0
-10002 91 0
10002 -9667 -91 0
-10003 9669 0
-10003 91 0
10003 -9669 -91 0
-10004 9671 0
-10004 139 0
10004 -9671 -139 0
-10005 9673 0
-10005 139 0
10005 -9673 -139 0
-10006 9675 0
-10006 187 0
10006 -9675 -187 0
-10007 9990 9991 0
-10007 -9990 -9991 0
10007 -9990 9991 0
10007 9990 -9991 0
-10008 10007 9992 0
-10008 -10007 -9992 0
10008 -10007 9992 0
10008 10007 -9992 0
-10009 10008 9993 0
-10009 -10008 -9993 0
10009 -10008 9993 0
10009 10008 -9993 0
-10010 10009 9994 0
-10010 -10009 -9994 0
10010 -10009 9994 0
10010 10009 -9994 0
-10011 10010 9995 0
-10011 -10010 -9995 0
10011 -10010 9995 0
10011 10010 -9995 0
-10012 10011 9996 0
-10012 -10011 -9996 0
10012 -10011 9996 0
10012 10011 -9996 0
-10013 10012 9997 0
-10013 -10012 -9997 0
10013 -10012 9997 0
10013 10012 -9997 0
-10014 10013 9998 0
-10014 -10013 -9998 0
10014 -10013 9998 0
10014 10013 -9998 0
-10015 10014 9999 0
-10015 -10014 -9999 0
10015 -10014 9999 0
10015 10014 -9999 0
-10016 10015 10000 0
-10016 -10015 -10000 0
10016 -10015 10000 0
10016 10015 -10000 0
-10017 10016 10001 0
-10017 -10016 -10001 0
10017 -10016 10001 0
10017 10016 -10001 0
-10018 10017 10002 0
-10018 -10017 -10002 0
10018 -10017 10002 0
10018 10017 -10002 0
-10019 10018 10003 0
-10019 -10018 -10003 0
10019 -10018 10003 0
10019 10018 -10003 0
-10020 10019 10004 0
-10020 -10019 -10004 0
10020 -10019 10004 0
10020 10019 -10004 0
-10021 10020 10005 0
-10021 -10020 -10005 0
10021 -10020 10005 0
10021 10020 -10005 0
-10022 10021 10006 0
-10022 -10021 -10006 0
10022 -10021 10006 0
10022 10021 -10006 0
-10022 0
-10023 9643 0
-10023 44 0
10023 -9643 -44 0
-10024 9645 0
-10024 42 0
10024 -9645 -42 0
-10025 9647 0
-10025 47 0
10025 -9647 -47 0
-10026 9649 0
-10026 39 0
10026 -9649 -39 0
-10027 9651 0
-10027 46 0
10027 -9651 -46 0
-10028 9653 0
-10028 40 0
10028 -9653 -40 0
-10029 9655 0
-10029 47 0
10029 -9655 -47 0
-10030 9657 0
-10030 39 0
10030 -9657 -39 0
-10031 9659 0
-10031 44 0
10031 -9659 -44 0
-10032 9661 0
-10032 42 0
10032 -9661 -42 0
-10033 9663 0
-10033 40 0
10033 -9663 -40 0
-10034 9665 0
-10034 46 0
10034 -9665 -46 0
-10035 9667 0
-10035 92 0
10035 -9667 -92 0
-10036 9669 0
-10036 95 0
10036 -9669 -95 0
-10037 9671 0
-10037 140 0
10037 -9671 -140 0
-10038 9673 0
-10038 143 0
10038 -9673 -143 0
-10039 9675 0
-10039 188 0
10039 -9675 -188 0
-10040 10023 10024 0
-10040 -10023 -10024 0
10040 -10023 10024 0
10040 10023 -10024 0
-10041 10040 10025 0
-10041 -10040 -10025 0
10041 -10040 10025 0
10041 10040 -10025 0
-10042 10041 10026 0
-10042 -10041 -10026 0
10042 -10041 10026 0
10042 10041 -10026 0
-10043 10042 10027 0
-10043 -10042 -10027 0
10043 -10042 10027 0
10043 10042 -10027 0
-10044 10043 10028 0
-10044 -10043 -10028 0
10044 -10043 10028 0
10044 10043 -10028 0
-10045 10044 10029 0
-10045 -10044 -10029 0
10045 -10044 10029 0
10045 10044 -10029 0
-10046 10045 10030 0
-10046 -10045 -10030 0
10046 -10045 10030 0
10046 10045 -10030 0
-10047 10046 10031 0
-10047 -10046 -10031 0
10047 -10046 10031 0
10047 10046 -10031 0
-10048 10047 10032 0
-10048 -10047 -10032 0
10048 -10047 10032 0
10048 10047 -10032 0
-10049 10048 10033 0
-10049 -10048 -10033 0
10049 -10048 10033 0
10049 10048 -10033 0
-10050 10049 10034 0
-10050 -10049 -10034 0
10050 -10049 10034 0
10050 10049 -10034 0
-10051 10050 10035 0
-10051 -10050 -10035 0
10051 -10050 10035 0
10051 10050 -10035 0
-10052 10051 10036 0
-10052 -10051 -10036 0
10052 -10051 10036 0
10052 10051 -10036 0
-10053 10052 10037 0
-10053 -10052 -10037 0
10053 -10052 10037 0
10053 10052 -10037 0
-10054 10053 10038 0
-10054 -10053 -10038 0
10054 -10053 10038 0
10054 10053 -10038 0
-10055 10054 10039 0
-10055 -10054 -10039 0
10055 -10054 10039 0
10055 10054 -10039 0
-10055 0
-10056 9643 0
-10056 45 0
10056 -9643 -45 0
-10057 9645 0
-10057 37 0
10057 -9645 -37 0
-10058 9647 0
-10058 41 0
10058 -9647 -41 0
-10059 9649 0
-10059 41 0
10059 -9649 -41 0
-10060 9651 0
-10060 37 0
10060 -9651 -37 0
-10061 9653 0
-10061 45 0
10061 -9653 -45 0
-10062 9655 0
-10062 36 0
10062 -9655 -36 0
-10063 9657 0
-10063 34 0
10063 -9657 -34 0
-10064 9659 0
-10064 35 0
10064 -9659 -35 0
-10065 9661 0
-10065 35 0
10065 -9661 -35 0
-10066 9663 0
-10066 34 0
10066 -9663 -34 0
-10067 9665 0
-10067 36 0
10067 -9665 -36 0
-10068 9667 0
-10068 93 0
10068 -9667 -93 0
-10069 9669 0
-10069 84 0
10069 -9669 -84 0
-10070 9671 0
-10070 141 0
10070 -9671 -141 0
-10071 9673 0
-10071 132 0
10071 -9673 -132 0
-10072 9675 0
-10072 189 0
10072 -9675 -189 0
-10073 10056 10057 0
-10073 -10056 -10057 0
10073 -10056 10057 0
10073 10056 -10057 0
-10074 10073 10058 0
-10074 -10073 -10058 0
10074 -10073 10058 0
10074 10073 -10058 0
-10075 10074 10059 0
-10075 -10074 -10059 0
10075 -10074 10059 0
10075 10074 -10059 0
-10076 10075 10060 0
-10076 -10075 -10060 0
10076 -10075 10060 0
10076 10075 -10060 0
-10077 10076 10061 0
-10077 -10076 -10061 0
10077 -10076 10061 0
10077 10076 -10061 0
-10078 10077 10062 0
-10078 -10077 -10062 0
10078 -10077 10062 0
10078 10077 -10062 0
-10079 10078 10063 0
-10079 -10078 -10063 0
10079 -10078 10063 0
10079 10078 -10063 0
-10080 10079 10064 0
-10080 -10079 -10064 0
10080 -10079 10064 0
10080 10079 -10064 0
-10081 10080 10065 0
-10081 -10080 -10065 0
10081 -10080 10065 0
10081 10080 -10065 0
-10082 10081 10066 0
-10082 -10081 -10066 0
10082 -10081 10066 0
10082 10081 -10066 0
-10083 10082 10067 0
-10083 -10082 -10067 0
10083 -10082 10067 0
10083 10082 -10067 0
-10084 10083 10068 0
-10084 -10083 -10068 0
10084 -10083 10068 0
10084 10083 -10068 0
-10085 10084 10069 0
-10085 -10084 -10069 0
10085 -10084 10069 0
10085 10084 -10069 0
-10086 10085 10070 0
-10086 -10085 -10070 0
10086 -10085 10070 0
10086 10085 -10070 0
-10087 10086 10071 0
-10087 -10086 -10071 0
10087 -10086 10071 0
10087 10086 -10071 0
-10088 10087 10072 0
-10088 -10087 -10072 0
10088 -10087 10072 0
10088 10087 -10072 0
-10088 0
-10089 9643 0
-10089 46 0
10089 -9643 -46 0
-10090 9645 0
-10090 40 0
10090 -9645 -40 0
-10091 9647 0
-10091 42 0
10091 -9647 -42 0
-10092 9649 0
-10092 44 0
10092 -9649 -44 0
-10093 9651 0
-10093 39 0
10093 -9651 -39 0
-10094 9653 0
-10094 47 0
10094 -9653 -47 0
-10095 9655 0
-10095 40 0
10095 -9655 -40 0
-10096 9657 0
-10096 46 0
10096 -9657 -46 0
-10097 9659 0
-10097 39 0
10097 -9659 -39 0
-10098 9661 0
-10098 47 0
10098 -9661 -47 0
-10099 9663 0
-10099 42 0
10099 -9663 -42 0
-10100 9665 0
-10100 44 0
10100 -9665 -44 0
-10101 9667 0
-10101 94 0
10101 -9667 -94 0
-10102 9669 0
-10102 88 0
10102 -9669 -88 0
-10103 9671 0
-10103 142 0
10103 -9671 -142 0
-10104 9673 0
-10104 136 0
10104 -9673 -136 0
-10105 9675 0
-10105 190 0
10105 -9675 -190 0
-10106 10089 10090 0
-10106 -10089 -10090 0
10106 -10089 10090 0
10106 10089 -10090 0
-10107 10106 10091 0
-10107 -10106 -10091 0
10107 -10106 10091 0
10107 10106 -10091 0
-10108 10107 10092 0
-10108 -10107 -10092 0
10108 -10107 10092 0
10108 10107 -10092 0
-10109 10108 10093 0
-10109 -10108 -10093 0
10109 -10108 10093 0
10109 10108 -10093 0
-10110 10109 10094 0
-10110 -10109 -10094 0
10110 -10109 10094 0
10110 10109 -10094 0
-10111 10110 10095 0
-10111 -10110 -10095 0
10111 -10110 10095 0
10111 10110 -10095 0
-10112 10111 10096 0
-10112 -10111 -10096 0
10112 -10111 10096 0
10112 10111 -10096 0
-10113 10112 10097 0
-10113 -10112 -10097 0
10113 -10112 10097 0
10113 10112 -10097 0
-10114 10113 10098 0
-10114 -10113 -10098 0
10114 -10113 10098 0
10114 10113 -10098 0
-10115 10114 10099 0
-10115 -10114 -10099 0
10115 -10114 10099 0
10115 10114 -10099 0
-10116 10115 10100 0
-10116 -10115 -10100 0
10116 -10115 10100 0
10116 10115 -10100 0
-10117 10116 10101 0
-10117 -10116 -10101 0
10117 -10116 10101 0
10117 10116 -10101 0
-10118 10117 10102 0
-10118 -10117 -10102 0
10118 -10117 10102 0
10118 10117 -10102 0
-10119 10118 10103 0
-10119 -10118 -10103 0
10119 -10118 10103 0
10119 10118 -10103 0
-10120 10119 10104 0
-10120 -10119 -10104 0
10120 -10119 10104 0
10120 10119 -10104 0
-10121 10120 10105 0
-10121 -10120 -10105 0
10121 -10120 10105 0
10121 10120 -10105 0
-10121 0
-10122 9643 0
-10122 47 0
10122 -9643 -47 0
-10123 9645 0
-10123 39 0
10123 -9645 -39 0
-10124 9647 0
-10124 44 0
10124 -9647 -44 0
-10125 9649 0
-10125 42 0
10125 -9649 -42 0
-10126 9651 0
-10126 40 0
10126 -9651 -40 0
-10127 9653 0
-10127 46 0
10127 -9653 -46 0
-10128 9655 0
-10128 44 0
10128 -9655 -44 0
-10129 9657 0
-10129 42 0
10129 -9657 -42 0
-10130 9659 0
-10130 47 0
10130 -9659 -47 0
-10131 9661 0
-10131 39 0
10131 -9661 -39 0
-10132 9663 0
-10132 46 0
10132 -9663 -46 0
-10133 9665 0
-10133 40 0
10133 -9665 -40 0
-10134 9667 0
-10134 95 0
10134 -9667 -95 0
-10135 9669 0
-10135 92 0
10135 -9669 -92 0
-10136 9671 0
-10136 143 0
10136 -9671 -143 0
-10137 9673 0
-10137 140 0
10137 -9673 -140 0
-10138 9675 0
-10138 191 0
10138 -9675 -191 0
-10139 10122 10123 0
-10139 -10122 -10123 0
10139 -10122 10123 0
10139 10122 -10123 0
-10140 10139 10124 0
-10140 -10139 -10124 0
10140 -10139 10124 0
10140 10139 -10124 0
-10141 10140 10125 0
-10141 -10140 -10125 0
10141 -10140 10125 0
10141 10140 -10125 0
-10142 10141 10126 0
-10142 -10141 -10126 0
10142 -10141 10126 0
10142 10141 -10126 0
-10143 10142 10127 0
-10143 -10142 -10127 0
10143 -10142 10127 0
10143 10142 -10127 0
-10144 10143 10128 0
-10144 -10143 -10128 0
10144 -10143 10128 0
10144 10143 -10128 0
-10145 10144 10129 0
-10145 -10144 -10129 0
10145 -10144 10129 0
10145 10144 -10129 0
-10146 10145 10130 0
-10146 -10145 -10130 0
10146 -10145 10130 0
10146 10145 -10130 0
-10147 10146 10131 0
-10147 -10146 -10131 0
10147 -10146 10131 0
10147 10146 -10131 0
-10148 10147 10132 0
-10148 -10147 -10132 0
10148 -10147 10132 0
10148 10147 -10132 0
-10149 10148 10133 0
-10149 -10148 -10133 0
10149 -10148 10133 0
10149 10148 -10133 0
-10150 10149 10134 0
-10150 -10149 -10134 0
10150 -10149 10134 0
10150 10149 -10134 0
-10151 10150 10135 0
-10151 -10150 -10135 0
10151 -10150 10135 0
10151 10150 -10135 0
-10152 10151 10136 0
-10152 -10151 -10136 0
10152 -10151 10136 0
10152 10151 -10136 0
-10153 10152 10137 0
-10153 -10152 -10137 0
10153 -10152 10137 0
10153 10152 -10137 0
-10154 10153 10138 0
-10154 -10153 -10138 0
10154 -10153 10138 0
10154 10153 -10138 0
-10154 0
-10155 9643 0
-10155 48 0
10155 -9643 -48 0
-10156 9645 0
-10156 38 0
10156 -9645 -38 0
-10157 9647 0
-10157 43 0
10157 -9647 -43 0
-10158 9649 0
-10158 43 0
10158 -9649 -43 0
-10159 9651 0
-10159 38 0
10159 -9651 -38 0
-10160 9653 0
-10160 48 0
10160 -9653 -48 0
-10161 9655 0
-10161 48 0
10161 -9655 -48 0
-10162 9657 0
-10162 38 0
10162 -9657 -38 0
-10163 9659 0
-10163 43 0
10163 -9659 -43 0
-10164 9661 0
-10164 43 0
10164 -9661 -43 0
-10165 9663 0
-10165 38 0
10165 -9663 -38 0
-10166 9665 0
-10166 48 0
10166 -9665 -48 0
-10167 9667 0
-10167 96 0
10167 -9667 -96 0
-10168 9669 0
-10168 96 0
10168 -9669 -96 0
-10169 9671 0
-10169 144 0
10169 -9671 -144 0
-10170 9673 0
-10170 144 0
10170 -9673 -144 0
-10171 9675 0
-10171 192 0
10171 -9675 -192 0
-10172 10155 10156 0
-10172 -10155 -10156 0
10172 -10155 10156 0
10172 10155 -10156 0
-10173 10172 10157 0
-10173 -10172 -10157 0
10173 -10172 10157 0
10173 10172 -10157 0
-10174 10173 10158 0
-10174 -10173 -10158 0
10174 -10173 10158 0
10174 10173 -10158 0
-10175 10174 10159 0
-10175 -10174 -10159 0
10175 -10174 10159 0
10175 10174 -10159 0
-10176 10175 10160 0
-10176 -10175 -10160 0
10176 -10175 10160 0
10176 10175 -10160 0
-10177 10176 10161 0
-10177 -10176 -10161 0
10177 -10176 10161 0
10177 10176 -10161 0
-10178 10177 10162 0
-10178 -10177 -10162 0
10178 -10177 10162 0
10178 10177 -10162 0
-10179 10178 10163 0
-10179 -10178 -10163 0
10179 -10178 10163 0
10179 10178 -10163 0
-10180 10179 10164 0
-10180 -10179 -10164 0
10180 -10179 10164 0
10180 10179 -10164 0
-10181 10180 10165 0
-10181 -10180 -10165 0
10181 -10180 10165 0
10181 10180 -10165 0
-10182 10181 10166 0
-10182 -10181 -10166 0
10182 -10181 10166 0
10182 10181 -10166 0
-10183 10182 10167 0
-10183 -10182 -10167 0
10183 -10182 10167 0
10183 10182 -10167 0
-10184 10183 10168 0
-10184 -10183 -10168 0
10184 -10183 10168 0
10184 10183 -10168 0
-10185 10184 10169 0
-10185 -10184 -10169 0
10185 -10184 10169 0
10185 10184 -10169 0
-10186 10185 10170 0
-10186 -10185 -10170 0
10186 -10185 10170 0
10186 10185 -10170 0
-10187 10186 10171 0
-10187 -10186 -10171 0
10187 -10186 10171 0
10187 10186 -10171 0
-10187 0
-10188 5 0
-10188 32 0
10188 -5 -32 0
-10189 10188 0
-10189 33 0
10189 -10188 -33 0
-10190 13 0
-10190 30 0
10190 -13 -30 0
-10191 10190 0
-10191 33 0
10191 -10190 -33 0
-10192 6 0
-10192 31 0
10192 -6 -31 0
-10193 10192 0
-10193 33 0
10193 -10192 -33 0
-10194 15 0
-10194 31 0
10194 -15 -31 0
-10195 10194 0
-10195 33 0
10195 -10194 -33 0
-10196 10 0
-10196 30 0
10196 -10 -30 0
-10197 10196 0
-10197 33 0
10197 -10196 -33 0
-10198 11 0
-10198 32 0
10198 -11 -32 0
-10199 10198 0
-10199 33 0
10199 -10198 -33 0
-10200 18 0
-10200 16 0
10200 -18 -16 0
-10201 10200 0
-10201 33 0
10201 -10200 -33 0
-10202 20 0
-10202 8 0
10202 -20 -8 0
-10203 10202 0
-10203 33 0
10203 -10202 -33 0
-10204 22 0
-10204 12 0
10204 -22 -12 0
-10205 10204 0
-10205 33 0
10205 -10204 -33 0
-10206 28 0
-10206 12 0
10206 -28 -12 0
-10207 10206 0
-10207 33 0
10207 -10206 -33 0
-10208 23 0
-10208 8 0
10208 -23 -8 0
-10209 10208 0
-10209 33 0
10209 -10208 -33 0
-10210 27 0
-10210 16 0
10210 -27 -16 0
-10211 10210 0
-10211 33 0
10211 -10210 -33 0
-10212 53 0
-10212 80 0
10212 -53 -80 0
-10213 10212 0
-10213 81 0
10213 -10212 -81 0
-10214 66 0
-10214 64 0
10214 -66 -64 0
-10215 10214 0
-10215 81 0
10215 -10214 -81 0
-10216 101 0
-10216 128 0
10216 -101 -128 0
-10217 10216 0
-10217 129 0
10217 -10216 -129 0
-10218 114 0
-10218 112 0
10218 -114 -112 0
-10219 10218 0
-10219 129 0
10219 -10218 -129 0
-10220 149 0
-10220 176 0
10220 -149 -176 0
-10221 10220 0
-10221 177 0
10221 -10220 -177 0
-10222 10189 10191 0
-10222 -10189 -10191 0
10222 -10189 10191 0
10222 10189 -10191 0
-10223 10222 10193 0
-10223 -10222 -10193 0
10223 -10222 10193 0
10223 10222 -10193 0
-10224 10223 10195 0
-10224 -10223 -10195 0
10224 -10223 10195 0
10224 10223 -10195 0
-10225 10224 10197 0
-10225 -10224 -10197 0
10225 -10224 10197 0
10225 10224 -10197 0
-10226 10225 10199 0
-10226 -10225 -10199 0
10226 -10225 10199 0
10226 10225 -10199 0
-10227 10226 10201 0
-10227 -10226 -10201 0
10227 -10226 10201 0
10227 10226 -10201 0
-10228 10227 10203 0
-10228 -10227 -10203 0
10228 -10227 10203 0
10228 10227 -10203 0
-10229 10228 10205 0
-10229 -10228 -10205 0
10229 -10228 10205 0
10229 10228 -10205 0
-10230 10229 10207 0
-10230 -10229 -10207 0
10230 -10229 10207 0
10230 10229 -10207 0
-10231 10230 10209 0
-10231 -10230 -10209 0
10231 -10230 10209 0
10231 10230 -10209 0
-10232 10231 10211 0
-10232 -10231 -10211 0
10232 -10231 10211 0
10232 10231 -10211 0
-10233 10232 10213 0
-10233 -10232 -10213 0
10233 -10232 10213 0
10233 10232 -10213 0
-10234 10233 10215 0
-10234 -10233 -10215 0
10234 -10233 10215 0
10234 10233 -10215 0
-10235 10234 10217 0
-10235 -10234 -10217 0
10235 -10234 10217 0
10235 10234 -10217 0
-10236 10235 10219 0
-10236 -10235 -10219 0
10236 -10235 10219 0
10236 10235 -10219 0
-10237 10236 10221 0
-10237 -10236 -10221 0
10237 -10236 10221 0
10237 10236 -10221 0
-10237 0
-10238 10188 0
-10238 34 0
10238 -10188 -34 0
-10239 10190 0
-10239 36 0
10239 -10190 -36 0
-10240 10192 0
-10240 34 0
10240 -10192 -34 0
-10241 10194 0
-10241 36 0
10241 -10194 -36 0
-10242 10196 0
-10242 35 0
10242 -10196 -35 0
-10243 10198 0
-10243 35 0
10243 -10198 -35 0
-10244 10200 0
-10244 37 0
10244 -10200 -37 0
-10245 10202 0
-10245 45 0
10245 -10202 -45 0
-10246 10204 0
-10246 37 0
10246 -10204 -37 0
-10247 10206 0
-10247 45 0
10247 -10206 -45 0
-10248 10208 0
-10248 41 0
10248 -10208 -41 0
-10249 10210 0
-10249 41 0
10249 -10210 -41 0
-10250 10212 0
-10250 82 0
10250 -10212 -82 0
-10251 10214 0
-10251 85 0
10251 -10214 -85 0
-10252 10216 0
-10252 130 0
10252 -10216 -130 0
-10253 10218 0
-10253 133 0
10253 -10218 -133 0
-10254 10220 0
-10254 178 0
10254 -10220 -178 0
-10255 10238 10239 0
-10255 -10238 -10239 0
10255 -10238 10239 0
10255 10238 -10239 0
-10256 10255 10240 0
-10256 -10255 -10240 0
10256 -10255 10240 0
10256 10255 -10240 0
-10257 10256 10241 0
-10257 -10256 -10241 0
10257 -10256 10241 0
10257 10256 -10241 0
-10258 10257 10242 0
-10258 -10257 -10242 0
10258 -10257 10242 0
10258 10257 -10242 0
-10259 10258 10243 0
-10259 -10258 -10243 0
10259 -10258 10243 0
10259 10258 -10243 0
-10260 10259 10244 0
-10260 -10259 -10244 0
10260 -10259 10244 0
10260 10259 -10244 0
-10261 10260 10245 0
-10261 -10260 -10245 0
10261 -10260 10245 0
10261 10260 -10245 0
-10262 10261 10246 0
-10262 -10261 -10246 0
10262 -10261 10246 0
10262 10261 -10246 0
-10263 10262 10247 0
-10263 -10262 -10247 0
10263 -10262 10247 0
10263 10262 -10247 0
-10264 10263 10248 0
-10264 -10263 -10248 0
10264 -10263 10248 0
10264 10263 -10248 0
-10265 10264 10249 0
-10265 -10264 -10249 0
10265 -10264 10249 0
10265 10264 -10249 0
-10266 10265 10250 0
-10266 -10265 -10250 0
10266 -10265 10250 0
10266 10265 -10250 0
-10267 10266 10251 0
-10267 -10266 -10251 0
10267 -10266 10251 0
10267 10266 -10251 0
-10268 10267 10252 0
-10268 -10267 -10252 0
10268 -10267 10252 0
10268 10267 -10252 0
-10269 10268 10253 0
-10269 -10268 -10253 0
10269 -10268 10253 0
10269 10268 -10253 0
-10270 10269 10254 0
-10270 -10269 -10254 0
10270 -10269 10254 0
10270 10269 -10254 0
10270 0
-10271 10188 0
-10271 35 0
10271 -10188 -35 0
-10272 10190 0
-10272 35 0
10272 -10190 -35 0
-10273 10192 0
-10273 36 0
10273 -10192 -36 0
-10274 10194 0
-10274 34 0
10274 -10194 -34 0
-10275 10196 0
-10275 36 0
10275 -10196 -36 0
-10276 10198 0
-10276 34 0
10276 -10198 -34 0
-10277 10200 0
-10277 41 0
10277 -10200 -41 0
-10278 10202 0
-10278 41 0
10278 -10202 -41 0
-10279 10204 0
-10279 45 0
10279 -10204 -45 0
-10280 10206 0
-10280 37 0
10280 -10206 -37 0
-10281 10208 0
-10281 45 0
10281 -10208 -45 0
-10282 10210 0
-10282 37 0
10282 -10210 -37 0
-10283 10212 0
-10283 83 0
10283 -10212 -83 0
-10284 10214 0
-10284 89 0
10284 -10214 -89 0
-10285 10216 0
-10285 131 0
10285 -10216 -131 0
-10286 10218 0
-10286 137 0
10286 -10218 -137 0
-10287 10220 0
-10287 179 0
10287 -10220 -179 0
-10288 10271 10272 0
-10288 -10271 -10272 0
10288 -10271 10272 0
10288 10271 -10272 0
-10289 10288 10273 0
-10289 -10288 -10273 0
10289 -10288 10273 0
10289 10288 -10273 0
-10290 10289 10274 0
-10290 -10289 -10274 0
10290 -10289 10274 0
10290 10289 -10274 0
-10291 10290 10275 0
-10291 -10290 -10275 0
10291 -10290 10275 0
10291 10290 -10275 0
-10292 10291 10276 0
-10292 -10291 -10276 0
10292 -10291 10276 0
10292 10291 -10276 0
-10293 10292 10277 0
-10293 -10292 -10277 0
10293 -10292 10277 0
10293 10292 -10277 0
-10294 10293 10278 0
-10294 -10293 -10278 0
10294 -10293 10278 0
10294 10293 -10278 0
-10295 10294 10279 0
-10295 -10294 -10279 0
10295 -10294 10279 0
10295 10294 -10279 0
-10296 10295 10280 0
-10296 -10295 -10280 0
10296 -10295 10280 0
10296 10295 -10280 0
-10297 10296 10281 0
-10297 -10296 -10281 0
10297 -10296 10281 0
10297 10296 -10281 0
-10298 10297 10282 0
-10298 -10297 -10282 0
10298 -10297 10282 0
10298 10297 -10282 0
-10299 10298 10283 0
-10299 -10298 -10283 0
10299 -10298 10283 0
10299 10298 -10283 0
-10300 10299 10284 0
-10300 -10299 -10284 0
10300 -10299 10284 0
10300 10299 -10284 0
-10301 10300 10285 0
-10301 -10300 -10285 0
10301 -10300 10285 0
10301 10300 -10285 0
-10302 10301 10286 0
-10302 -10301 -10286 0
10302 -10301 10286 0
10302 10301 -10286 0
-10303 10302 10287 0
-10303 -10302 -10287 0
10303 -10302 10287 0
10303 10302 -10287 0
-10303 0
-10304 10188 0
-10304 36 0
10304 -10188 -36 0
-10305 10190 0
-10305 34 0
10305 -10190 -34 0
-10306 10192 0
-10306 35 0
10306 -10192 -35 0
-10307 10194 0
-10307 35 0
10307 -10194 -35 0
-10308 10196 0
-10308 34 0
10308 -10196 -34 0
-10309 10198 0
-10309 36 0
10309 -10198 -36 0
-10310 10200 0
-10310 45 0
10310 -10200 -45 0
-10311 10202 0
-10311 37 0
10311 -10202 -37 0
-10312 10204 0
-10312 41 0
10312 -10204 -41 0
-10313 10206 0
-10313 41 0
10313 -10206 -41 0
-10314 10208 0
-10314 37 0
10314 -10208 -37 0
-10315 10210 0
-10315 45 0
10315 -10210 -45 0
-10316 10212 0
-10316 84 0
10316 -10212 -84 0
-10317 10214 0
-10317 93 0
10317 -10214 -93 0
-10318 10216 0
-10318 132 0
10318 -10216 -132 0
-10319 10218 0
-10319 141 0
10319 -10218 -141 0
-10320 10220 0
-10320 180 0
10320 -10220 -180 0
-10321 10304 10305 0
-10321 -10304 -10305 0
10321 -10304 10305 0
10321 10304 -10305 0
-10322 10321 10306 0
-10322 -10321 -10306 0
10322 -10321 10306 0
10322 10321 -10306 0
-10323 10322 10307 0
-10323 -10322 -10307 0
10323 -10322 10307 0
10323 10322 -10307 0
-10324 10323 10308 0
-10324 -10323 -10308 0
10324 -10323 10308 0
10324 10323 -10308 0
-10325 10324 10309 0
-10325 -10324 -10309 0
10325 -10324 10309 0
10325 10324 -10309 0
-10326 10325 10310 0
-10326 -10325 -10310 0
10326 -10325 10310 0
10326 10325 -10310 0
-10327 10326 10311 0
-10327 -10326 -10311 0
10327 -10326 10311 0
10327 10326 -10311 0
-10328 10327 10312 0
-10328 -10327 -10312 0
10328 -10327 10312 0
10328 10327 -10312 0
-10329 10328 10313 0
-10329 -10328 -10313 0
10329 -10328 10313 0
10329 10328 -10313 0
-10330 10329 10314 0
-10330 -10329 -10314 0
10330 -10329 10314 0
10330 10329 -10314 0
-10331 10330 10315 0
-10331 -10330 -10315 0
10331 -10330 10315 0
10331 10330 -10315 0
-10332 10331 10316 0
-10332 -10331 -10316 0
10332 -10331 10316 0
10332 10331 -10316 0
-10333 10332 10317 0
-10333 -10332 -10317 0
10333 -10332 10317 0
10333 10332 -10317 0
-10334 10333 10318 0
-10334 -10333 -10318 0
10334 -10333 10318 0
10334 10333 -10318 0
-10335 10334 10319 0
-10335 -10334 -10319 0
10335 -10334 10319 0
10335 10334 -10319 0
-10336 10335 10320 0
-10336 -10335 -10320 0
10336 -10335 10320 0
10336 10335 -10320 0
-10336 0
-10337 10188 0
-10337 37 0
10337 -10188 -37 0
-10338 10190 0
-10338 45 0
10338 -10190 -45 0
-10339 10192 0
-10339 37 0
10339 -10192 -37 0
-10340 10194 0
-10340 45 0
10340 -10194 -45 0
-10341 10196 0
-10341 41 0
10341 -10196 -41 0
-10342 10198 0
-10342 41 0
10342 -10198 -41 0
-10343 10200 0
-10343 34 0
10343 -10200 -34 0
-10344 10202 0
-10344 36 0
10344 -10202 -36 0
-10345 10204 0
-10345 34 0
10345 -10204 -34 0
-10346 10206 0
-10346 36 0
10346 -10206 -36 0
-10347 10208 0
-10347 35 0
10347 -10208 -35 0
-10348 10210 0
-10348 35 0
10348 -10210 -35 0
-10349 10212 0
-10349 85 0
10349 -10212 -85 0
-10350 10214 0
-10350 82 0
10350 -10214 -82 0
-10351 10216 0
-10351 133 0
10351 -10216 -133 0
-10352 10218 0
-10352 130 0
10352 -10218 -130 0
-10353 10220 0
-10353 181 0
10353 -10220 -181 0
-10354 10337 10338 0
-10354 -10337 -10338 0
10354 -10337 10338 0
10354 10337 -10338 0
-10355 10354 10339 0
-10355 -10354 -10339 0
10355 -10354 10339 0
10355 10354 -10339 0
-10356 10355 10340 0
-10356 -10355 -10340 0
10356 -10355 10340 0
10356 10355 -10340 0
-10357 10356 10341 0
-10357 -10356 -10341 0
10357 -10356 10341 0
10357 10356 -10341 0
-10358 10357 10342 0
-10358 -10357 -10342 0
10358 -10357 10342 0
10358 10357 -10342 0
-10359 10358 10343 0
-10359 -10358 -10343 0
10359 -10358 10343 0
10359 10358 -10343 0
-10360 10359 10344 0
-10360 -10359 -10344 0
10360 -10359 10344 0
10360 10359 -10344 0
-10361 10360 10345 0
-10361 -10360 -10345 0
10361 -10360 10345 0
10361 10360 -10345 0
-10362 10361 10346 0
-10362 -10361 -10346 0
10362 -10361 10346 0
10362 10361 -10346 0
-10363 10362 10347 0
-10363 -10362 -10347 0
10363 -10362 10347 0
10363 10362 -10347 0
-10364 10363 10348 0
-10364 -10363 -10348 0
10364 -10363 10348 0
10364 10363 -10348 0
-10365 10364 10349 0
-10365 -10364 -10349 0
10365 -10364 10349 0
10365 10364 -10349 0
-10366 10365 10350 0
-10366 -10365 -10350 0
10366 -10365 10350 0
10366 10365 -10350 0
-10367 10366 10351 0
-10367 -10366 -10351 0
10367 -10366 10351 0
10367 10366 -10351 0
-10368 10367 10352 0
-10368 -10367 -10352 0
10368 -10367 10352 0
10368 10367 -10352 0
-10369 10368 10353 0
-10369 -10368 -10353 0
10369 -10368 10353 0
10369 10368 -10353 0
-10369 0
-10370 10188 0
-10370 38 0
10370 -10188 -38 0
-10371 10190 0
-10371 48 0
10371 -10190 -48 0
-10372 10192 0
-10372 38 0
10372 -10192 -38 0
-10373 10194 0
-10373 48 0
10373 -10194 -48 0
-10374 10196 0
-10374 43 0
10374 -10196 -43 0
-10375 10198 0
-10375 43 0
10375 -10198 -43 0
-10376 10200 0
-10376 38 0
10376 -10200 -38 0
-10377 10202 0
-10377 48 0
10377 -10202 -48 0
-10378 10204 0
-10378 38 0
10378 -10204 -38 0
-10379 10206 0
-10379 48 0
10379 -10206 -48 0
-10380 10208 0
-10380 43 0
10380 -10208 -43 0
-10381 10210 0
-10381 43 0
10381 -10210 -43 0
-10382 10212 0
-10382 86 0
10382 -10212 -86 0
-10383 10214 0
-10383 86 0
10383 -10214 -86 0
-10384 10216 0
-10384 134 0
10384 -10216 -134 0
-10385 10218 0
-10385 134 0
10385 -10218 -134 0
-10386 10220 0
-10386 182 0
10386 -10220 -182 0
-10387 10370 10371 0
-10387 -10370 -10371 0
10387 -10370 10371 0
10387 10370 -10371 0
-10388 10387 10372 0
-10388 -10387 -10372 0
10388 -10387 10372 0
10388 10387 -10372 0
-10389 10388 10373 0
-10389 -10388 -10373 0
10389 -10388 10373 0
10389 10388 -10373 0
-10390 10389 10374 0
-10390 -10389 -10374 0
10390 -10389 10374 0
10390 10389 -10374 0
-10391 10390 10375 0
-10391 -10390 -10375 0
10391 -10390 10375 0
10391 10390 -10375 0
-10392 10391 10376 0
-10392 -10391 -10376 0
10392 -10391 10376 0
10392 10391 -10376 0
-10393 10392 10377 0
-10393 -10392 -10377 0
10393 -10392 10377 0
10393 10392 -10377 0
-10394 10393 10378 0
-10394 -10393 -10378 0
10394 -10393 10378 0
10394 10393 -10378 0
-10395 10394 10379 0
-10395 -10394 -10379 0
10395 -10394 10379 0
10395 10394 -10379 0
-10396 10395 10380 0
-10396 -10395 -10380 0
10396 -10395 10380 0
10396 10395 -10380 0
-10397 10396 10381 0
-10397 -10396 -10381 0
10397 -10396 10381 0
10397 10396 -10381 0
-10398 10397 10382 0
-10398 -10397 -10382 0
10398 -10397 10382 0
10398 10397 -10382 0
-10399 10398 10383 0
-10399 -10398 -10383 0
10399 -10398 10383 0
10399 10398 -10383 0
-10400 10399 10384 0
-10400 -10399 -10384 0
10400 -10399 10384 0
10400 10399 -10384 0
-10401 10400 10385 0
-10401 -10400 -10385 0
10401 -10400 10385 0
10401 10400 -10385 0
-10402 10401 10386 0
-10402 -10401 -10386 0
10402 -10401 10386 0
10402 10401 -10386 0
-10402 0
-10403 10188 0
-10403 39 0
10403 -10188 -39 0
-10404 10190 0
-10404 47 0
10404 -10190 -47 0
-10405 10192 0
-10405 40 0
10405 -10192 -40 0
-10406 10194 0
-10406 46 0
10406 -10194 -46 0
-10407 10196 0
-10407 44 0
10407 -10196 -44 0
-10408 10198 0
-10408 42 0
10408 -10198 -42 0
-10409 10200 0
-10409 42 0
10409 -10200 -42 0
-10410 10202 0
-10410 44 0
10410 -10202 -44 0
-10411 10204 0
-10411 46 0
10411 -10204 -46 0
-10412 10206 0
-10412 40 0
10412 -10206 -40 0
-10413 10208 0
-10413 47 0
10413 -10208 -47 0
-10414 10210 0
-10414 39 0
10414 -10210 -39 0
-10415 10212 0
-10415 87 0
10415 -10212 -87 0
-10416 10214 0
-10416 90 0
10416 -10214 -90 0
-10417 10216 0
-10417 135 0
10417 -10216 -135 0
-10418 10218 0
-10418 138 0
10418 -10218 -138 0
-10419 10220 0
-10419 183 0
10419 -10220 -183 0
-10420 10403 10404 0
-10420 -10403 -10404 0
10420 -10403 10404 0
10420 10403 -10404 0
-10421 10420 10405 0
-10421 -10420 -10405 0
10421 -10420 10405 0
10421 10420 -10405 0
-10422 10421 10406 0
-10422 -10421 -10406 0
10422 -10421 10406 0
10422 10421 -10406 0
-10423 10422 10407 0
-10423 -10422 -10407 0
10423 -10422 10407 0
10423 10422 -10407 0
-10424 10423 10408 0
-10424 -10423 -10408 0
10424 -10423 10408 0
10424 10423 -10408 0
-10425 10424 10409 0
-10425 -10424 -10409 0
10425 -10424 10409 0
10425 10424 -10409 0
-10426 10425 10410 0
-10426 -10425 -10410 0
10426 -10425 10410 0
10426 10425 -10410 0
-10427 10426 10411 0
-10427 -10426 -10411 0
10427 -10426 10411 0
10427 10426 -10411 0
-10428 10427 10412 0
-10428 -10427 -10412 0
10428 -10427 10412 0
10428 10427 -10412 0
-10429 10428 10413 0
-10429 -10428 -10413 0
10429 -10428 10413 0
10429 10428 -10413 0
-10430 10429 10414 0
-10430 -10429 -10414 0
10430 -10429 10414 0
10430 10429 -10414 0
-10431 10430 10415 0
-10431 -10430 -10415 0
10431 -10430 10415 0
10431 10430 -10415 0
-10432 10431 10416 0
-10432 -10431 -10416 0
10432 -10431 10416 0
10432 10431 -10416 0
-10433 10432 10417 0
-10433 -10432 -10417 0
10433 -10432 10417 0
10433 10432 -10417 0
-10434 10433 10418 0
-10434 -10433 -10418 0
10434 -10433 10418 0
10434 10433 -10418 0
-10435 10434 10419 0
-10435 -10434 -10419 0
10435 -10434 10419 0
10435 10434 -10419 0
-10435 0
-10436 10188 0
-10436 40 0
10436 -10188 -40 0
-10437 10190 0
-10437 46 0
10437 -10190 -46 0
-10438 10192 0
-10438 39 0
10438 -10192 -39 0
-10439 10194 0
-10439 47 0
10439 -10194 -47 0
-10440 10196 0
-10440 42 0
10440 -10196 -42 0
-10441 10198 0
-10441 44 0
10441 -10198 -44 0
-10442 10200 0
-10442 46 0
10442 -10200 -46 0
-10443 10202 0
-10443 40 0
10443 -10202 -40 0
-10444 10204 0
-10444 42 0
10444 -10204 -42 0
-10445 10206 0
-10445 44 0
10445 -10206 -44 0
-10446 10208 0
-10446 39 0
10446 -10208 -39 0
-10447 10210 0
-10447 47 0
10447 -10210 -47 0
-10448 10212 0
-10448 88 0
10448 -10212 -88 0
-10449 10214 0
-10449 94 0
10449 -10214 -94 0
-10450 10216 0
-10450 136 0
10450 -10216 -136 0
-10451 10218 0
-10451 142 0
10451 -10218 -142 0
-10452 10220 0
-10452 184 0
10452 -10220 -184 0
-10453 10436 10437 0
-10453 -10436 -10437 0
10453 -10436 10437 0
10453 10436 -10437 0
-10454 10453 10438 0
-10454 -10453 -10438 0
10454 -10453 10438 0
10454 10453 -10438 0
-10455 10454 10439 0
-10455 -10454 -10439 0
10455 -10454 10439 0
10455 10454 -10439 0
-10456 10455 10440 0
-10456 -10455 -10440 0
10456 -10455 10440 0
10456 10455 -10440 0
-10457 10456 10441 0
-10457 -10456 -10441 0
10457 -10456 10441 0
10457 10456 -10441 0
-10458 10457 10442 0
-10458 -10457 -10442 0
10458 -10457 10442 0
10458 10457 -10442 0
-10459 10458 10443 0
-10459 -10458 -10443 0
10459 -10458 10443 0
10459 10458 -10443 0
-10460 10459 10444 0
-10460 -10459 -10444 0
10460 -10459 10444 0
10460 10459 -10444 0
-10461 10460 10445 0
-10461 -10460 -10445 0
10461 -10460 10445 0
10461 10460 -10445 0
-10462 10461 10446 0
-10462 -10461 -10446 0
10462 -10461 10446 0
10462 10461 -10446 0
-10463 10462 10447 0
-10463 -10462 -10447 0
10463 -10462 10447 0
10463 10462 -10447 0
-10464 10463 10448 0
-10464 -10463 -10448 0
10464 -10463 10448 0
10464 10463 -10448 0
-10465 10464 10449 0
-10465 -10464 -10449 0
10465 -10464 10449 0
10465 10464 -10449 0
-10466 10465 10450 0
-10466 -10465 -10450 0
10466 -10465 10450 0
10466 10465 -10450 0
-10467 10466 10451 0
-10467 -10466 -10451 0
10467 -10466 10451 0
10467 10466 -10451 0
-10468 10467 10452 0
-10468 -10467 -10452 0
10468 -10467 10452 0
10468 10467 -10452 0
-10468 0
-10469 10188 0
-10469 41 0
10469 -10188 -41 0
-10470 10190 0
-10470 41 0
10470 -10190 -41 0
-10471 10192 0
-10471 45 0
10471 -10192 -45 0
-10472 10194 0
-10472 37 0
10472 -10194 -37 0
-10473 10196 0
-10473 45 0
10473 -10196 -45 0
-10474 10198 0
-10474 37 0
10474 -10198 -37 0
-10475 10200 0
-10475 35 0
10475 -10200 -35 0
-10476 10202 0
-10476 35 0
10476 -10202 -35 0
-10477 10204 0
-10477 36 0
10477 -10204 -36 0
-10478 10206 0
-10478 34 0
10478 -10206 -34 0
-10479 10208 0
-10479 36 0
10479 -10208 -36 0
-10480 10210 0
-10480 34 0
10480 -10210 -34 0
-10481 10212 0
-10481 89 0
10481 -10212 -89 0
-10482 10214 0
-10482 83 0
10482 -10214 -83 0
-10483 10216 0
-10483 137 0
10483 -10216 -137 0
-10484 10218 0
-10484 131 0
10484 -10218 -131 0
-10485 10220 0
-10485 185 0
10485 -10220 -185 0
-10486 10469 10470 0
-10486 -10469 -10470 0
10486 -10469 10470 0
10486 10469 -10470 0
-10487 10486 10471 0
-10487 -10486 -10471 0
10487 -10486 10471 0
10487 10486 -10471 0
-10488 10487 10472 0
-10488 -10487 -10472 0
10488 -10487 10472 0
10488 10487 -10472 0
-10489 10488 10473 0
-10489 -10488 -10473 0
10489 -10488 10473 0
10489 10488 -10473 0
-10490 10489 10474 0
-10490 -10489 -10474 0
10490 -10489 10474 0
10490 10489 -10474 0
-10491 10490 10475 0
-10491 -10490 -10475 0
10491 -10490 10475 0
10491 10490 -10475 0
-10492 10491 10476 0
-10492 -10491 -10476 0
10492 -10491 10476 0
10492 10491 -10476 0
-10493 10492 10477 0
-10493 -10492 -10477 0
10493 -10492 10477 0
10493 10492 -10477 0
-10494 10493 10478 0
-10494 -10493 -10478 0
10494 -10493 10478 0
10494 10493 -10478 0
-10495 10494 10479 0
-10495 -10494 -10479 0
10495 -10494 10479 0
10495 10494 -10479 0
-10496 10495 10480 0
-10496 -10495 -10480 0
10496 -10495 10480 0
10496 10495 -10480 0
-10497 10496 10481 0
-10497 -10496 -10481 0
10497 -10496 10481 0
10497 10496 -10481 0
-10498 10497 10482 0
-10498 -10497 -10482 0
10498 -10497 10482 0
10498 10497 -10482 0
-10499 10498 10483 0
-10499 -10498 -10483 0
10499 -10498 10483 0
10499 10498 -10483 0
-10500 10499 10484 0
-10500 -10499 -10484 0
10500 -10499 10484 0
10500 10499 -10484 0
-10501 10500 10485 0
-10501 -10500 -10485 0
10501 -10500 10485 0
10501 10500 -10485 0
-10501 0
-10502 10188 0
-10502 42 0
10502 -10188 -42 0
-10503 10190 0
-10503 44 0
10503 -10190 -44 0
-10504 10192 0
-10504 46 0
10504 -10192 -46 0
-10505 10194 0
-10505 40 0
10505 -10194 -40 0
-10506 10196 0
-10506 47 0
10506 -10196 -47 0
-10507 10198 0
-10507 39 0
10507 -10198 -39 0
-10508 10200 0
-10508 39 0
10508 -10200 -39 0
-10509 10202 0
-10509 47 0
10509 -10202 -47 0
-10510 10204 0
-10510 40 0
10510 -10204 -40 0
-10511 10206 0
-10511 46 0
10511 -10206 -46 0
-10512 10208 0
-10512 44 0
10512 -10208 -44 0
-10513 10210 0
-10513 42 0
10513 -10210 -42 0
-10514 10212 0
-10514 90 0
10514 -10212 -90 0
-10515 10214 0
-10515 87 0
10515 -10214 -87 0
-10516 10216 0
-10516 138 0
10516 -10216 -138 0
-10517 10218 0
-10517 135 0
10517 -10218 -135 0
-10518 10220 0
-10518 186 0
10518 -10220 -186 0
-10519 10502 10503 0
-10519 -10502 -10503 0
10519 -10502 10503 0
10519 10502 -10503 0
-10520 10519 10504 0
-10520 -10519 -10504 0
10520 -10519 10504 0
10520 10519 -10504 0
-10521 10520 10505 0
-10521 -10520 -10505 0
10521 -10520 10505 0
10521 10520 -10505 0
-10522 10521 10506 0
-10522 -10521 -10506 0
10522 -10521 10506 0
10522 10521 -10506 0
-10523 10522 10507 0
-10523 -10522 -10507 0
10523 -10522 10507 0
10523 10522 -10507 0
-10524 10523 10508 0
-10524 -10523 -10508 0
10524 -10523 10508 0
10524 10523 -10508 0
-10525 10524 10509 0
-10525 -10524 -10509 0
10525 -10524 10509 0
10525 10524 -10509 0
-10526 10525 10510 0
-10526 -10525 -10510 0
10526 -10525 10510 0
10526 10525 -10510 0
-10527 10526 10511 0
-10527 -10526 -10511 0
10527 -10526 10511 0
10527 10526 -10511 0
-10528 10527 10512 0
-10528 -10527 -10512 0
10528 -10527 10512 0
10528 10527 -10512 0
-10529 10528 10513 0
-10529 -10528 -10513 0
10529 -10528 10513 0
10529 10528 -10513 0
-10530 10529 10514 0
-10530 -10529 -10514 0
10530 -10529 10514 0
10530 10529 -10514 0
-10531 10530 10515 0
-10531 -10530 -10515 0
10531 -10530 10515 0
10531 10530 -10515 0
-10532 10531 10516 0
-10532 -10531 -10516 0
10532 -10531 10516 0
10532 10531 -10516 0
-10533 10532 10517 0
-10533 -10532 -10517 0
10533 -10532 10517 0
10533 10532 -10517 0
-10534 10533 10518 0
-10534 -10533 -10518 0
10534 -10533 10518 0
10534 10533 -10518 0
10534 0
-10535 10188 0
-10535 43 0
10535 -10188 -43 0
-10536 10190 0
-10536 43 0
10536 -10190 -43 0
-10537 10192 0
-10537 48 0
10537 -10192 -48 0
-10538 10194 0
-10538 38 0
10538 -10194 -38 0
-10539 10196 0
-10539 48 0
10539 -10196 -48 0
-10540 10198 0
-10540 38 0
10540 -10198 -38 0
-10541 10200 0
-10541 43 0
10541 -10200 -43 0
-10542 10202 0
-10542 43 0
10542 -10202 -43 0
-10543 10204 0
-10543 48 0
10543 -10204 -48 0
-10544 10206 0
-10544 38 0
10544 -10206 -38 0
-10545 10208 0
-10545 48 0
10545 -10208 -48 0
-10546 10210 0
-10546 38 0
10546 -10210 -38 0
-10547 10212 0
-10547 91 0
10547 -10212 -91 0
-10548 10214 0
-10548 91 0
10548 -10214 -91 0
-10549 10216 0
-10549 139 0
10549 -10216 -139 0
-10550 10218 0
-10550 139 0
10550 -10218 -139 0
-10551 10220 0
-10551 187 0
10551 -10220 -187 0
-10552 10535 10536 0
-10552 -10535 -10536 0
10552 -10535 10536 0
10552 10535 -10536 0
-10553 10552 10537 0
-10553 -10552 -10537 0
10553 -10552 10537 0
10553 10552 -10537 0
-10554 10553 10538 0
-10554 -10553 -10538 0
10554 -10553 10538 0
10554 10553 -10538 0
-10555 10554 10539 0
-10555 -10554 -10539 0
10555 -10554 10539 0
10555 10554 -10539 0
-10556 10555 10540 0
-10556 -10555 -10540 0
10556 -10555 10540 0
10556 10555 -10540 0
-10557 10556 10541 0
-10557 -10556 -10541 0
10557 -10556 10541 0
10557 10556 -10541 0
-10558 10557 10542 0
-10558 -10557 -10542 0
10558 -10557 10542 0
10558 10557 -10542 0
-10559 10558 10543 0
-10559 -10558 -10543 0
10559 -10558 10543 0
10559 10558 -10543 0
-10560 10559 10544 0
-10560 -10559 -10544 0
10560 -10559 10544 0
10560 10559 -10544 0
-10561 10560 10545 0
-10561 -10560 -10545 0
10561 -10560 10545 0
10561 10560 -10545 0
-10562 10561 10546 0
-10562 -10561 -10546 0
10562 -10561 10546 0
10562 10561 -10546 0
-10563 10562 10547 0
-10563 -10562 -10547 0
10563 -10562 10547 0
10563 10562 -10547 0
-10564 10563 10548 0
-10564 -10563 -10548 0
10564 -10563 10548 0
10564 10563 -10548 0
-10565 10564 10549 0
-10565 -10564 -10549 0
10565 -10564 10549 0
10565 10564 -10549 0
-10566 10565 10550 0
-10566 -10565 -10550 0
10566 -10565 10550 0
10566 10565 -10550 0
-10567 10566 10551 0
-10567 -10566 -10551 0
10567 -10566 10551 0
10567 10566 -10551 0
10567 0
-10568 10188 0
-10568 44 0
10568 -10188 -44 0
-10569 10190 0
-10569 42 0
10569 -10190 -42 0
-10570 10192 0
-10570 47 0
10570 -10192 -47 0
-10571 10194 0
-10571 39 0
10571 -10194 -39 0
-10572 10196 0
-10572 46 0
10572 -10196 -46 0
-10573 10198 0
-10573 40 0
10573 -10198 -40 0
-10574 10200 0
-10574 47 0
10574 -10200 -47 0
-10575 10202 0
-10575 39 0
10575 -10202 -39 0
-10576 10204 0
-10576 44 0
10576 -10204 -44 0
-10577 10206 0
-10577 42 0
10577 -10206 -42 0
-10578 10208 0
-10578 40 0
10578 -10208 -40 0
-10579 10210 0
-10579 46 0
10579 -10210 -46 0
-10580 10212 0
-10580 92 0
10580 -10212 -92 0
-10581 10214 0
-10581 95 0
10581 -10214 -95 0
-10582 10216 0
-10582 140 0
10582 -10216 -140 0
-10583 10218 0
-10583 143 0
10583 -10218 -143 0
-10584 10220 0
-10584 188 0
10584 -10220 -188 0
-10585 10568 10569 0
-10585 -10568 -10569 0
10585 -10568 10569 0
10585 10568 -10569 0
-10586 10585 10570 0
-10586 -10585 -10570 0
10586 -10585 10570 0
10586 10585 -10570 0
-10587 10586 10571 0
-10587 -10586 -10571 0
10587 -10586 10571 0
10587 10586 -10571 0
-10588 10587 10572 0
-10588 -10587 -10572 0
10588 -10587 10572 0
10588 10587 -10572 0
-10589 10588 10573 0
-10589 -10588 -10573 0
10589 -10588 10573 0
10589 10588 -10573 0
-10590 10589 10574 0
-10590 -10589 -10574 0
10590 -10589 10574 0
10590 10589 -10574 0
-10591 10590 10575 0
-10591 -10590 -10575 0
10591 -10590 10575 0
10591 10590 -10575 0
-10592 10591 10576 0
-10592 -10591 -10576 0
10592 -10591 10576 0
10592 10591 -10576 0
-10593 10592 10577 0
-10593 -10592 -10577 0
10593 -10592 10577 0
10593 10592 -10577 0
-10594 10593 10578 0
-10594 -10593 -10578 0
10594 -10593 10578 0
10594 10593 -10578 0
-10595 10594 10579 0
-10595 -10594 -10579 0
10595 -10594 10579 0
10595 10594 -10579 0
-10596 10595 10580 0
-10596 -10595 -10580 0
10596 -10595 10580 0
10596 10595 -10580 0
-10597 10596 10581 0
-10597 -10596 -10581 0
10597 -10596 10581 0
10597 10596 -10581 0
-10598 10597 10582 0
-10598 -10597 -10582 0
10598 -10597 10582 0
10598 10597 -10582 0
-10599 10598 10583 0
-10599 -10598 -10583 0
10599 -10598 10583 0
10599 10598 -10583 0
-10600 10599 10584 0
-10600 -10599 -10584 0
10600 -10599 10584 0
10600 10599 -10584 0
-10600 0
-10601 10188 0
-10601 45 0
10601 -10188 -45 0
-10602 10190 0
-10602 37 0
10602 -10190 -37 0
-10603 10192 0
-10603 41 0
10603 -10192 -41 0
-10604 10194 0
-10604 41 0
10604 -10194 -41 0
-10605 10196 0
-10605 37 0
10605 -10196 -37 0
-10606 10198 0
-10606 45 0
10606 -10198 -45 0
-10607 10200 0
-10607 36 0
10607 -10200 -36 0
-10608 10202 0
-10608 34 0
10608 -10202 -34 0
-10609 10204 0
-10609 35 0
10609 -10204 -35 0
-10610 10206 0
-10610 35 0
10610 -10206 -35 0
-10611 10208 0
-10611 34 0
10611 -10208 -34 0
-10612 10210 0
-10612 36 0
10612 -10210 -36 0
-10613 10212 0
-10613 93 0
10613 -10212 -93 0
-10614 10214 0
-10614 84 0
10614 -10214 -84 0
-10615 10216 0
-10615 141 0
10615 -10216 -141 0
-10616 10218 0
-10616 132 0
10616 -10218 -132 0
-10617 10220 0
-10617 189 0
10617 -10220 -189 0
-10618 10601 10602 0
-10618 -10601 -10602 0
10618 -10601 10602 0
10618 10601 -10602 0
-10619 10618 10603 0
-10619 -10618 -10603 0
10619 -10618 10603 0
10619 10618 -10603 0
-10620 10619 10604 0
-10620 -10619 -10604 0
10620 -10619 10604 0
10620 10619 -10604 0
-10621 10620 10605 0
-10621 -10620 -10605 0
10621 -10620 10605 0
10621 10620 -10605 0
-10622 10621 10606 0
-10622 -10621 -10606 0
10622 -10621 10606 0
10622 10621 -10606 0
-10623 10622 10607 0
-10623 -10622 -10607 0
10623 -10622 10607 0
10623 10622 -10607 0
-10624 10623 10608 0
-10624 -10623 -10608 0
10624 -10623 10608 0
10624 10623 -10608 0
-10625 10624 10609 0
-10625 -10624 -10609 0
10625 -10624 10609 0
10625 10624 -10609 0
-10626 10625 10610 0
-10626 -10625 -10610 0
10626 -10625 10610 0
10626 10625 -10610 0
-10627 10626 10611 0
-10627 -10626 -10611 0
10627 -10626 10611 0
10627 10626 -10611 0
-10628 10627 10612 0
-10628 -10627 -10612 0
10628 -10627 10612 0
10628 10627 -10612 0
-10629 10628 10613 0
-10629 -10628 -10613 0
10629 -10628 10613 0
10629 10628 -10613 0
-10630 10629 10614 0
-10630 -10629 -10614 0
10630 -10629 10614 0
10630 10629 -10614 0
-10631 10630 10615 0
-10631 -10630 -10615 0
10631 -10630 10615 0
10631 10630 -10615 0
-10632 10631 10616 0
-10632 -10631 -10616 0
10632 -10631 10616 0
10632 10631 -10616 0
-10633 10632 10617 0
-10633 -10632 -10617 0
10633 -10632 10617 0
10633 10632 -10617 0
-10633 0
-10634 10188 0
-10634 46 0
10634 -10188 -46 0
-10635 10190 0
-10635 40 0
10635 -10190 -40 0
-10636 10192 0
-10636 42 0
10636 -10192 -42 0
-10637 10194 0
-10637 44 0
10637 -10194 -44 0
-10638 10196 0
-10638 39 0
10638 -10196 -39 0
-10639 10198 0
-10639 47 0
10639 -10198 -47 0
-10640 10200 0
-10640 40 0
10640 -10200 -40 0
-10641 10202 0
-10641 46 0
10641 -10202 -46 0
-10642 10204 0
-10642 39 0
10642 -10204 -39 0
-10643 10206 0
-10643 47 0
10643 -10206 -47 0
-10644 10208 0
-10644 42 0
10644 -10208 -42 0
-10645 10210 0
-10645 44 0
10645 -10210 -44 0
-10646 10212 0
-10646 94 0
10646 -10212 -94 0
-10647 10214 0
-10647 88 0
10647 -10214 -88 0
-10648 10216 0
-10648 142 0
10648 -10216 -142 0
-10649 10218 0
-10649 136 0
10649 -10218 -136 0
-10650 10220 0
-10650 190 0
10650 -10220 -190 0
-10651 10634 10635 0
-10651 -10634 -10635 0
10651 -10634 10635 0
10651 10634 -10635 0
-10652 10651 10636 0
-10652 -10651 -10636 0
10652 -10651 10636 0
10652 10651 -10636 0
-10653 10652 10637 0
-10653 -10652 -10637 0
10653 -10652 10637 0
10653 10652 -10637 0
-10654 10653 10638 0
-10654 -10653 -10638 0
10654 -10653 10638 0
10654 10653 -10638 0
-10655 10654 10639 0
-10655 -10654 -10639 0
10655 -10654 10639 0
10655 10654 -10639 0
-10656 10655 10640 0
-10656 -10655 -10640 0
10656 -10655 10640 0
10656 10655 -10640 0
-10657 10656 10641 0
-10657 -10656 -10641 0
10657 -10656 10641 0
10657 10656 -10641 0
-10658 10657 10642 0
-10658 -10657 -10642 0
10658 -10657 10642 0
10658 10657 -10642 0
-10659 10658 10643 0
-10659 -10658 -10643 0
10659 -10658 10643 0
10659 10658 -10643 0
-10660 10659 10644 0
-10660 -10659 -10644 0
10660 -10659 10644 0
10660 10659 -10644 0
-10661 10660 10645 0
-10661 -10660 -10645 0
10661 -10660 10645 0
10661 10660 -10645 0
-10662 10661 10646 0
-10662 -10661 -10646 0
10662 -10661 10646 0
10662 10661 -10646 0
-10663 10662 10647 0
-10663 -10662 -10647 0
10663 -10662 10647 0
10663 10662 -10647 0
-10664 10663 10648 0
-10664 -10663 -10648 0
10664 -10663 10648 0
10664 10663 -10648 0
-10665 10664 10649 0
-10665 -10664 -10649 0
10665 -10664 10649 0
10665 10664 -10649 0
-10666 10665 10650 0
-10666 -10665 -10650 0
10666 -10665 10650 0
10666 10665 -10650 0
-10666 0
-10667 10188 0
-10667 47 0
10667 -10188 -47 0
-10668 10190 0
-10668 39 0
10668 -10190 -39 0
-10669 10192 0
-10669 44 0
10669 -10192 -44 0
-10670 10194 0
-10670 42 0
10670 -10194 -42 0
-10671 10196 0
-10671 40 0
10671 -10196 -40 0
-10672 10198 0
-10672 46 0
10672 -10198 -46 0
-10673 10200 0
-10673 44 0
10673 -10200 -44 0
-10674 10202 0
-10674 42 0
10674 -10202 -42 0
-10675 10204 0
-10675 47 0
10675 -10204 -47 0
-10676 10206 0
-10676 39 0
10676 -10206 -39 0
-10677 10208 0
-10677 46 0
10677 -10208 -46 0
-10678 10210 0
-10678 40 0
10678 -10210 -40 0
-10679 10212 0
-10679 95 0
10679 -10212 -95 0
-10680 10214 0
-10680 92 0
10680 -10214 -92 0
-10681 10216 0
-10681 143 0
10681 -10216 -143 0
-10682 10218 0
-10682 140 0
10682 -10218 -140 0
-10683 10220 0
-10683 191 0
10683 -10220 -191 0
-10684 10667 10668 0
-10684 -10667 -10668 0
10684 -10667 10668 0
10684 10667 -10668 0
-10685 10684 10669 0
-10685 -10684 -10669 0
10685 -10684 10669 0
10685 10684 -10669 0
-10686 10685 10670 0
-10686 -10685 -10670 0
10686 -10685 10670 0
10686 10685 -10670 0
-10687 10686 10671 0
-10687 -10686 -10671 0
10687 -10686 10671 0
10687 10686 -10671 0
-10688 10687 10672 0
-10688 -10687 -10672 0
10688 -10687 10672 0
10688 10687 -10672 0
-10689 10688 10673 0
-10689 -10688 -10673 0
10689 -10688 10673 0
10689 10688 -10673 0
-10690 10689 10674 0
-10690 -10689 -10674 0
10690 -10689 10674 0
10690 10689 -10674 0
-10691 10690 10675 0
-10691 -10690 -10675 0
10691 -10690 10675 0
10691 10690 -10675 0
-10692 10691 10676 0
-10692 -10691 -10676 0
10692 -10691 10676 0
10692 10691 -10676 0
-10693 10692 10677 0
-10693 -10692 -10677 0
10693 -10692 10677 0
10693 10692 -10677 0
-10694 10693 10678 0
-10694 -10693 -10678 0
10694 -10693 10678 0
10694 10693 -10678 0
-10695 10694 10679 0
-10695 -10694 -10679 0
10695 -10694 10679 0
10695 10694 -10679 0
-10696 10695 10680 0
-10696 -10695 -10680 0
10696 -10695 10680 0
10696 10695 -10680 0
-10697 10696 10681 0
-10697 -10696 -10681 0
10697 -10696 10681 0
10697 10696 -10681 0
-10698 10697 10682 0
-10698 -10697 -10682 0
10698 -10697 10682 0
10698 10697 -10682 0
-10699 10698 10683 0
-10699 -10698 -10683 0
10699 -10698 10683 0
10699 10698 -10683 0
-10699 0
-10700 10188 0
-10700 48 0
10700 -10188 -48 0
-10701 10190 0
-10701 38 0
10701 -10190 -38 0
-10702 10192 0
-10702 43 0
10702 -10192 -43 0
-10703 10194 0
-10703 43 0
10703 -10194 -43 0
-10704 10196 0
-10704 38 0
10704 -10196 -38 0
-10705 10198 0
-10705 48 0
10705 -10198 -48 0
-10706 10200 0
-10706 48 0
10706 -10200 -48 0
-10707 10202 0
-10707 38 0
10707 -10202 -38 0
-10708 10204 0
-10708 43 0
10708 -10204 -43 0
-10709 10206 0
-10709 43 0
10709 -10206 -43 0
-10710 10208 0
-10710 38 0
10710 -10208 -38 0
-10711 10210 0
-10711 48 0
10711 -10210 -48 0
-10712 10212 0
-10712 96 0
10712 -10212 -96 0
-10713 10214 0
-10713 96 0
10713 -10214 -96 0
-10714 10216 0
-10714 144 0
10714 -10216 -144 0
-10715 10218 0
-10715 144 0
10715 -10218 -144 0
-10716 10220 0
-10716 192 0
10716 -10220 -192 0
-10717 10700 10701 0
-10717 -10700 -10701 0
10717 -10700 10701 0
10717 10700 -10701 0
-10718 10717 10702 0
-10718 -10717 -10702 0
10718 -10717 10702 0
10718 10717 -10702 0
-10719 10718 10703 0
-10719 -10718 -10703 0
10719 -10718 10703 0
10719 10718 -10703 0
-10720 10719 10704 0
-10720 -10719 -10704 0
10720 -10719 10704 0
10720 10719 -10704 0
-10721 10720 10705 0
-10721 -10720 -10705 0
10721 -10720 10705 0
10721 10720 -10705 0
-10722 10721 10706 0
-10722 -10721 -10706 0
10722 -10721 10706 0
10722 10721 -10706 0
-10723 10722 10707 0
-10723 -10722 -10707 0
10723 -10722 10707 0
10723 10722 -10707 0
-10724 10723 10708 0
-10724 -10723 -10708 0
10724 -10723 10708 0
10724 10723 -10708 0
-10725 10724 10709 0
-10725 -10724 -10709 0
10725 -10724 10709 0
10725 10724 -10709 0
-10726 10725 10710 0
-10726 -10725 -10710 0
10726 -10725 10710 0
10726 10725 -10710 0
-10727 10726 10711 0
-10727 -10726 -10711 0
10727 -10726 10711 0
10727 10726 -10711 0
-10728 10727 10712 0
-10728 -10727 -10712 0
10728 -10727 10712 0
10728 10727 -10712 0
-10729 10728 10713 0
-10729 -10728 -10713 0
10729 -10728 10713 0
10729 10728 -10713 0
-10730 10729 10714 0
-10730 -10729 -10714 0
10730 -10729 10714 0
10730 10729 -10714 0
-10731 10730 10715 0
-10731 -10730 -10715 0
10731 -10730 10715 0
10731 10730 -10715 0
-10732 10731 10716 0
-10732 -10731 -10716 0
10732 -10731 10716 0
10732 10731 -10716 0
-10732 0
-10733 7 0
-10733 19 0
10733 -7 -19 0
-10734 10733 0
-10734 33 0
10734 -10733 -33 0
-10735 14 0
-10735 19 0
10735 -14 -19 0
-10736 10735 0
-10736 33 0
10736 -10735 -33 0
-10737 7 0
-10737 24 0
10737 -7 -24 0
-10738 10737 0
-10738 33 0
10738 -10737 -33 0
-10739 14 0
-10739 26 0
10739 -14 -26 0
-10740 10739 0
-10740 33 0
10740 -10739 -33 0
-10741 9 0
-10741 24 0
10741 -9 -24 0
-10742 10741 0
-10742 33 0
10742 -10741 -33 0
-10743 9 0
-10743 26 0
10743 -9 -26 0
-10744 10743 0
-10744 33 0
10744 -10743 -33 0
-10745 55 0
-10745 67 0
10745 -55 -67 0
-10746 10745 0
-10746 81 0
10746 -10745 -81 0
-10747 74 0
-10747 57 0
10747 -74 -57 0
-10748 10747 0
-10748 81 0
10748 -10747 -81 0
-10749 103 0
-10749 115 0
10749 -103 -115 0
-10750 10749 0
-10750 129 0
10750 -10749 -129 0
-10751 122 0
-10751 105 0
10751 -122 -105 0
-10752 10751 0
-10752 129 0
10752 -10751 -129 0
-10753 151 0
-10753 163 0
10753 -151 -163 0
-10754 10753 0
-10754 177 0
10754 -10753 -177 0
-10755 10734 10736 0
-10755 -10734 -10736 0
10755 -10734 10736 0
10755 10734 -10736 0
-10756 10755 10738 0
-10756 -10755 -10738 0
10756 -10755 10738 0
10756 10755 -10738 0
-10757 10756 10740 0
-10757 -10756 -10740 0
10757 -10756 10740 0
10757 10756 -10740 0
-10758 10757 10742 0
-10758 -10757 -10742 0
10758 -10757 10742 0
10758 10757 -10742 0
-10759 10758 10744 0
-10759 -10758 -10744 0
10759 -10758 10744 0
10759 10758 -10744 0
-10760 10759 10744 0
-10760 -10759 -10744 0
10760 -10759 10744 0
10760 10759 -10744 0
-10761 10760 10742 0
-10761 -10760 -10742 0
10761 -10760 10742 0
10761 10760 -10742 0
-10762 10761 10740 0
-10762 -10761 -10740 0
10762 -10761 10740 0
10762 10761 -10740 0
-10763 10762 10738 0
-10763 -10762 -10738 0
10763 -10762 10738 0
10763 10762 -10738 0
-10764 10763 10736 0
-10764 -10763 -10736 0
10764 -10763 10736 0
10764 10763 -10736 0
-10765 10764 10734 0
-10765 -10764 -10734 0
10765 -10764 10734 0
10765 10764 -10734 0
-10766 10765 10746 0
-10766 -10765 -10746 0
10766 -10765 10746 0
10766 10765 -10746 0
-10767 10766 10748 0
-10767 -10766 -10748 0
10767 -10766 10748 0
10767 10766 -10748 0
-10768 10767 10750 0
-10768 -10767 -10750 0
10768 -10767 10750 0
10768 10767 -10750 0
-10769 10768 10752 0
-10769 -10768 -10752 0
10769 -10768 10752 0
10769 10768 -10752 0
-10770 10769 10754 0
-10770 -10769 -10754 0
10770 -10769 10754 0
10770 10769 -10754 0
-10770 0
-10771 10733 0
-10771 34 0
10771 -10733 -34 0
-10772 10735 0
-10772 36 0
10772 -10735 -36 0
-10773 10737 0
-10773 34 0
10773 -10737 -34 0
-10774 10739 0
-10774 36 0
10774 -10739 -36 0
-10775 10741 0
-10775 35 0
10775 -10741 -35 0
-10776 10743 0
-10776 35 0
10776 -10743 -35 0
-10777 10743 0
-10777 37 0
10777 -10743 -37 0
-10778 10741 0
-10778 45 0
10778 -10741 -45 0
-10779 10739 0
-10779 37 0
10779 -10739 -37 0
-10780 10737 0
-10780 45 0
10780 -10737 -45 0
-10781 10735 0
-10781 41 0
10781 -10735 -41 0
-10782 10733 0
-10782 41 0
10782 -10733 -41 0
-10783 10745 0
-10783 82 0
10783 -10745 -82 0
-10784 10747 0
-10784 85 0
10784 -10747 -85 0
-10785 10749 0
-10785 130 0
10785 -10749 -130 0
-10786 10751 0
-10786 133 0
10786 -10751 -133 0
-10787 10753 0
-10787 178 0
10787 -10753 -178 0
-10788 10771 10772 0
-10788 -10771 -10772 0
10788 -10771 10772 0
10788 10771 -10772 0
-10789 10788 10773 0
-10789 -10788 -10773 0
10789 -10788 10773 0
10789 10788 -10773 0
-10790 10789 10774 0
-10790 -10789 -10774 0
10790 -10789 10774 0
10790 10789 -10774 0
-10791 10790 10775 0
-10791 -10790 -10775 0
10791 -10790 10775 0
10791 10790 -10775 0
-10792 10791 10776 0
-10792 -10791 -10776 0
10792 -10791 10776 0
10792 10791 -10776 0
-10793 10792 10777 0
-10793 -10792 -10777 0
10793 -10792 10777 0
10793 10792 -10777 0
-10794 10793 10778 0
-10794 -10793 -10778 0
10794 -10793 10778 0
10794 10793 -10778 0
-10795 10794 10779 0
-10795 -10794 -10779 0
10795 -10794 10779 0
10795 10794 -10779 0
-10796 10795 10780 0
-10796 -10795 -10780 0
10796 -10795 10780 0
10796 10795 -10780 0
-10797 10796 10781 0
-10797 -10796 -10781 0
10797 -10796 10781 0
10797 10796 -10781 0
-10798 10797 10782 0
-10798 -10797 -10782 0
10798 -10797 10782 0
10798 10797 -10782 0
-10799 10798 10783 0
-10799 -10798 -10783 0
10799 -10798 10783 0
10799 10798 -10783 0
-10800 10799 10784 0
-10800 -10799 -10784 0
10800 -10799 10784 0
10800 10799 -10784 0
-10801 10800 10785 0
-10801 -10800 -10785 0
10801 -10800 10785 0
10801 10800 -10785 0
-10802 10801 10786 0
-10802 -10801 -10786 0
10802 -10801 10786 0
10802 10801 -10786 0
-10803 10802 10787 0
-10803 -10802 -10787 0
10803 -10802 10787 0
10803 10802 -10787 0
10803 0
-10804 10733 0
-10804 35 0
10804 -10733 -35 0
-10805 10735 0
-10805 35 0
10805 -10735 -35 0
-10806 10737 0
-10806 36 0
10806 -10737 -36 0
-10807 10739 0
-10807 34 0
10807 -10739 -34 0
-10808 10741 0
-10808 36 0
10808 -10741 -36 0
-10809 10743 0
-10809 34 0
10809 -10743 -34 0
-10810 10743 0
-10810 41 0
10810 -10743 -41 0
-10811 10741 0
-10811 41 0
10811 -10741 -41 0
-10812 10739 0
-10812 45 0
10812 -10739 -45 0
-10813 10737 0
-10813 37 0
10813 -10737 -37 0
-10814 10735 0
-10814 45 0
10814 -10735 -45 0
-10815 10733 0
-10815 37 0
10815 -10733 -37 0
-10816 10745 0
-10816 83 0
10816 -10745 -83 0
-10817 10747 0
-10817 89 0
10817 -10747 -89 0
-10818 10749 0
-10818 131 0
10818 -10749 -131 0
-10819 10751 0
-10819 137 0
10819 -10751 -137 0
-10820 10753 0
-10820 179 0
10820 -10753 -179 0
-10821 10804 10805 0
-10821 -10804 -10805 0
10821 -10804 10805 0
10821 10804 -10805 0
-10822 10821 10806 0
-10822 -10821 -10806 0
10822 -10821 10806 0
10822 10821 -10806 0
-10823 10822 10807 0
-10823 -10822 -10807 0
10823 -10822 10807 0
10823 10822 -10807 0
-10824 10823 10808 0
-10824 -10823 -10808 0
10824 -10823 10808 0
10824 10823 -10808 0
-10825 10824 10809 0
-10825 -10824 -10809 0
10825 -10824 10809 0
10825 10824 -10809 0
-10826 10825 10810 0
-10826 -10825 -10810 0
10826 -10825 10810 0
10826 10825 -10810 0
-10827 10826 10811 0
-10827 -10826 -10811 0
10827 -10826 10811 0
10827 10826 -10811 0
-10828 10827 10812 0
-10828 -10827 -10812 0
10828 -10827 10812 0
10828 10827 -10812 0
-10829 10828 10813 0
-10829 -10828 -10813 0
10829 -10828 10813 0
10829 10828 -10813 0
-10830 10829 10814 0
-10830 -10829 -10814 0
10830 -10829 10814 0
10830 10829 -10814 0
-10831 10830 10815 0
-10831 -10830 -10815 0
10831 -10830 10815 0
10831 10830 -10815 0
-10832 10831 10816 0
-10832 -10831 -10816 0
10832 -10831 10816 0
10832 10831 -10816 0
-10833 10832 10817 0
-10833 -10832 -10817 0
10833 -10832 10817 0
10833 10832 -10817 0
-10834 10833 10818 0
-10834 -10833 -10818 0
10834 -10833 10818 0
10834 10833 -10818 0
-10835 10834 10819 0
-10835 -10834 -10819 0
10835 -10834 10819 0
10835 10834 -10819 0
-10836 10835 10820 0
-10836 -10835 -10820 0
10836 -10835 10820 0
10836 10835 -10820 0
-10836 0
-10837 10733 0
-10837 36 0
10837 -10733 -36 0
-10838 10735 0
-10838 34 0
10838 -10735 -34 0
-10839 10737 0
-10839 35 0
10839 -10737 -35 0
-10840 10739 0
-10840 35 0
10840 -10739 -35 0
-10841 10741 0
-10841 34 0
10841 -10741 -34 0
-10842 10743 0
-10842 36 0
10842 -10743 -36 0
-10843 10743 0
-10843 45 0
10843 -10743 -45 0
-10844 10741 0
-10844 37 0
10844 -10741 -37 0
-10845 10739 0
-10845 41 0
10845 -10739 -41 0
-10846 10737 0
-10846 41 0
10846 -10737 -41 0
-10847 10735 0
-10847 37 0
10847 -10735 -37 0
-10848 10733 0
-10848 45 0
10848 -10733 -45 0
-10849 10745 0
-10849 84 0
10849 -10745 -84 0
-10850 10747 0
-10850 93 0
10850 -10747 -93 0
-10851 10749 0
-10851 132 0
10851 -10749 -132 0
-10852 10751 0
-10852 141 0
10852 -10751 -141 0
-10853 10753 0
-10853 180 0
10853 -10753 -180 0
-10854 10837 10838 0
-10854 -10837 -10838 0
10854 -10837 10838 0
10854 10837 -10838 0
-10855 10854 10839 0
-10855 -10854 -10839 0
10855 -10854 10839 0
10855 10854 -10839 0
-10856 10855 10840 0
-10856 -10855 -10840 0
10856 -10855 10840 0
10856 10855 -10840 0
-10857 10856 10841 0
-10857 -10856 -10841 0
10857 -10856 10841 0
10857 10856 -10841 0
-10858 10857 10842 0
-10858 -10857 -10842 0
10858 -10857 10842 0
10858 10857 -10842 0
-10859 10858 10843 0
-10859 -10858 -10843 0
10859 -10858 10843 0
10859 10858 -10843 0
-10860 10859 10844 0
-10860 -10859 -10844 0
10860 -10859 10844 0
10860 10859 -10844 0
-10861 10860 10845 0
-10861 -10860 -10845 0
10861 -10860 10845 0
10861 10860 -10845 0
-10862 10861 10846 0
-10862 -10861 -10846 0
10862 -10861 10846 0
10862 10861 -10846 0
-10863 10862 10847 0
-10863 -10862 -10847 0
10863 -10862 10847 0
10863 10862 -10847 0
-10864 10863 10848 0
-10864 -10863 -10848 0
10864 -10863 10848 0
10864 10863 -10848 0
-10865 10864 10849 0
-10865 -10864 -10849 0
10865 -10864 10849 0
10865 10864 -10849 0
-10866 10865 10850 0
-10866 -10865 -10850 0
10866 -10865 10850 0
10866 10865 -10850 0
-10867 10866 10851 0
-10867 -10866 -10851 0
10867 -10866 10851 0
10867 10866 -10851 0
-10868 10867 10852 0
-10868 -10867 -10852 0
10868 -10867 10852 0
10868 10867 -10852 0
-10869 10868 10853 0
-10869 -10868 -10853 0
10869 -10868 10853 0
10869 10868 -10853 0
-10869 0
-10870 10733 0
-10870 38 0
10870 -10733 -38 0
-10871 10735 0
-10871 48 0
10871 -10735 -48 0
-10872 10737 0
-10872 38 0
10872 -10737 -38 0
-10873 10739 0
-10873 48 0
10873 -10739 -48 0
-10874 10741 0
-10874 43 0
10874 -10741 -43 0
-10875 10743 0
-10875 43 0
10875 -10743 -43 0
-10876 10743 0
-10876 38 0
10876 -10743 -38 0
-10877 10741 0
-10877 48 0
10877 -10741 -48 0
-10878 10739 0
-10878 38 0
10878 -10739 -38 0
-10879 10737 0
-10879 48 0
10879 -10737 -48 0
-10880 10735 0
-10880 43 0
10880 -10735 -43 0
-10881 10733 0
-10881 43 0
10881 -10733 -43 0
-10882 10745 0
-10882 86 0
10882 -10745 -86 0
-10883 10747 0
-10883 86 0
10883 -10747 -86 0
-10884 10749 0
-10884 134 0
10884 -10749 -134 0
-10885 10751 0
-10885 134 0
10885 -10751 -134 0
-10886 10753 0
-10886 182 0
10886 -10753 -182 0
-10887 10870 10871 0
-10887 -10870 -10871 0
10887 -10870 10871 0
10887 10870 -10871 0
-10888 10887 10872 0
-10888 -10887 -10872 0
10888 -10887 10872 0
10888 10887 -10872 0
-10889 10888 10873 0
-10889 -10888 -10873 0
10889 -10888 10873 0
10889 10888 -10873 0
-10890 10889 10874 0
-10890 -10889 -10874 0
10890 -10889 10874 0
10890 10889 -10874 0
-10891 10890 10875 0
-10891 -10890 -10875 0
10891 -10890 10875 0
10891 10890 -10875 0
-10892 10891 10876 0
-10892 -10891 -10876 0
10892 -10891 10876 0
10892 10891 -10876 0
-10893 10892 10877 0
-10893 -10892 -10877 0
10893 -10892 10877 0
10893 10892 -10877 0
-10894 10893 10878 0
-10894 -10893 -10878 0
10894 -10893 10878 0
10894 10893 -10878 0
-10895 10894 10879 0
-10895 -10894 -10879 0
10895 -10894 10879 0
10895 10894 -10879 0
-10896 10895 10880 0
-10896 -10895 -10880 0
10896 -10895 10880 0
10896 10895 -10880 0
-10897 10896 10881 0
-10897 -10896 -10881 0
10897 -10896 10881 0
10897 10896 -10881 0
-10898 10897 10882 0
-10898 -10897 -10882 0
10898 -10897 10882 0
10898 10897 -10882 0
-10899 10898 10883 0
-10899 -10898 -10883 0
10899 -10898 10883 0
10899 10898 -10883 0
-10900 10899 10884 0
-10900 -10899 -10884 0
10900 -10899 10884 0
10900 10899 -10884 0
-10901 10900 10885 0
-10901 -10900 -10885 0
10901 -10900 10885 0
10901 10900 -10885 0
-10902 10901 10886 0
-10902 -10901 -10886 0
10902 -10901 10886 0
10902 10901 -10886 0
-10902 0
-10903 10733 0
-10903 39 0
10903 -10733 -39 0
-10904 10735 0
-10904 47 0
10904 -10735 -47 0
-10905 10737 0
-10905 40 0
10905 -10737 -40 0
-10906 10739 0
-10906 46 0
10906 -10739 -46 0
-10907 10741 0
-10907 44 0
10907 -10741 -44 0
-10908 10743 0
-10908 42 0
10908 -10743 -42 0
-10909 10745 0
-10909 87 0
10909 -10745 -87 0
-10910 10747 0
-10910 90 0
10910 -10747 -90 0
-10911 10749 0
-10911 135 0
10911 -10749 -135 0
-10912 10751 0
-10912 138 0
10912 -10751 -138 0
-10913 10753 0
-10913 183 0
10913 -10753 -183 0
-10914 10903 10904 0
-10914 -10903 -10904 0
10914 -10903 10904 0
10914 10903 -10904 0
-10915 10914 10905 0
-10915 -10914 -10905 0
10915 -10914 10905 0
10915 10914 -10905 0
-10916 10915 10906 0
-10916 -10915 -10906 0
10916 -10915 10906 0
10916 10915 -10906 0
-10917 10916 10907 0
-10917 -10916 -10907 0
10917 -10916 10907 0
10917 10916 -10907 0
-10918 10917 10908 0
-10918 -10917 -10908 0
10918 -10917 10908 0
10918 10917 -10908 0
-10919 10918 10908 0
-10919 -10918 -10908 0
10919 -10918 10908 0
10919 10918 -10908 0
-10920 10919 10907 0
-10920 -10919 -10907 0
10920 -10919 10907 0
10920 10919 -10907 0
-10921 10920 10906 0
-10921 -10920 -10906 0
10921 -10920 10906 0
10921 10920 -10906 0
-10922 10921 10905 0
-10922 -10921 -10905 0
10922 -10921 10905 0
10922 10921 -10905 0
-10923 10922 10904 0
-10923 -10922 -10904 0
10923 -10922 10904 0
10923 10922 -10904 0
-10924 10923 10903 0
-10924 -10923 -10903 0
10924 -10923 10903 0
10924 10923 -10903 0
-10925 10924 10909 0
-10925 -10924 -10909 0
10925 -10924 10909 0
10925 10924 -10909 0
-10926 10925 10910 0
-10926 -10925 -10910 0
10926 -10925 10910 0
10926 10925 -10910 0
-10927 10926 10911 0
-10927 -10926 -10911 0
10927 -10926 10911 0
10927 10926 -10911 0
-10928 10927 10912 0
-10928 -10927 -10912 0
10928 -10927 10912 0
10928 10927 -10912 0
-10929 10928 10913 0
-10929 -10928 -10913 0
10929 -10928 10913 0
10929 10928 -10913 0
-10929 0
-10930 10733 0
-10930 40 0
10930 -10733 -40 0
-10931 10735 0
-10931 46 0
10931 -10735 -46 0
-10932 10737 0
-10932 39 0
10932 -10737 -39 0
-10933 10739 0
-10933 47 0
10933 -10739 -47 0
-10934 10741 0
-10934 42 0
10934 -10741 -42 0
-10935 10743 0
-10935 44 0
10935 -10743 -44 0
-10936 10743 0
-10936 46 0
10936 -10743 -46 0
-10937 10741 0
-10937 40 0
10937 -10741 -40 0
-10938 10739 0
-10938 42 0
10938 -10739 -42 0
-10939 10737 0
-10939 44 0
10939 -10737 -44 0
-10940 10735 0
-10940 39 0
10940 -10735 -39 0
-10941 10733 0
-10941 47 0
10941 -10733 -47 0
-10942 10745 0
-10942 88 0
10942 -10745 -88 0
-10943 10747 0
-10943 94 0
10943 -10747 -94 0
-10944 10749 0
-10944 136 0
10944 -10749 -136 0
-10945 10751 0
-10945 142 0
10945 -10751 -142 0
-10946 10753 0
-10946 184 0
10946 -10753 -184 0
-10947 10930 10931 0
-10947 -10930 -10931 0
10947 -10930 10931 0
10947 10930 -10931 0
-10948 10947 10932 0
-10948 -10947 -10932 0
10948 -10947 10932 0
10948 10947 -10932 0
-10949 10948 10933 0
-10949 -10948 -10933 0
10949 -10948 10933 0
10949 10948 -10933 0
-10950 10949 10934 0
-10950 -10949 -10934 0
10950 -10949 10934 0
10950 10949 -10934 0
-10951 10950 10935 0
-10951 -10950 -10935 0
10951 -10950 10935 0
10951 10950 -10935 0
-10952 10951 10936 0
-10952 -10951 -10936 0
10952 -10951 10936 0
10952 10951 -10936 0
-10953 10952 10937 0
-10953 -10952 -10937 0
10953 -10952 10937 0
10953 10952 -10937 0
-10954 10953 10938 0
-10954 -10953 -10938 0
10954 -10953 10938 0
10954 10953 -10938 0
-10955 10954 10939 0
-10955 -10954 -10939 0
10955 -10954 10939 0
10955 10954 -10939 0
-10956 10955 10940 0
-10956 -10955 -10940 0
10956 -10955 10940 0
10956 10955 -10940 0
-10957 10956 10941 0
-10957 -10956 -10941 0
10957 -10956 10941 0
10957 10956 -10941 0
-10958 10957 10942 0
-10958 -10957 -10942 0
10958 -10957 10942 0
10958 10957 -10942 0
-10959 10958 10943 0
-10959 -10958 -10943 0
10959 -10958 10943 0
10959 10958 -10943 0
-10960 10959 10944 0
-10960 -10959 -10944 0
10960 -10959 10944 0
10960 10959 -10944 0
-10961 10960 10945 0
-10961 -10960 -10945 0
10961 -10960 10945 0
10961 10960 -10945 0
-10962 10961 10946 0
-10962 -10961 -10946 0
10962 -10961 10946 0
10962 10961 -10946 0
-10962 0
-10963 10733 0
-10963 42 0
10963 -10733 -42 0
-10964 10735 0
-10964 44 0
10964 -10735 -44 0
-10965 10737 0
-10965 46 0
10965 -10737 -46 0
-10966 10739 0
-10966 40 0
10966 -10739 -40 0
-10967 10741 0
-10967 47 0
10967 -10741 -47 0
-10968 10743 0
-10968 39 0
10968 -10743 -39 0
-10969 10745 0
-10969 90 0
10969 -10745 -90 0
-10970 10747 0
-10970 87 0
10970 -10747 -87 0
-10971 10749 0
-10971 138 0
10971 -10749 -138 0
-10972 10751 0
-10972 135 0
10972 -10751 -135 0
-10973 10753 0
-10973 186 0
10973 -10753 -186 0
-10974 10963 10964 0
-10974 -10963 -10964 0
10974 -10963 10964 0
10974 10963 -10964 0
-10975 10974 10965 0
-10975 -10974 -10965 0
10975 -10974 10965 0
10975 10974 -10965 0
-10976 10975 10966 0
-10976 -10975 -10966 0
10976 -10975 10966 0
10976 10975 -10966 0
-10977 10976 10967 0
-10977 -10976 -10967 0
10977 -10976 10967 0
10977 10976 -10967 0
-10978 10977 10968 0
-10978 -10977 -10968 0
10978 -10977 10968 0
10978 10977 -10968 0
-10979 10978 10968 0
-10979 -10978 -10968 0
10979 -10978 10968 0
10979 10978 -10968 0
-10980 10979 10967 0
-10980 -10979 -10967 0
10980 -10979 10967 0
10980 10979 -10967 0
-10981 10980 10966 0
-10981 -10980 -10966 0
10981 -10980 10966 0
10981 10980 -10966 0
-10982 10981 10965 0
-10982 -10981 -10965 0
10982 -10981 10965 0
10982 10981 -10965 0
-10983 10982 10964 0
-10983 -10982 -10964 0
10983 -10982 10964 0
10983 10982 -10964 0
-10984 10983 10963 0
-10984 -10983 -10963 0
10984 -10983 10963 0
10984 10983 -10963 0
-10985 10984 10969 0
-10985 -10984 -10969 0
10985 -10984 10969 0
10985 10984 -10969 0
-10986 10985 10970 0
-10986 -10985 -10970 0
10986 -10985 10970 0
10986 10985 -10970 0
-10987 10986 10971 0
-10987 -10986 -10971 0
10987 -10986 10971 0
10987 10986 -10971 0
-10988 10987 10972 0
-10988 -10987 -10972 0
10988 -10987 10972 0
10988 10987 -10972 0
-10989 10988 10973 0
-10989 -10988 -10973 0
10989 -10988 10973 0
10989 10988 -10973 0
-10989 0
-10990 10733 0
-10990 44 0
10990 -10733 -44 0
-10991 10735 0
-10991 42 0
10991 -10735 -42 0
-10992 10737 0
-10992 47 0
10992 -10737 -47 0
-10993 10739 0
-10993 39 0
10993 -10739 -39 0
-10994 10741 0
-10994 46 0
10994 -10741 -46 0
-10995 10743 0
-10995 40 0
10995 -10743 -40 0
-10996 10743 0
-10996 47 0
10996 -10743 -47 0
-10997 10741 0
-10997 39 0
10997 -10741 -39 0
-10998 10739 0
-10998 44 0
10998 -10739 -44 0
-10999 10737 0
-10999 42 0
10999 -10737 -42 0
-11000 10735 0
-11000 40 0
11000 -10735 -40 0
-11001 10733 0
-11001 46 0
11001 -10733 -46 0
-11002 10745 0
-11002 92 0
11002 -10745 -92 0
-11003 10747 0
-11003 95 0
11003 -10747 -95 0
-11004 10749 0
-11004 140 0
11004 -10749 -140 0
-11005 10751 0
-11005 143 0
11005 -10751 -143 0
-11006 10753 0
-11006 188 0
11006 -10753 -188 0
-11007 10990 10991 0
-11007 -10990 -10991 0
11007 -10990 10991 0
11007 10990 -10991 0
-11008 11007 10992 0
-11008 -11007 -10992 0
11008 -11007 10992 0
11008 11007 -10992 0
-11009 11008 10993 0
-11009 -11008 -10993 0
11009 -11008 10993 0
11009 11008 -10993 0
-11010 11009 10994 0
-11010 -11009 -10994 0
11010 -11009 10994 0
11010 11009 -10994 0
-11011 11010 10995 0
-11011 -11010 -10995 0
11011 -11010 10995 0
11011 11010 -10995 0
-11012 11011 10996 0
-11012 -11011 -10996 0
11012 -11011 10996 0
11012 11011 -10996 0
-11013 11012 10997 0
-11013 -11012 -10997 0
11013 -11012 10997 0
11013 11012 -10997 0
-11014 11013 10998 0
-11014 -11013 -10998 0
11014 -11013 10998 0
11014 11013 -10998 0
-11015 11014 10999 0
-11015 -11014 -10999 0
11015 -11014 10999 0
11015 11014 -10999 0
-11016 11015 11000 0
-11016 -11015 -11000 0
11016 -11015 11000 0
11016 11015 -11000 0
-11017 11016 11001 0
-11017 -11016 -11001 0
11017 -11016 11001 0
11017 11016 -11001 0
-11018 11017 11002 0
-11018 -11017 -11002 0
11018 -11017 11002 0
11018 11017 -11002 0
-11019 11018 11003 0
-11019 -11018 -11003 0
11019 -11018 11003 0
11019 11018 -11003 0
-11020 11019 11004 0
-11020 -11019 -11004 0
11020 -11019 11004 0
11020 11019 -11004 0
-11021 11020 11005 0
-11021 -11020 -11005 0
11021 -11020 11005 0
11021 11020 -11005 0
-11022 11021 11006 0
-11022 -11021 -11006 0
11022 -11021 11006 0
11022 11021 -11006 0
-11022 0
-11023 10733 0
-11023 48 0
11023 -10733 -48 0
-11024 10735 0
-11024 38 0
11024 -10735 -38 0
-11025 10737 0
-11025 43 0
11025 -10737 -43 0
-11026 10739 0
-11026 43 0
11026 -10739 -43 0
-11027 10741 0
-11027 38 0
11027 -10741 -38 0
-11028 10743 0
-11028 48 0
11028 -10743 -48 0
-11029 10745 0
-11029 96 0
11029 -10745 -96 0
-11030 10747 0
-11030 96 0
11030 -10747 -96 0
-11031 10749 0
-11031 144 0
11031 -10749 -144 0
-11032 10751 0
-11032 144 0
11032 -10751 -144 0
-11033 10753 0
-11033 192 0
11033 -10753 -192 0
-11034 11023 11024 0
-11034 -11023 -11024 0
11034 -11023 11024 0
11034 11023 -11024 0
-11035 11034 11025 0
-11035 -11034 -11025 0
11035 -11034 11025 0
11035 11034 -11025 0
-11036 11035 11026 0
-11036 -11035 -11026 0
11036 -11035 11026 0
11036 11035 -11026 0
-11037 11036 11027 0
-11037 -11036 -11027 0
11037 -11036 11027 0
11037 11036 -11027 0
-11038 11037 11028 0
-11038 -11037 -11028 0
11038 -11037 11028 0
11038 11037 -11028 0
-11039 11038 11028 0
-11039 -11038 -11028 0
11039 -11038 11028 0
11039 11038 -11028 0
-11040 11039 11027 0
-11040 -11039 -11027 0
11040 -11039 11027 0
11040 11039 -11027 0
-11041 11040 11026 0
-11041 -11040 -11026 0
11041 -11040 11026 0
11041 11040 -11026 0
-11042 11041 11025 0
-11042 -11041 -11025 0
11042 -11041 11025 0
11042 11041 -11025 0
-11043 11042 11024 0
-11043 -11042 -11024 0
11043 -11042 11024 0
11043 11042 -11024 0
-11044 11043 11023 0
-11044 -11043 -11023 0
11044 -11043 11023 0
11044 11043 -11023 0
-11045 11044 11029 0
-11045 -11044 -11029 0
11045 -11044 11029 0
11045 11044 -11029 0
-11046 11045 11030 0
-11046 -11045 -11030 0
11046 -11045 11030 0
11046 11045 -11030 0
-11047 11046 11031 0
-11047 -11046 -11031 0
11047 -11046 11031 0
11047 11046 -11031 0
-11048 11047 11032 0
-11048 -11047 -11032 0
11048 -11047 11032 0
11048 11047 -11032 0
-11049 11048 11033 0
-11049 -11048 -11033 0
11049 -11048 11033 0
11049 11048 -11033 0
-11049 0
-11050 7 0
-11050 26 0
11050 -7 -26 0
-11051 11050 0
-11051 33 0
11051 -11050 -33 0
-11052 14 0
-11052 24 0
11052 -14 -24 0
-11053 11052 0
-11053 33 0
11053 -11052 -33 0
-11054 9 0
-11054 19 0
11054 -9 -19 0
-11055 11054 0
-11055 33 0
11055 -11054 -33 0
-11056 55 0
-11056 74 0
11056 -55 -74 0
-11057 11056 0
-11057 81 0
11057 -11056 -81 0
-11058 103 0
-11058 122 0
11058 -103 -122 0
-11059 11058 0
-11059 129 0
11059 -11058 -129 0
-11060 151 0
-11060 170 0
11060 -151 -170 0
-11061 11060 0
-11061 177 0
11061 -11060 -177 0
-11062 11051 11053 0
-11062 -11051 -11053 0
11062 -11051 11053 0
11062 11051 -11053 0
-11063 11062 11051 0
-11063 -11062 -11051 0
11063 -11062 11051 0
11063 11062 -11051 0
-11064 11063 11053 0
-11064 -11063 -11053 0
11064 -11063 11053 0
11064 11063 -11053 0
-11065 11064 11055 0
-11065 -11064 -11055 0
11065 -11064 11055 0
11065 11064 -11055 0
-11066 11065 11055 0
-11066 -11065 -11055 0
11066 -11065 11055 0
11066 11065 -11055 0
-11067 11066 11051 0
-11067 -11066 -11051 0
11067 -11066 11051 0
11067 11066 -11051 0
-11068 11067 11053 0
-11068 -11067 -11053 0
11068 -11067 11053 0
11068 11067 -11053 0
-11069 11068 11051 0
-11069 -11068 -11051 0
11069 -11068 11051 0
11069 11068 -11051 0
-11070 11069 11053 0
-11070 -11069 -11053 0
11070 -11069 11053 0
11070 11069 -11053 0
-11071 11070 11055 0
-11071 -11070 -11055 0
11071 -11070 11055 0
11071 11070 -11055 0
-11072 11071 11055 0
-11072 -11071 -11055 0
11072 -11071 11055 0
11072 11071 -11055 0
-11073 11072 11057 0
-11073 -11072 -11057 0
11073 -11072 11057 0
11073 11072 -11057 0
-11074 11073 11057 0
-11074 -11073 -11057 0
11074 -11073 11057 0
11074 11073 -11057 0
-11075 11074 11059 0
-11075 -11074 -11059 0
11075 -11074 11059 0
11075 11074 -11059 0
-11076 11075 11059 0
-11076 -11075 -11059 0
11076 -11075 11059 0
11076 11075 -11059 0
-11077 11076 11061 0
-11077 -11076 -11061 0
11077 -11076 11061 0
11077 11076 -11061 0
-11077 0
-11078 11050 0
-11078 34 0
11078 -11050 -34 0
-11079 11052 0
-11079 36 0
11079 -11052 -36 0
-11080 11054 0
-11080 35 0
11080 -11054 -35 0
-11081 11050 0
-11081 37 0
11081 -11050 -37 0
-11082 11052 0
-11082 45 0
11082 -11052 -45 0
-11083 11054 0
-11083 41 0
11083 -11054 -41 0
-11084 11056 0
-11084 82 0
11084 -11056 -82 0
-11085 11056 0
-11085 85 0
11085 -11056 -85 0
-11086 11058 0
-11086 130 0
11086 -11058 -130 0
-11087 11058 0
-11087 133 0
11087 -11058 -133 0
-11088 11060 0
-11088 178 0
11088 -11060 -178 0
-11089 11078 11079 0
-11089 -11078 -11079 0
11089 -11078 11079 0
11089 11078 -11079 0
-11090 11089 11078 0
-11090 -11089 -11078 0
11090 -11089 11078 0
11090 11089 -11078 0
-11091 11090 11079 0
-11091 -11090 -11079 0
11091 -11090 11079 0
11091 11090 -11079 0
-11092 11091 11080 0
-11092 -11091 -11080 0
11092 -11091 11080 0
11092 11091 -11080 0
-11093 11092 11080 0
-11093 -11092 -11080 0
11093 -11092 11080 0
11093 11092 -11080 0
-11094 11093 11081 0
-11094 -11093 -11081 0
11094 -11093 11081 0
11094 11093 -11081 0
-11095 11094 11082 0
-11095 -11094 -11082 0
11095 -11094 11082 0
11095 11094 -11082 0
-11096 11095 11081 0
-11096 -11095 -11081 0
11096 -11095 11081 0
11096 11095 -11081 0
-11097 11096 11082 0
-11097 -11096 -11082 0
11097 -11096 11082 0
11097 11096 -11082 0
-11098 11097 11083 0
-11098 -11097 -11083 0
11098 -11097 11083 0
11098 11097 -11083 0
-11099 11098 11083 0
-11099 -11098 -11083 0
11099 -11098 11083 0
11099 11098 -11083 0
-11100 11099 11084 0
-11100 -11099 -11084 0
11100 -11099 11084 0
11100 11099 -11084 0
-11101 11100 11085 0
-11101 -11100 -11085 0
11101 -11100 11085 0
11101 11100 -11085 0
-11102 11101 11086 0
-11102 -11101 -11086 0
11102 -11101 11086 0
11102 11101 -11086 0
-11103 11102 11087 0
-11103 -11102 -11087 0
11103 -11102 11087 0
11103 11102 -11087 0
-11104 11103 11088 0
-11104 -11103 -11088 0
11104 -11103 11088 0
11104 11103 -11088 0
-11104 0
-11105 11050 0
-11105 35 0
11105 -11050 -35 0
-11106 11052 0
-11106 35 0
11106 -11052 -35 0
-11107 11050 0
-11107 36 0
11107 -11050 -36 0
-11108 11052 0
-11108 34 0
11108 -11052 -34 0
-11109 11054 0
-11109 36 0
11109 -11054 -36 0
-11110 11054 0
-11110 34 0
11110 -11054 -34 0
-11111 11050 0
-11111 41 0
11111 -11050 -41 0
-11112 11052 0
-11112 41 0
11112 -11052 -41 0
-11113 11050 0
-11113 45 0
11113 -11050 -45 0
-11114 11052 0
-11114 37 0
11114 -11052 -37 0
-11115 11054 0
-11115 45 0
11115 -11054 -45 0
-11116 11054 0
-11116 37 0
11116 -11054 -37 0
-11117 11056 0
-11117 83 0
11117 -11056 -83 0
-11118 11056 0
-11118 89 0
11118 -11056 -89 0
-11119 11058 0
-11119 131 0
11119 -11058 -131 0
-11120 11058 0
-11120 137 0
11120 -11058 -137 0
-11121 11060 0
-11121 179 0
11121 -11060 -179 0
-11122 11105 11106 0
-11122 -11105 -11106 0
11122 -11105 11106 0
11122 11105 -11106 0
-11123 11122 11107 0
-11123 -11122 -11107 0
11123 -11122 11107 0
11123 11122 -11107 0
-11124 11123 11108 0
-11124 -11123 -11108 0
11124 -11123 11108 0
11124 11123 -11108 0
-11125 11124 11109 0
-11125 -11124 -11109 0
11125 -11124 11109 0
11125 11124 -11109 0
-11126 11125 11110 0
-11126 -11125 -11110 0
11126 -11125 11110 0
11126 11125 -11110 0
-11127 11126 11111 0
-11127 -11126 -11111 0
11127 -11126 11111 0
11127 11126 -11111 0
-11128 11127 11112 0
-11128 -11127 -11112 0
11128 -11127 11112 0
11128 11127 -11112 0
-11129 11128 11113 0
-11129 -11128 -11113 0
11129 -11128 11113 0
11129 11128 -11113 0
-11130 11129 11114 0
-11130 -11129 -11114 0
11130 -11129 11114 0
11130 11129 -11114 0
-11131 11130 11115 0
-11131 -11130 -11115 0
11131 -11130 11115 0
11131 11130 -11115 0
-11132 11131 11116 0
-11132 -11131 -11116 0
11132 -11131 11116 0
11132 11131 -11116 0
-11133 11132 11117 0
-11133 -11132 -11117 0
11133 -11132 11117 0
11133 11132 -11117 0
-11134 11133 11118 0
-11134 -11133 -11118 0
11134 -11133 11118 0
11134 11133 -11118 0
-11135 11134 11119 0
-11135 -11134 -11119 0
11135 -11134 11119 0
11135 11134 -11119 0
-11136 11135 11120 0
-11136 -11135 -11120 0
11136 -11135 11120 0
11136 11135 -11120 0
-11137 11136 11121 0
-11137 -11136 -11121 0
11137 -11136 11121 0
11137 11136 -11121 0
-11137 0
-11138 11050 0
-11138 38 0
11138 -11050 -38 0
-11139 11052 0
-11139 48 0
11139 -11052 -48 0
-11140 11054 0
-11140 43 0
11140 -11054 -43 0
-11141 11056 0
-11141 86 0
11141 -11056 -86 0
-11142 11058 0
-11142 134 0
11142 -11058 -134 0
-11143 11060 0
-11143 182 0
11143 -11060 -182 0
-11144 11138 11139 0
-11144 -11138 -11139 0
11144 -11138 11139 0
11144 11138 -11139 0
-11145 11144 11138 0
-11145 -11144 -11138 0
11145 -11144 11138 0
11145 11144 -11138 0
-11146 11145 11139 0
-11146 -11145 -11139 0
11146 -11145 11139 0
11146 11145 -11139 0
-11147 11146 11140 0
-11147 -11146 -11140 0
11147 -11146 11140 0
11147 11146 -11140 0
-11148 11147 11140 0
-11148 -11147 -11140 0
11148 -11147 11140 0
11148 11147 -11140 0
-11149 11148 11138 0
-11149 -11148 -11138 0
11149 -11148 11138 0
11149 11148 -11138 0
-11150 11149 11139 0
-11150 -11149 -11139 0
11150 -11149 11139 0
11150 11149 -11139 0
-11151 11150 11138 0
-11151 -11150 -11138 0
11151 -11150 11138 0
11151 11150 -11138 0
-11152 11151 11139 0
-11152 -11151 -11139 0
11152 -11151 11139 0
11152 11151 -11139 0
-11153 11152 11140 0
-11153 -11152 -11140 0
11153 -11152 11140 0
11153 11152 -11140 0
-11154 11153 11140 0
-11154 -11153 -11140 0
11154 -11153 11140 0
11154 11153 -11140 0
-11155 11154 11141 0
-11155 -11154 -11141 0
11155 -11154 11141 0
11155 11154 -11141 0
-11156 11155 11141 0
-11156 -11155 -11141 0
11156 -11155 11141 0
11156 11155 -11141 0
-11157 11156 11142 0
-11157 -11156 -11142 0
11157 -11156 11142 0
11157 11156 -11142 0
-11158 11157 11142 0
-11158 -11157 -11142 0
11158 -11157 11142 0
11158 11157 -11142 0
-11159 11158 11143 0
-11159 -11158 -11143 0
11159 -11158 11143 0
11159 11158 -11143 0
-11159 0
-11160 11050 0
-11160 39 0
11160 -11050 -39 0
-11161 11052 0
-11161 47 0
11161 -11052 -47 0
-11162 11050 0
-11162 40 0
11162 -11050 -40 0
-11163 11052 0
-11163 46 0
11163 -11052 -46 0
-11164 11054 0
-11164 44 0
11164 -11054 -44 0
-11165 11054 0
-11165 42 0
11165 -11054 -42 0
-11166 11050 0
-11166 42 0
11166 -11050 -42 0
-11167 11052 0
-11167 44 0
11167 -11052 -44 0
-11168 11050 0
-11168 46 0
11168 -11050 -46 0
-11169 11052 0
-11169 40 0
11169 -11052 -40 0
-11170 11054 0
-11170 47 0
11170 -11054 -47 0
-11171 11054 0
-11171 39 0
11171 -11054 -39 0
-11172 11056 0
-11172 87 0
11172 -11056 -87 0
-11173 11056 0
-11173 90 0
11173 -11056 -90 0
-11174 11058 0
-11174 135 0
11174 -11058 -135 0
-11175 11058 0
-11175 138 0
11175 -11058 -138 0
-11176 11060 0
-11176 183 0
11176 -11060 -183 0
-11177 11160 11161 0
-11177 -11160 -11161 0
11177 -11160 11161 0
11177 11160 -11161 0
-11178 11177 11162 0
-11178 -11177 -11162 0
11178 -11177 11162 0
11178 11177 -11162 0
-11179 11178 11163 0
-11179 -11178 -11163 0
11179 -11178 11163 0
11179 11178 -11163 0
-11180 11179 11164 0
-11180 -11179 -11164 0
11180 -11179 11164 0
11180 11179 -11164 0
-11181 11180 11165 0
-11181 -11180 -11165 0
11181 -11180 11165 0
11181 11180 -11165 0
-11182 11181 11166 0
-11182 -11181 -11166 0
11182 -11181 11166 0
11182 11181 -11166 0
-11183 11182 11167 0
-11183 -11182 -11167 0
11183 -11182 11167 0
11183 11182 -11167 0
-11184 11183 11168 0
-11184 -11183 -11168 0
11184 -11183 11168 0
11184 11183 -11168 0
-11185 11184 11169 0
-11185 -11184 -11169 0
11185 -11184 11169 0
11185 11184 -11169 0
-11186 11185 11170 0
-11186 -11185 -11170 0
11186 -11185 11170 0
11186 11185 -11170 0
-11187 11186 11171 0
-11187 -11186 -11171 0
11187 -11186 11171 0
11187 11186 -11171 0
-11188 11187 11172 0
-11188 -11187 -11172 0
11188 -11187 11172 0
11188 11187 -11172 0
-11189 11188 11173 0
-11189 -11188 -11173 0
11189 -11188 11173 0
11189 11188 -11173 0
-11190 11189 11174 0
-11190 -11189 -11174 0
11190 -11189 11174 0
11190 11189 -11174 0
-11191 11190 11175 0
-11191 -11190 -11175 0
11191 -11190 11175 0
11191 11190 -11175 0
-11192 11191 11176 0
-11192 -11191 -11176 0
11192 -11191 11176 0
11192 11191 -11176 0
-11192 0
-11193 11050 0
-11193 43 0
11193 -11050 -43 0
-11194 11052 0
-11194 43 0
11194 -11052 -43 0
-11195 11050 0
-11195 48 0
11195 -11050 -48 0
-11196 11052 0
-11196 38 0
11196 -11052 -38 0
-11197 11054 0
-11197 48 0
11197 -11054 -48 0
-11198 11054 0
-11198 38 0
11198 -11054 -38 0
-11199 11056 0
-11199 91 0
11199 -11056 -91 0
-11200 11058 0
-11200 139 0
11200 -11058 -139 0
-11201 11060 0
-11201 187 0
11201 -11060 -187 0
-11202 11193 11194 0
-11202 -11193 -11194 0
11202 -11193 11194 0
11202 11193 -11194 0
-11203 11202 11195 0
-11203 -11202 -11195 0
11203 -11202 11195 0
11203 11202 -11195 0
-11204 11203 11196 0
-11204 -11203 -11196 0
11204 -11203 11196 0
11204 11203 -11196 0
-11205 11204 11197 0
-11205 -11204 -11197 0
11205 -11204 11197 0
11205 11204 -11197 0
-11206 11205 11198 0
-11206 -11205 -11198 0
11206 -11205 11198 0
11206 11205 -11198 0
-11207 11206 11193 0
-11207 -11206 -11193 0
11207 -11206 11193 0
11207 11206 -11193 0
-11208 11207 11194 0
-11208 -11207 -11194 0
11208 -11207 11194 0
11208 11207 -11194 0
-11209 11208 11195 0
-11209 -11208 -11195 0
11209 -11208 11195 0
11209 11208 -11195 0
-11210 11209 11196 0
-11210 -11209 -11196 0
11210 -11209 11196 0
11210 11209 -11196 0
-11211 11210 11197 0
-11211 -11210 -11197 0
11211 -11210 11197 0
11211 11210 -11197 0
-11212 11211 11198 0
-11212 -11211 -11198 0
11212 -11211 11198 0
11212 11211 -11198 0
-11213 11212 11199 0
-11213 -11212 -11199 0
11213 -11212 11199 0
11213 11212 -11199 0
-11214 11213 11199 0
-11214 -11213 -11199 0
11214 -11213 11199 0
11214 11213 -11199 0
-11215 11214 11200 0
-11215 -11214 -11200 0
11215 -11214 11200 0
11215 11214 -11200 0
-11216 11215 11200 0
-11216 -11215 -11200 0
11216 -11215 11200 0
11216 11215 -11200 0
-11217 11216 11201 0
-11217 -11216 -11201 0
11217 -11216 11201 0
11217 11216 -11201 0
-11217 0
-11218 11050 0
-11218 44 0
11218 -11050 -44 0
-11219 11052 0
-11219 42 0
11219 -11052 -42 0
-11220 11050 0
-11220 47 0
11220 -11050 -47 0
-11221 11052 0
-11221 39 0
11221 -11052 -39 0
-11222 11054 0
-11222 46 0
11222 -11054 -46 0
-11223 11054 0
-11223 40 0
11223 -11054 -40 0
-11224 11056 0
-11224 92 0
11224 -11056 -92 0
-11225 11056 0
-11225 95 0
11225 -11056 -95 0
-11226 11058 0
-11226 140 0
11226 -11058 -140 0
-11227 11058 0
-11227 143 0
11227 -11058 -143 0
-11228 11060 0
-11228 188 0
11228 -11060 -188 0
-11229 11218 11219 0
-11229 -11218 -11219 0
11229 -11218 11219 0
11229 11218 -11219 0
-11230 11229 11220 0
-11230 -11229 -11220 0
11230 -11229 11220 0
11230 11229 -11220 0
-11231 11230 11221 0
-11231 -11230 -11221 0
11231 -11230 11221 0
11231 11230 -11221 0
-11232 11231 11222 0
-11232 -11231 -11222 0
11232 -11231 11222 0
11232 11231 -11222 0
-11233 11232 11223 0
-11233 -11232 -11223 0
11233 -11232 11223 0
11233 11232 -11223 0
-11234 11233 11220 0
-11234 -11233 -11220 0
11234 -11233 11220 0
11234 11233 -11220 0
-11235 11234 11221 0
-11235 -11234 -11221 0
11235 -11234 11221 0
11235 11234 -11221 0
-11236 11235 11218 0
-11236 -11235 -11218 0
11236 -11235 11218 0
11236 11235 -11218 0
-11237 11236 11219 0
-11237 -11236 -11219 0
11237 -11236 11219 0
11237 11236 -11219 0
-11238 11237 11223 0
-11238 -11237 -11223 0
11238 -11237 11223 0
11238 11237 -11223 0
-11239 11238 11222 0
-11239 -11238 -11222 0
11239 -11238 11222 0
11239 11238 -11222 0
-11240 11239 11224 0
-11240 -11239 -11224 0
11240 -11239 11224 0
11240 11239 -11224 0
-11241 11240 11225 0
-11241 -11240 -11225 0
11241 -11240 11225 0
11241 11240 -11225 0
-11242 11241 11226 0
-11242 -11241 -11226 0
11242 -11241 11226 0
11242 11241 -11226 0
-11243 11242 11227 0
-11243 -11242 -11227 0
11243 -11242 11227 0
11243 11242 -11227 0
-11244 11243 11228 0
-11244 -11243 -11228 0
11244 -11243 11228 0
11244 11243 -11228 0
-11244 0
-11245 7 0
-11245 30 0
11245 -7 -30 0
-11246 11245 0
-11246 33 0
11246 -11245 -33 0
-11247 14 0
-11247 32 0
11247 -14 -32 0
-11248 11247 0
-11248 33 0
11248 -11247 -33 0
-11249 9 0
-11249 31 0
11249 -9 -31 0
-11250 11249 0
-11250 33 0
11250 -11249 -33 0
-11251 26 0
-11251 8 0
11251 -26 -8 0
-11252 11251 0
-11252 33 0
11252 -11251 -33 0
-11253 24 0
-11253 16 0
11253 -24 -16 0
-11254 11253 0
-11254 33 0
11254 -11253 -33 0
-11255 19 0
-11255 12 0
11255 -19 -12 0
-11256 11255 0
-11256 33 0
11256 -11255 -33 0
-11257 55 0
-11257 78 0
11257 -55 -78 0
-11258 11257 0
-11258 81 0
11258 -11257 -81 0
-11259 74 0
-11259 56 0
11259 -74 -56 0
-11260 11259 0
-11260 81 0
11260 -11259 -81 0
-11261 103 0
-11261 126 0
11261 -103 -126 0
-11262 11261 0
-11262 129 0
11262 -11261 -129 0
-11263 122 0
-11263 104 0
11263 -122 -104 0
-11264 11263 0
-11264 129 0
11264 -11263 -129 0
-11265 151 0
-11265 174 0
11265 -151 -174 0
-11266 11265 0
-11266 177 0
11266 -11265 -177 0
-11267 11246 11248 0
-11267 -11246 -11248 0
11267 -11246 11248 0
11267 11246 -11248 0
-11268 11267 11246 0
-11268 -11267 -11246 0
11268 -11267 11246 0
11268 11267 -11246 0
-11269 11268 11248 0
-11269 -11268 -11248 0
11269 -11268 11248 0
11269 11268 -11248 0
-11270 11269 11250 0
-11270 -11269 -11250 0
11270 -11269 11250 0
11270 11269 -11250 0
-11271 11270 11250 0
-11271 -11270 -11250 0
11271 -11270 11250 0
11271 11270 -11250 0
-11272 11271 11252 0
-11272 -11271 -11252 0
11272 -11271 11252 0
11272 11271 -11252 0
-11273 11272 11254 0
-11273 -11272 -11254 0
11273 -11272 11254 0
11273 11272 -11254 0
-11274 11273 11252 0
-11274 -11273 -11252 0
11274 -11273 11252 0
11274 11273 -11252 0
-11275 11274 11254 0
-11275 -11274 -11254 0
11275 -11274 11254 0
11275 11274 -11254 0
-11276 11275 11256 0
-11276 -11275 -11256 0
11276 -11275 11256 0
11276 11275 -11256 0
-11277 11276 11256 0
-11277 -11276 -11256 0
11277 -11276 11256 0
11277 11276 -11256 0
-11278 11277 11258 0
-11278 -11277 -11258 0
11278 -11277 11258 0
11278 11277 -11258 0
-11279 11278 11260 0
-11279 -11278 -11260 0
11279 -11278 11260 0
11279 11278 -11260 0
-11280 11279 11262 0
-11280 -11279 -11262 0
11280 -11279 11262 0
11280 11279 -11262 0
-11281 11280 11264 0
-11281 -11280 -11264 0
11281 -11280 11264 0
11281 11280 -11264 0
-11282 11281 11266 0
-11282 -11281 -11266 0
11282 -11281 11266 0
11282 11281 -11266 0
-11282 0
-11283 11245 0
-11283 34 0
11283 -11245 -34 0
-11284 11247 0
-11284 36 0
11284 -11247 -36 0
-11285 11249 0
-11285 35 0
11285 -11249 -35 0
-11286 11251 0
-11286 37 0
11286 -11251 -37 0
-11287 11253 0
-11287 45 0
11287 -11253 -45 0
-11288 11255 0
-11288 41 0
11288 -11255 -41 0
-11289 11257 0
-11289 82 0
11289 -11257 -82 0
-11290 11259 0
-11290 85 0
11290 -11259 -85 0
-11291 11261 0
-11291 130 0
11291 -11261 -130 0
-11292 11263 0
-11292 133 0
11292 -11263 -133 0
-11293 11265 0
-11293 178 0
11293 -11265 -178 0
-11294 11283 11284 0
-11294 -11283 -11284 0
11294 -11283 11284 0
11294 11283 -11284 0
-11295 11294 11283 0
-11295 -11294 -11283 0
11295 -11294 11283 0
11295 11294 -11283 0
-11296 11295 11284 0
-11296 -11295 -11284 0
11296 -11295 11284 0
11296 11295 -11284 0
-11297 11296 11285 0
-11297 -11296 -11285 0
11297 -11296 11285 0
11297 11296 -11285 0
-11298 11297 11285 0
-11298 -11297 -11285 0
11298 -11297 11285 0
11298 11297 -11285 0
-11299 11298 11286 0
-11299 -11298 -11286 0
11299 -11298 11286 0
11299 11298 -11286 0
-11300 11299 11287 0
-11300 -11299 -11287 0
11300 -11299 11287 0
11300 11299 -11287 0
-11301 11300 11286 0
-11301 -11300 -11286 0
11301 -11300 11286 0
11301 11300 -11286 0
-11302 11301 11287 0
-11302 -11301 -11287 0
11302 -11301 11287 0
11302 11301 -11287 0
-11303 11302 11288 0
-11303 -11302 -11288 0
11303 -11302 11288 0
11303 11302 -11288 0
-11304 11303 11288 0
-11304 -11303 -11288 0
11304 -11303 11288 0
11304 11303 -11288 0
-11305 11304 11289 0
-11305 -11304 -11289 0
11305 -11304 11289 0
11305 11304 -11289 0
-11306 11305 11290 0
-11306 -11305 -11290 0
11306 -11305 11290 0
11306 11305 -11290 0
-11307 11306 11291 0
-11307 -11306 -11291 0
11307 -11306 11291 0
11307 11306 -11291 0
-11308 11307 11292 0
-11308 -11307 -11292 0
11308 -11307 11292 0
11308 11307 -11292 0
-11309 11308 11293 0
-11309 -11308 -11293 0
11309 -11308 11293 0
11309 11308 -11293 0
-11309 0
-11310 11245 0
-11310 35 0
11310 -11245 -35 0
-11311 11247 0
-11311 35 0
11311 -11247 -35 0
-11312 11245 0
-11312 36 0
11312 -11245 -36 0
-11313 11247 0
-11313 34 0
11313 -11247 -34 0
-11314 11249 0
-11314 36 0
11314 -11249 -36 0
-11315 11249 0
-11315 34 0
11315 -11249 -34 0
-11316 11251 0
-11316 41 0
11316 -11251 -41 0
-11317 11253 0
-11317 41 0
11317 -11253 -41 0
-11318 11251 0
-11318 45 0
11318 -11251 -45 0
-11319 11253 0
-11319 37 0
11319 -11253 -37 0
-11320 11255 0
-11320 45 0
11320 -11255 -45 0
-11321 11255 0
-11321 37 0
11321 -11255 -37 0
-11322 11257 0
-11322 83 0
11322 -11257 -83 0
-11323 11259 0
-11323 89 0
11323 -11259 -89 0
-11324 11261 0
-11324 131 0
11324 -11261 -131 0
-11325 11263 0
-11325 137 0
11325 -11263 -137 0
-11326 11265 0
-11326 179 0
11326 -11265 -179 0
-11327 11310 11311 0
-11327 -11310 -11311 0
11327 -11310 11311 0
11327 11310 -11311 0
-11328 11327 11312 0
-11328 -11327 -11312 0
11328 -11327 11312 0
11328 11327 -11312 0
-11329 11328 11313 0
-11329 -11328 -11313 0
11329 -11328 11313 0
11329 11328 -11313 0
-11330 11329 11314 0
-11330 -11329 -11314 0
11330 -11329 11314 0
11330 11329 -11314 0
-11331 11330 11315 0
-11331 -11330 -11315 0
11331 -11330 11315 0
11331 11330 -11315 0
-11332 11331 11316 0
-11332 -11331 -11316 0
11332 -11331 11316 0
11332 11331 -11316 0
-11333 11332 11317 0
-11333 -11332 -11317 0
11333 -11332 11317 0
11333 11332 -11317 0
-11334 11333 11318 0
-11334 -11333 -11318 0
11334 -11333 11318 0
11334 11333 -11318 0
-11335 11334 11319 0
-11335 -11334 -11319 0
11335 -11334 11319 0
11335 11334 -11319 0
-11336 11335 11320 0
-11336 -11335 -11320 0
11336 -11335 11320 0
11336 11335 -11320 0
-11337 11336 11321 0
-11337 -11336 -11321 0
11337 -11336 11321 0
11337 11336 -11321 0
-11338 11337 11322 0
-11338 -11337 -11322 0
11338 -11337 11322 0
11338 11337 -11322 0
-11339 11338 11323 0
-11339 -11338 -11323 0
11339 -11338 11323 0
11339 11338 -11323 0
-11340 11339 11324 0
-11340 -11339 -11324 0
11340 -11339 11324 0
11340 11339 -11324 0
-11341 11340 11325 0
-11341 -11340 -11325 0
11341 -11340 11325 0
11341 11340 -11325 0
-11342 11341 11326 0
-11342 -11341 -11326 0
11342 -11341 11326 0
11342 11341 -11326 0
-11342 0
-11343 11245 0
-11343 37 0
11343 -11245 -37 0
-11344 11247 0
-11344 45 0
11344 -11247 -45 0
-11345 11249 0
-11345 41 0
11345 -11249 -41 0
-11346 11251 0
-11346 34 0
11346 -11251 -34 0
-11347 11253 0
-11347 36 0
11347 -11253 -36 0
-11348 11255 0
-11348 35 0
11348 -11255 -35 0
-11349 11257 0
-11349 85 0
11349 -11257 -85 0
-11350 11259 0
-11350 82 0
11350 -11259 -82 0
-11351 11261 0
-11351 133 0
11351 -11261 -133 0
-11352 11263 0
-11352 130 0
11352 -11263 -130 0
-11353 11265 0
-11353 181 0
11353 -11265 -181 0
-11354 11343 11344 0
-11354 -11343 -11344 0
11354 -11343 11344 0
11354 11343 -11344 0
-11355 11354 11343 0
-11355 -11354 -11343 0
11355 -11354 11343 0
11355 11354 -11343 0
-11356 11355 11344 0
-11356 -11355 -11344 0
11356 -11355 11344 0
11356 11355 -11344 0
-11357 11356 11345 0
-11357 -11356 -11345 0
11357 -11356 11345 0
11357 11356 -11345 0
-11358 11357 11345 0
-11358 -11357 -11345 0
11358 -11357 11345 0
11358 11357 -11345 0
-11359 11358 11346 0
-11359 -11358 -11346 0
11359 -11358 11346 0
11359 11358 -11346 0
-11360 11359 11347 0
-11360 -11359 -11347 0
11360 -11359 11347 0
11360 11359 -11347 0
-11361 11360 11346 0
-11361 -11360 -11346 0
11361 -11360 11346 0
11361 11360 -11346 0
-11362 11361 11347 0
-11362 -11361 -11347 0
11362 -11361 11347 0
11362 11361 -11347 0
-11363 11362 11348 0
-11363 -11362 -11348 0
11363 -11362 11348 0
11363 11362 -11348 0
-11364 11363 11348 0
-11364 -11363 -11348 0
11364 -11363 11348 0
11364 11363 -11348 0
-11365 11364 11349 0
-11365 -11364 -11349 0
11365 -11364 11349 0
11365 11364 -11349 0
-11366 11365 11350 0
-11366 -11365 -11350 0
11366 -11365 11350 0
11366 11365 -11350 0
-11367 11366 11351 0
-11367 -11366 -11351 0
11367 -11366 11351 0
11367 11366 -11351 0
-11368 11367 11352 0
-11368 -11367 -11352 0
11368 -11367 11352 0
11368 11367 -11352 0
-11369 11368 11353 0
-11369 -11368 -11353 0
11369 -11368 11353 0
11369 11368 -11353 0
-11369 0
-11370 11245 0
-11370 38 0
11370 -11245 -38 0
-11371 11247 0
-11371 48 0
11371 -11247 -48 0
-11372 11249 0
-11372 43 0
11372 -11249 -43 0
-11373 11251 0
-11373 38 0
11373 -11251 -38 0
-11374 11253 0
-11374 48 0
11374 -11253 -48 0
-11375 11255 0
-11375 43 0
11375 -11255 -43 0
-11376 11257 0
-11376 86 0
11376 -11257 -86 0
-11377 11259 0
-11377 86 0
11377 -11259 -86 0
-11378 11261 0
-11378 134 0
11378 -11261 -134 0
-11379 11263 0
-11379 134 0
11379 -11263 -134 0
-11380 11265 0
-11380 182 0
11380 -11265 -182 0
-11381 11370 11371 0
-11381 -11370 -11371 0
11381 -11370 11371 0
11381 11370 -11371 0
-11382 11381 11370 0
-11382 -11381 -11370 0
11382 -11381 11370 0
11382 11381 -11370 0
-11383 11382 11371 0
-11383 -11382 -11371 0
11383 -11382 11371 0
11383 11382 -11371 0
-11384 11383 11372 0
-11384 -11383 -11372 0
11384 -11383 11372 0
11384 11383 -11372 0
-11385 11384 11372 0
-11385 -11384 -11372 0
11385 -11384 11372 0
11385 11384 -11372 0
-11386 11385 11373 0
-11386 -11385 -11373 0
11386 -11385 11373 0
11386 11385 -11373 0
-11387 11386 11374 0
-11387 -11386 -11374 0
11387 -11386 11374 0
11387 11386 -11374 0
-11388 11387 11373 0
-11388 -11387 -11373 0
11388 -11387 11373 0
11388 11387 -11373 0
-11389 11388 11374 0
-11389 -11388 -11374 0
11389 -11388 11374 0
11389 11388 -11374 0
-11390 11389 11375 0
-11390 -11389 -11375 0
11390 -11389 11375 0
11390 11389 -11375 0
-11391 11390 11375 0
-11391 -11390 -11375 0
11391 -11390 11375 0
11391 11390 -11375 0
-11392 11391 11376 0
-11392 -11391 -11376 0
11392 -11391 11376 0
11392 11391 -11376 0
-11393 11392 11377 0
-11393 -11392 -11377 0
11393 -11392 11377 0
11393 11392 -11377 0
-11394 11393 11378 0
-11394 -11393 -11378 0
11394 -11393 11378 0
11394 11393 -11378 0
-11395 11394 11379 0
-11395 -11394 -11379 0
11395 -11394 11379 0
11395 11394 -11379 0
-11396 11395 11380 0
-11396 -11395 -11380 0
11396 -11395 11380 0
11396 11395 -11380 0
-11396 0
-11397 11245 0
-11397 39 0
11397 -11245 -39 0
-11398 11247 0
-11398 47 0
11398 -11247 -47 0
-11399 11245 0
-11399 40 0
11399 -11245 -40 0
-11400 11247 0
-11400 46 0
11400 -11247 -46 0
-11401 11249 0
-11401 44 0
11401 -11249 -44 0
-11402 11249 0
-11402 42 0
11402 -11249 -42 0
-11403 11251 0
-11403 42 0
11403 -11251 -42 0
-11404 11253 0
-11404 44 0
11404 -11253 -44 0
-11405 11251 0
-11405 46 0
11405 -11251 -46 0
-11406 11253 0
-11406 40 0
11406 -11253 -40 0
-11407 11255 0
-11407 47 0
11407 -11255 -47 0
-11408 11255 0
-11408 39 0
11408 -11255 -39 0
-11409 11257 0
-11409 87 0
11409 -11257 -87 0
-11410 11259 0
-11410 90 0
11410 -11259 -90 0
-11411 11261 0
-11411 135 0
11411 -11261 -135 0
-11412 11263 0
-11412 138 0
11412 -11263 -138 0
-11413 11265 0
-11413 183 0
11413 -11265 -183 0
-11414 11397 11398 0
-11414 -11397 -11398 0
11414 -11397 11398 0
11414 11397 -11398 0
-11415 11414 11399 0
-11415 -11414 -11399 0
11415 -11414 11399 0
11415 11414 -11399 0
-11416 11415 11400 0
-11416 -11415 -11400 0
11416 -11415 11400 0
11416 11415 -11400 0
-11417 11416 11401 0
-11417 -11416 -11401 0
11417 -11416 11401 0
11417 11416 -11401 0
-11418 11417 11402 0
-11418 -11417 -11402 0
11418 -11417 11402 0
11418 11417 -11402 0
-11419 11418 11403 0
-11419 -11418 -11403 0
11419 -11418 11403 0
11419 11418 -11403 0
-11420 11419 11404 0
-11420 -11419 -11404 0
11420 -11419 11404 0
11420 11419 -11404 0
-11421 11420 11405 0
-11421 -11420 -11405 0
11421 -11420 11405 0
11421 11420 -11405 0
-11422 11421 11406 0
-11422 -11421 -11406 0
11422 -11421 11406 0
11422 11421 -11406 0
-11423 11422 11407 0
-11423 -11422 -11407 0
11423 -11422 11407 0
11423 11422 -11407 0
-11424 11423 11408 0
-11424 -11423 -11408 0
11424 -11423 11408 0
11424 11423 -11408 0
-11425 11424 11409 0
-11425 -11424 -11409 0
11425 -11424 11409 0
11425 11424 -11409 0
-11426 11425 11410 0
-11426 -11425 -11410 0
11426 -11425 11410 0
11426 11425 -11410 0
-11427 11426 11411 0
-11427 -11426 -11411 0
11427 -11426 11411 0
11427 11426 -11411 0
-11428 11427 11412 0
-11428 -11427 -11412 0
11428 -11427 11412 0
11428 11427 -11412 0
-11429 11428 11413 0
-11429 -11428 -11413 0
11429 -11428 11413 0
11429 11428 -11413 0
-11429 0
-11430 11245 0
-11430 41 0
11430 -11245 -41 0
-11431 11247 0
-11431 41 0
11431 -11247 -41 0
-11432 11245 0
-11432 45 0
11432 -11245 -45 0
-11433 11247 0
-11433 37 0
11433 -11247 -37 0
-11434 11249 0
-11434 45 0
11434 -11249 -45 0
-11435 11249 0
-11435 37 0
11435 -11249 -37 0
-11436 11251 0
-11436 35 0
11436 -11251 -35 0
-11437 11253 0
-11437 35 0
11437 -11253 -35 0
-11438 11251 0
-11438 36 0
11438 -11251 -36 0
-11439 11253 0
-11439 34 0
11439 -11253 -34 0
-11440 11255 0
-11440 36 0
11440 -11255 -36 0
-11441 11255 0
-11441 34 0
11441 -11255 -34 0
-11442 11257 0
-11442 89 0
11442 -11257 -89 0
-11443 11259 0
-11443 83 0
11443 -11259 -83 0
-11444 11261 0
-11444 137 0
11444 -11261 -137 0
-11445 11263 0
-11445 131 0
11445 -11263 -131 0
-11446 11265 0
-11446 185 0
11446 -11265 -185 0
-11447 11430 11431 0
-11447 -11430 -11431 0
11447 -11430 11431 0
11447 11430 -11431 0
-11448 11447 11432 0
-11448 -11447 -11432 0
11448 -11447 11432 0
11448 11447 -11432 0
-11449 11448 11433 0
-11449 -11448 -11433 0
11449 -11448 11433 0
11449 11448 -11433 0
-11450 11449 11434 0
-11450 -11449 -11434 0
11450 -11449 11434 0
11450 11449 -11434 0
-11451 11450 11435 0
-11451 -11450 -11435 0
11451 -11450 11435 0
11451 11450 -11435 0
-11452 11451 11436 0
-11452 -11451 -11436 0
11452 -11451 11436 0
11452 11451 -11436 0
-11453 11452 11437 0
-11453 -11452 -11437 0
11453 -11452 11437 0
11453 11452 -11437 0
-11454 11453 11438 0
-11454 -11453 -11438 0
11454 -11453 11438 0
11454 11453 -11438 0
-11455 11454 11439 0
-11455 -11454 -11439 0
11455 -11454 11439 0
11455 11454 -11439 0
-11456 11455 11440 0
-11456 -11455 -11440 0
11456 -11455 11440 0
11456 11455 -11440 0
-11457 11456 11441 0
-11457 -11456 -11441 0
11457 -11456 11441 0
11457 11456 -11441 0
-11458 11457 11442 0
-11458 -11457 -11442 0
11458 -11457 11442 0
11458 11457 -11442 0
-11459 11458 11443 0
-11459 -11458 -11443 0
11459 -11458 11443 0
11459 11458 -11443 0
-11460 11459 11444 0
-11460 -11459 -11444 0
11460 -11459 11444 0
11460 11459 -11444 0
-11461 11460 11445 0
-11461 -11460 -11445 0
11461 -11460 11445 0
11461 11460 -11445 0
-11462 11461 11446 0
-11462 -11461 -11446 0
11462 -11461 11446 0
11462 11461 -11446 0
-11462 0
-11463 11245 0
-11463 42 0
11463 -11245 -42 0
-11464 11247 0
-11464 44 0
11464 -11247 -44 0
-11465 11245 0
-11465 46 0
11465 -11245 -46 0
-11466 11247 0
-11466 40 0
11466 -11247 -40 0
-11467 11249 0
-11467 47 0
11467 -11249 -47 0
-11468 11249 0
-11468 39 0
11468 -11249 -39 0
-11469 11251 0
-11469 39 0
11469 -11251 -39 0
-11470 11253 0
-11470 47 0
11470 -11253 -47 0
-11471 11251 0
-11471 40 0
11471 -11251 -40 0
-11472 11253 0
-11472 46 0
11472 -11253 -46 0
-11473 11255 0
-11473 44 0
11473 -11255 -44 0
-11474 11255 0
-11474 42 0
11474 -11255 -42 0
-11475 11257 0
-11475 90 0
11475 -11257 -90 0
-11476 11259 0
-11476 87 0
11476 -11259 -87 0
-11477 11261 0
-11477 138 0
11477 -11261 -138 0
-11478 11263 0
-11478 135 0
11478 -11263 -135 0
-11479 11265 0
-11479 186 0
11479 -11265 -186 0
-11480 11463 11464 0
-11480 -11463 -11464 0
11480 -11463 11464 0
11480 11463 -11464 0
-11481 11480 11465 0
-11481 -11480 -11465 0
11481 -11480 11465 0
11481 11480 -11465 0
-11482 11481 11466 0
-11482 -11481 -11466 0
11482 -11481 11466 0
11482 11481 -11466 0
-11483 11482 11467 0
-11483 -11482 -11467 0
11483 -11482 11467 0
11483 11482 -11467 0
-11484 11483 11468 0
-11484 -11483 -11468 0
11484 -11483 11468 0
11484 11483 -11468 0
-11485 11484 11469 0
-11485 -11484 -11469 0
11485 -11484 11469 0
11485 11484 -11469 0
-11486 11485 11470 0
-11486 -11485 -11470 0
11486 -11485 11470 0
11486 11485 -11470 0
-11487 11486 11471 0
-11487 -11486 -11471 0
11487 -11486 11471 0
11487 11486 -11471 0
-11488 11487 11472 0
-11488 -11487 -11472 0
11488 -11487 11472 0
11488 11487 -11472 0
-11489 11488 11473 0
-11489 -11488 -11473 0
11489 -11488 11473 0
11489 11488 -11473 0
-11490 11489 11474 0
-11490 -11489 -11474 0
11490 -11489 11474 0
11490 11489 -11474 0
-11491 11490 11475 0
-11491 -11490 -11475 0
11491 -11490 11475 0
11491 11490 -11475 0
-11492 11491 11476 0
-11492 -11491 -11476 0
11492 -11491 11476 0
11492 11491 -11476 0
-11493 11492 11477 0
-11493 -11492 -11477 0
11493 -11492 11477 0
11493 11492 -11477 0
-11494 11493 11478 0
-11494 -11493 -11478 0
11494 -11493 11478 0
11494 11493 -11478 0
-11495 11494 11479 0
-11495 -11494 -11479 0
11495 -11494 11479 0
11495 11494 -11479 0
-11495 0
-11496 11245 0
-11496 43 0
11496 -11245 -43 0
-11497 11247 0
-11497 43 0
11497 -11247 -43 0
-11498 11245 0
-11498 48 0
11498 -11245 -48 0
-11499 11247 0
-11499 38 0
11499 -11247 -38 0
-11500 11249 0
-11500 48 0
11500 -11249 -48 0
-11501 11249 0
-11501 38 0
11501 -11249 -38 0
-11502 11251 0
-11502 43 0
11502 -11251 -43 0
-11503 11253 0
-11503 43 0
11503 -11253 -43 0
-11504 11251 0
-11504 48 0
11504 -11251 -48 0
-11505 11253 0
-11505 38 0
11505 -11253 -38 0
-11506 11255 0
-11506 48 0
11506 -11255 -48 0
-11507 11255 0
-11507 38 0
11507 -11255 -38 0
-11508 11257 0
-11508 91 0
11508 -11257 -91 0
-11509 11259 0
-11509 91 0
11509 -11259 -91 0
-11510 11261 0
-11510 139 0
11510 -11261 -139 0
-11511 11263 0
-11511 139 0
11511 -11263 -139 0
-11512 11265 0
-11512 187 0
11512 -11265 -187 0
-11513 11496 11497 0
-11513 -11496 -11497 0
11513 -11496 11497 0
11513 11496 -11497 0
-11514 11513 11498 0
-11514 -11513 -11498 0
11514 -11513 11498 0
11514 11513 -11498 0
-11515 11514 11499 0
-11515 -11514 -11499 0
11515 -11514 11499 0
11515 11514 -11499 0
-11516 11515 11500 0
-11516 -11515 -11500 0
11516 -11515 11500 0
11516 11515 -11500 0
-11517 11516 11501 0
-11517 -11516 -11501 0
11517 -11516 11501 0
11517 11516 -11501 0
-11518 11517 11502 0
-11518 -11517 -11502 0
11518 -11517 11502 0
11518 11517 -11502 0
-11519 11518 11503 0
-11519 -11518 -11503 0
11519 -11518 11503 0
11519 11518 -11503 0
-11520 11519 11504 0
-11520 -11519 -11504 0
11520 -11519 11504 0
11520 11519 -11504 0
-11521 11520 11505 0
-11521 -11520 -11505 0
11521 -11520 11505 0
11521 11520 -11505 0
-11522 11521 11506 0
-11522 -11521 -11506 0
11522 -11521 11506 0
11522 11521 -11506 0
-11523 11522 11507 0
-11523 -11522 -11507 0
11523 -11522 11507 0
11523 11522 -11507 0
-11524 11523 11508 0
-11524 -11523 -11508 0
11524 -11523 11508 0
11524 11523 -11508 0
-11525 11524 11509 0
-11525 -11524 -11509 0
11525 -11524 11509 0
11525 11524 -11509 0
-11526 11525 11510 0
-11526 -11525 -11510 0
11526 -11525 11510 0
11526 11525 -11510 0
-11527 11526 11511 0
-11527 -11526 -11511 0
11527 -11526 11511 0
11527 11526 -11511 0
-11528 11527 11512 0
-11528 -11527 -11512 0
11528 -11527 11512 0
11528 11527 -11512 0
-11528 0
-11529 11245 0
-11529 44 0
11529 -11245 -44 0
-11530 11247 0
-11530 42 0
11530 -11247 -42 0
-11531 11245 0
-11531 47 0
11531 -11245 -47 0
-11532 11247 0
-11532 39 0
11532 -11247 -39 0
-11533 11249 0
-11533 46 0
11533 -11249 -46 0
-11534 11249 0
-11534 40 0
11534 -11249 -40 0
-11535 11251 0
-11535 47 0
11535 -11251 -47 0
-11536 11253 0
-11536 39 0
11536 -11253 -39 0
-11537 11251 0
-11537 44 0
11537 -11251 -44 0
-11538 11253 0
-11538 42 0
11538 -11253 -42 0
-11539 11255 0
-11539 40 0
11539 -11255 -40 0
-11540 11255 0
-11540 46 0
11540 -11255 -46 0
-11541 11257 0
-11541 92 0
11541 -11257 -92 0
-11542 11259 0
-11542 95 0
11542 -11259 -95 0
-11543 11261 0
-11543 140 0
11543 -11261 -140 0
-11544 11263 0
-11544 143 0
11544 -11263 -143 0
-11545 11265 0
-11545 188 0
11545 -11265 -188 0
-11546 11529 11530 0
-11546 -11529 -11530 0
11546 -11529 11530 0
11546 11529 -11530 0
-11547 11546 11531 0
-11547 -11546 -11531 0
11547 -11546 11531 0
11547 11546 -11531 0
-11548 11547 11532 0
-11548 -11547 -11532 0
11548 -11547 11532 0
11548 11547 -11532 0
-11549 11548 11533 0
-11549 -11548 -11533 0
11549 -11548 11533 0
11549 11548 -11533 0
-11550 11549 11534 0
-11550 -11549 -11534 0
11550 -11549 11534 0
11550 11549 -11534 0
-11551 11550 11535 0
-11551 -11550 -11535 0
11551 -11550 11535 0
11551 11550 -11535 0
-11552 11551 11536 0
-11552 -11551 -11536 0
11552 -11551 11536 0
11552 11551 -11536 0
-11553 11552 11537 0
-11553 -11552 -11537 0
11553 -11552 11537 0
11553 11552 -11537 0
-11554 11553 11538 0
-11554 -11553 -11538 0
11554 -11553 11538 0
11554 11553 -11538 0
-11555 11554 11539 0
-11555 -11554 -11539 0
11555 -11554 11539 0
11555 11554 -11539 0
-11556 11555 11540 0
-11556 -11555 -11540 0
11556 -11555 11540 0
11556 11555 -11540 0
-11557 11556 11541 0
-11557 -11556 -11541 0
11557 -11556 11541 0
11557 11556 -11541 0
-11558 11557 11542 0
-11558 -11557 -11542 0
11558 -11557 11542 0
11558 11557 -11542 0
-11559 11558 11543 0
-11559 -11558 -11543 0
11559 -11558 11543 0
11559 11558 -11543 0
-11560 11559 11544 0
-11560 -11559 -11544 0
11560 -11559 11544 0
11560 11559 -11544 0
-11561 11560 11545 0
-11561 -11560 -11545 0
11561 -11560 11545 0
11561 11560 -11545 0
-11561 0
-11562 7 0
-11562 31 0
11562 -7 -31 0
-11563 11562 0
-11563 33 0
11563 -11562 -33 0
-11564 14 0
-11564 31 0
11564 -14 -31 0
-11565 11564 0
-11565 33 0
11565 -11564 -33 0
-11566 7 0
-11566 32 0
11566 -7 -32 0
-11567 11566 0
-11567 33 0
11567 -11566 -33 0
-11568 14 0
-11568 30 0
11568 -14 -30 0
-11569 11568 0
-11569 33 0
11569 -11568 -33 0
-11570 9 0
-11570 32 0
11570 -9 -32 0
-11571 11570 0
-11571 33 0
11571 -11570 -33 0
-11572 9 0
-11572 30 0
11572 -9 -30 0
-11573 11572 0
-11573 33 0
11573 -11572 -33 0
-11574 26 0
-11574 12 0
11574 -26 -12 0
-11575 11574 0
-11575 33 0
11575 -11574 -33 0
-11576 24 0
-11576 12 0
11576 -24 -12 0
-11577 11576 0
-11577 33 0
11577 -11576 -33 0
-11578 26 0
-11578 16 0
11578 -26 -16 0
-11579 11578 0
-11579 33 0
11579 -11578 -33 0
-11580 24 0
-11580 8 0
11580 -24 -8 0
-11581 11580 0
-11581 33 0
11581 -11580 -33 0
-11582 19 0
-11582 16 0
11582 -19 -16 0
-11583 11582 0
-11583 33 0
11583 -11582 -33 0
-11584 19 0
-11584 8 0
11584 -19 -8 0
-11585 11584 0
-11585 33 0
11585 -11584 -33 0
-11586 55 0
-11586 79 0
11586 -55 -79 0
-11587 11586 0
-11587 81 0
11587 -11586 -81 0
-11588 74 0
-11588 60 0
11588 -74 -60 0
-11589 11588 0
-11589 81 0
11589 -11588 -81 0
-11590 103 0
-11590 127 0
11590 -103 -127 0
-11591 11590 0
-11591 129 0
11591 -11590 -129 0
-11592 122 0
-11592 108 0
11592 -122 -108 0
-11593 11592 0
-11593 129 0
11593 -11592 -129 0
-11594 151 0
-11594 175 0
11594 -151 -175 0
-11595 11594 0
-11595 177 0
11595 -11594 -177 0
-11596 11563 11565 0
-11596 -11563 -11565 0
11596 -11563 11565 0
11596 11563 -11565 0
-11597 11596 11567 0
-11597 -11596 -11567 0
11597 -11596 11567 0
11597 11596 -11567 0
-11598 11597 11569 0
-11598 -11597 -11569 0
11598 -11597 11569 0
11598 11597 -11569 0
-11599 11598 11571 0
-11599 -11598 -11571 0
11599 -11598 11571 0
11599 11598 -11571 0
-11600 11599 11573 0
-11600 -11599 -11573 0
11600 -11599 11573 0
11600 11599 -11573 0
-11601 11600 11575 0
-11601 -11600 -11575 0
11601 -11600 11575 0
11601 11600 -11575 0
-11602 11601 11577 0
-11602 -11601 -11577 0
11602 -11601 11577 0
11602 11601 -11577 0
-11603 11602 11579 0
-11603 -11602 -11579 0
11603 -11602 11579 0
11603 11602 -11579 0
-11604 11603 11581 0
-11604 -11603 -11581 0
11604 -11603 11581 0
11604 11603 -11581 0
-11605 11604 11583 0
-11605 -11604 -11583 0
11605 -11604 11583 0
11605 11604 -11583 0
-11606 11605 11585 0
-11606 -11605 -11585 0
11606 -11605 11585 0
11606 11605 -11585 0
-11607 11606 11587 0
-11607 -11606 -11587 0
11607 -11606 11587 0
11607 11606 -11587 0
-11608 11607 11589 0
-11608 -11607 -11589 0
11608 -11607 11589 0
11608 11607 -11589 0
-11609 11608 11591 0
-11609 -11608 -11591 0
11609 -11608 11591 0
11609 11608 -11591 0
-11610 11609 11593 0
-11610 -11609 -11593 0
11610 -11609 11593 0
11610 11609 -11593 0
-11611 11610 11595 0
-11611 -11610 -11595 0
11611 -11610 11595 0
11611 11610 -11595 0
-11611 0
-11612 11562 0
-11612 34 0
11612 -11562 -34 0
-11613 11564 0
-11613 36 0
11613 -11564 -36 0
-11614 11566 0
-11614 34 0
11614 -11566 -34 0
-11615 11568 0
-11615 36 0
11615 -11568 -36 0
-11616 11570 0
-11616 35 0
11616 -11570 -35 0
-11617 11572 0
-11617 35 0
11617 -11572 -35 0
-11618 11574 0
-11618 37 0
11618 -11574 -37 0
-11619 11576 0
-11619 45 0
11619 -11576 -45 0
-11620 11578 0
-11620 37 0
11620 -11578 -37 0
-11621 11580 0
-11621 45 0
11621 -11580 -45 0
-11622 11582 0
-11622 41 0
11622 -11582 -41 0
-11623 11584 0
-11623 41 0
11623 -11584 -41 0
-11624 11586 0
-11624 82 0
11624 -11586 -82 0
-11625 11588 0
-11625 85 0
11625 -11588 -85 0
-11626 11590 0
-11626 130 0
11626 -11590 -130 0
-11627 11592 0
-11627 133 0
11627 -11592 -133 0
-11628 11594 0
-11628 178 0
11628 -11594 -178 0
-11629 11612 11613 0
-11629 -11612 -11613 0
11629 -11612 11613 0
11629 11612 -11613 0
-11630 11629 11614 0
-11630 -11629 -11614 0
11630 -11629 11614 0
11630 11629 -11614 0
-11631 11630 11615 0
-11631 -11630 -11615 0
11631 -11630 11615 0
11631 11630 -11615 0
-11632 11631 11616 0
-11632 -11631 -11616 0
11632 -11631 11616 0
11632 11631 -11616 0
-11633 11632 11617 0
-11633 -11632 -11617 0
11633 -11632 11617 0
11633 11632 -11617 0
-11634 11633 11618 0
-11634 -11633 -11618 0
11634 -11633 11618 0
11634 11633 -11618 0
-11635 11634 11619 0
-11635 -11634 -11619 0
11635 -11634 11619 0
11635 11634 -11619 0
-11636 11635 11620 0
-11636 -11635 -11620 0
11636 -11635 11620 0
11636 11635 -11620 0
-11637 11636 11621 0
-11637 -11636 -11621 0
11637 -11636 11621 0
11637 11636 -11621 0
-11638 11637 11622 0
-11638 -11637 -11622 0
11638 -11637 11622 0
11638 11637 -11622 0
-11639 11638 11623 0
-11639 -11638 -11623 0
11639 -11638 11623 0
11639 11638 -11623 0
-11640 11639 11624 0
-11640 -11639 -11624 0
11640 -11639 11624 0
11640 11639 -11624 0
-11641 11640 11625 0
-11641 -11640 -11625 0
11641 -11640 11625 0
11641 11640 -11625 0
-11642 11641 11626 0
-11642 -11641 -11626 0
11642 -11641 11626 0
11642 11641 -11626 0
-11643 11642 11627 0
-11643 -11642 -11627 0
11643 -11642 11627 0
11643 11642 -11627 0
-11644 11643 11628 0
-11644 -11643 -11628 0
11644 -11643 11628 0
11644 11643 -11628 0
-11644 0
-11645 11562 0
-11645 35 0
11645 -11562 -35 0
-11646 11564 0
-11646 35 0
11646 -11564 -35 0
-11647 11566 0
-11647 36 0
11647 -11566 -36 0
-11648 11568 0
-11648 34 0
11648 -11568 -34 0
-11649 11570 0
-11649 36 0
11649 -11570 -36 0
-11650 11572 0
-11650 34 0
11650 -11572 -34 0
-11651 11574 0
-11651 41 0
11651 -11574 -41 0
-11652 11576 0
-11652 41 0
11652 -11576 -41 0
-11653 11578 0
-11653 45 0
11653 -11578 -45 0
-11654 11580 0
-11654 37 0
11654 -11580 -37 0
-11655 11582 0
-11655 45 0
11655 -11582 -45 0
-11656 11584 0
-11656 37 0
11656 -11584 -37 0
-11657 11586 0
-11657 83 0
11657 -11586 -83 0
-11658 11588 0
-11658 89 0
11658 -11588 -89 0
-11659 11590 0
-11659 131 0
11659 -11590 -131 0
-11660 11592 0
-11660 137 0
11660 -11592 -137 0
-11661 11594 0
-11661 179 0
11661 -11594 -179 0
-11662 11645 11646 0
-11662 -11645 -11646 0
11662 -11645 11646 0
11662 11645 -11646 0
-11663 11662 11647 0
-11663 -11662 -11647 0
11663 -11662 11647 0
11663 11662 -11647 0
-11664 11663 11648 0
-11664 -11663 -11648 0
11664 -11663 11648 0
11664 11663 -11648 0
-11665 11664 11649 0
-11665 -11664 -11649 0
11665 -11664 11649 0
11665 11664 -11649 0
-11666 11665 11650 0
-11666 -11665 -11650 0
11666 -11665 11650 0
11666 11665 -11650 0
-11667 11666 11651 0
-11667 -11666 -11651 0
11667 -11666 11651 0
11667 11666 -11651 0
-11668 11667 11652 0
-11668 -11667 -11652 0
11668 -11667 11652 0
11668 11667 -11652 0
-11669 11668 11653 0
-11669 -11668 -11653 0
11669 -11668 11653 0
11669 11668 -11653 0
-11670 11669 11654 0
-11670 -11669 -11654 0
11670 -11669 11654 0
11670 11669 -11654 0
-11671 11670 11655 0
-11671 -11670 -11655 0
11671 -11670 11655 0
11671 11670 -11655 0
-11672 11671 11656 0
-11672 -11671 -11656 0
11672 -11671 11656 0
11672 11671 -11656 0
-11673 11672 11657 0
-11673 -11672 -11657 0
11673 -11672 11657 0
11673 11672 -11657 0
-11674 11673 11658 0
-11674 -11673 -11658 0
11674 -11673 11658 0
11674 11673 -11658 0
-11675 11674 11659 0
-11675 -11674 -11659 0
11675 -11674 11659 0
11675 11674 -11659 0
-11676 11675 11660 0
-11676 -11675 -11660 0
11676 -11675 11660 0
11676 11675 -11660 0
-11677 11676 11661 0
-11677 -11676 -11661 0
11677 -11676 11661 0
11677 11676 -11661 0
-11677 0
-11678 11562 0
-11678 36 0
11678 -11562 -36 0
-11679 11564 0
-11679 34 0
11679 -11564 -34 0
-11680 11566 0
-11680 35 0
11680 -11566 -35 0
-11681 11568 0
-11681 35 0
11681 -11568 -35 0
-11682 11570 0
-11682 34 0
11682 -11570 -34 0
-11683 11572 0
-11683 36 0
11683 -11572 -36 0
-11684 11574 0
-11684 45 0
11684 -11574 -45 0
-11685 11576 0
-11685 37 0
11685 -11576 -37 0
-11686 11578 0
-11686 41 0
11686 -11578 -41 0
-11687 11580 0
-11687 41 0
11687 -11580 -41 0
-11688 11582 0
-11688 37 0
11688 -11582 -37 0
-11689 11584 0
-11689 45 0
11689 -11584 -45 0
-11690 11586 0
-11690 84 0
11690 -11586 -84 0
-11691 11588 0
-11691 93 0
11691 -11588 -93 0
-11692 11590 0
-11692 132 0
11692 -11590 -132 0
-11693 11592 0
-11693 141 0
11693 -11592 -141 0
-11694 11594 0
-11694 180 0
11694 -11594 -180 0
-11695 11678 11679 0
-11695 -11678 -11679 0
11695 -11678 11679 0
11695 11678 -11679 0
-11696 11695 11680 0
-11696 -11695 -11680 0
11696 -11695 11680 0
11696 11695 -11680 0
-11697 11696 11681 0
-11697 -11696 -11681 0
11697 -11696 11681 0
11697 11696 -11681 0
-11698 11697 11682 0
-11698 -11697 -11682 0
11698 -11697 11682 0
11698 11697 -11682 0
-11699 11698 11683 0
-11699 -11698 -11683 0
11699 -11698 11683 0
11699 11698 -11683 0
-11700 11699 11684 0
-11700 -11699 -11684 0
11700 -11699 11684 0
11700 11699 -11684 0
-11701 11700 11685 0
-11701 -11700 -11685 0
11701 -11700 11685 0
11701 11700 -11685 0
-11702 11701 11686 0
-11702 -11701 -11686 0
11702 -11701 11686 0
11702 11701 -11686 0
-11703 11702 11687 0
-11703 -11702 -11687 0
11703 -11702 11687 0
11703 11702 -11687 0
-11704 11703 11688 0
-11704 -11703 -11688 0
11704 -11703 11688 0
11704 11703 -11688 0
-11705 11704 11689 0
-11705 -11704 -11689 0
11705 -11704 11689 0
11705 11704 -11689 0
-11706 11705 11690 0
-11706 -11705 -11690 0
11706 -11705 11690 0
11706 11705 -11690 0
-11707 11706 11691 0
-11707 -11706 -11691 0
11707 -11706 11691 0
11707 11706 -11691 0
-11708 11707 11692 0
-11708 -11707 -11692 0
11708 -11707 11692 0
11708 11707 -11692 0
-11709 11708 11693 0
-11709 -11708 -11693 0
11709 -11708 11693 0
11709 11708 -11693 0
-11710 11709 11694 0
-11710 -11709 -11694 0
11710 -11709 11694 0
11710 11709 -11694 0
-11710 0
-11711 11562 0
-11711 37 0
11711 -11562 -37 0
-11712 11564 0
-11712 45 0
11712 -11564 -45 0
-11713 11566 0
-11713 37 0
11713 -11566 -37 0
-11714 11568 0
-11714 45 0
11714 -11568 -45 0
-11715 11570 0
-11715 41 0
11715 -11570 -41 0
-11716 11572 0
-11716 41 0
11716 -11572 -41 0
-11717 11574 0
-11717 34 0
11717 -11574 -34 0
-11718 11576 0
-11718 36 0
11718 -11576 -36 0
-11719 11578 0
-11719 34 0
11719 -11578 -34 0
-11720 11580 0
-11720 36 0
11720 -11580 -36 0
-11721 11582 0
-11721 35 0
11721 -11582 -35 0
-11722 11584 0
-11722 35 0
11722 -11584 -35 0
-11723 11586 0
-11723 85 0
11723 -11586 -85 0
-11724 11588 0
-11724 82 0
11724 -11588 -82 0
-11725 11590 0
-11725 133 0
11725 -11590 -133 0
-11726 11592 0
-11726 130 0
11726 -11592 -130 0
-11727 11594 0
-11727 181 0
11727 -11594 -181 0
-11728 11711 11712 0
-11728 -11711 -11712 0
11728 -11711 11712 0
11728 11711 -11712 0
-11729 11728 11713 0
-11729 -11728 -11713 0
11729 -11728 11713 0
11729 11728 -11713 0
-11730 11729 11714 0
-11730 -11729 -11714 0
11730 -11729 11714 0
11730 11729 -11714 0
-11731 11730 11715 0
-11731 -11730 -11715 0
11731 -11730 11715 0
11731 11730 -11715 0
-11732 11731 11716 0
-11732 -11731 -11716 0
11732 -11731 11716 0
11732 11731 -11716 0
-11733 11732 11717 0
-11733 -11732 -11717 0
11733 -11732 11717 0
11733 11732 -11717 0
-11734 11733 11718 0
-11734 -11733 -11718 0
11734 -11733 11718 0
11734 11733 -11718 0
-11735 11734 11719 0
-11735 -11734 -11719 0
11735 -11734 11719 0
11735 11734 -11719 0
-11736 11735 11720 0
-11736 -11735 -11720 0
11736 -11735 11720 0
11736 11735 -11720 0
-11737 11736 11721 0
-11737 -11736 -11721 0
11737 -11736 11721 0
11737 11736 -11721 0
-11738 11737 11722 0
-11738 -11737 -11722 0
11738 -11737 11722 0
11738 11737 -11722 0
-11739 11738 11723 0
-11739 -11738 -11723 0
11739 -11738 11723 0
11739 11738 -11723 0
-11740 11739 11724 0
-11740 -11739 -11724 0
11740 -11739 11724 0
11740 11739 -11724 0
-11741 11740 11725 0
-11741 -11740 -11725 0
11741 -11740 11725 0
11741 11740 -11725 0
-11742 11741 11726 0
-11742 -11741 -11726 0
11742 -11741 11726 0
11742 11741 -11726 0
-11743 11742 11727 0
-11743 -11742 -11727 0
11743 -11742 11727 0
11743 11742 -11727 0
-11743 0
-11744 11562 0
-11744 38 0
11744 -11562 -38 0
-11745 11564 0
-11745 48 0
11745 -11564 -48 0
-11746 11566 0
-11746 38 0
11746 -11566 -38 0
-11747 11568 0
-11747 48 0
11747 -11568 -48 0
-11748 11570 0
-11748 43 0
11748 -11570 -43 0
-11749 11572 0
-11749 43 0
11749 -11572 -43 0
-11750 11574 0
-11750 38 0
11750 -11574 -38 0
-11751 11576 0
-11751 48 0
11751 -11576 -48 0
-11752 11578 0
-11752 38 0
11752 -11578 -38 0
-11753 11580 0
-11753 48 0
11753 -11580 -48 0
-11754 11582 0
-11754 43 0
11754 -11582 -43 0
-11755 11584 0
-11755 43 0
11755 -11584 -43 0
-11756 11586 0
-11756 86 0
11756 -11586 -86 0
-11757 11588 0
-11757 86 0
11757 -11588 -86 0
-11758 11590 0
-11758 134 0
11758 -11590 -134 0
-11759 11592 0
-11759 134 0
11759 -11592 -134 0
-11760 11594 0
-11760 182 0
11760 -11594 -182 0
-11761 11744 11745 0
-11761 -11744 -11745 0
11761 -11744 11745 0
11761 11744 -11745 0
-11762 11761 11746 0
-11762 -11761 -11746 0
11762 -11761 11746 0
11762 11761 -11746 0
-11763 11762 11747 0
-11763 -11762 -11747 0
11763 -11762 11747 0
11763 11762 -11747 0
-11764 11763 11748 0
-11764 -11763 -11748 0
11764 -11763 11748 0
11764 11763 -11748 0
-11765 11764 11749 0
-11765 -11764 -11749 0
11765 -11764 11749 0
11765 11764 -11749 0
-11766 11765 11750 0
-11766 -11765 -11750 0
11766 -11765 11750 0
11766 11765 -11750 0
-11767 11766 11751 0
-11767 -11766 -11751 0
11767 -11766 11751 0
11767 11766 -11751 0
-11768 11767 11752 0
-11768 -11767 -11752 0
11768 -11767 11752 0
11768 11767 -11752 0
-11769 11768 11753 0
-11769 -11768 -11753 0
11769 -11768 11753 0
11769 11768 -11753 0
-11770 11769 11754 0
-11770 -11769 -11754 0
11770 -11769 11754 0
11770 11769 -11754 0
-11771 11770 11755 0
-11771 -11770 -11755 0
11771 -11770 11755 0
11771 11770 -11755 0
-11772 11771 11756 0
-11772 -11771 -11756 0
11772 -11771 11756 0
11772 11771 -11756 0
-11773 11772 11757 0
-11773 -11772 -11757 0
11773 -11772 11757 0
11773 11772 -11757 0
-11774 11773 11758 0
-11774 -11773 -11758 0
11774 -11773 11758 0
11774 11773 -11758 0
-11775 11774 11759 0
-11775 -11774 -11759 0
11775 -11774 11759 0
11775 11774 -11759 0
-11776 11775 11760 0
-11776 -11775 -11760 0
11776 -11775 11760 0
11776 11775 -11760 0
-11776 0
-11777 11562 0
-11777 39 0
11777 -11562 -39 0
-11778 11564 0
-11778 47 0
11778 -11564 -47 0
-11779 11566 0
-11779 40 0
11779 -11566 -40 0
-11780 11568 0
-11780 46 0
11780 -11568 -46 0
-11781 11570 0
-11781 44 0
11781 -11570 -44 0
-11782 11572 0
-11782 42 0
11782 -11572 -42 0
-11783 11574 0
-11783 42 0
11783 -11574 -42 0
-11784 11576 0
-11784 44 0
11784 -11576 -44 0
-11785 11578 0
-11785 46 0
11785 -11578 -46 0
-11786 11580 0
-11786 40 0
11786 -11580 -40 0
-11787 11582 0
-11787 47 0
11787 -11582 -47 0
-11788 11584 0
-11788 39 0
11788 -11584 -39 0
-11789 11586 0
-11789 87 0
11789 -11586 -87 0
-11790 11588 0
-11790 90 0
11790 -11588 -90 0
-11791 11590 0
-11791 135 0
11791 -11590 -135 0
-11792 11592 0
-11792 138 0
11792 -11592 -138 0
-11793 11594 0
-11793 183 0
11793 -11594 -183 0
-11794 11777 11778 0
-11794 -11777 -11778 0
11794 -11777 11778 0
11794 11777 -11778 0
-11795 11794 11779 0
-11795 -11794 -11779 0
11795 -11794 11779 0
11795 11794 -11779 0
-11796 11795 11780 0
-11796 -11795 -11780 0
11796 -11795 11780 0
11796 11795 -11780 0
-11797 11796 11781 0
-11797 -11796 -11781 0
11797 -11796 11781 0
11797 11796 -11781 0
-11798 11797 11782 0
-11798 -11797 -11782 0
11798 -11797 11782 0
11798 11797 -11782 0
-11799 11798 11783 0
-11799 -11798 -11783 0
11799 -11798 11783 0
11799 11798 -11783 0
-11800 11799 11784 0
-11800 -11799 -11784 0
11800 -11799 11784 0
11800 11799 -11784 0
-11801 11800 11785 0
-11801 -11800 -11785 0
11801 -11800 11785 0
11801 11800 -11785 0
-11802 11801 11786 0
-11802 -11801 -11786 0
11802 -11801 11786 0
11802 11801 -11786 0
-11803 11802 11787 0
-11803 -11802 -11787 0
11803 -11802 11787 0
11803 11802 -11787 0
-11804 11803 11788 0
-11804 -11803 -11788 0
11804 -11803 11788 0
11804 11803 -11788 0
-11805 11804 11789 0
-11805 -11804 -11789 0
11805 -11804 11789 0
11805 11804 -11789 0
-11806 11805 11790 0
-11806 -11805 -11790 0
11806 -11805 11790 0
11806 11805 -11790 0
-11807 11806 11791 0
-11807 -11806 -11791 0
11807 -11806 11791 0
11807 11806 -11791 0
-11808 11807 11792 0
-11808 -11807 -11792 0
11808 -11807 11792 0
11808 11807 -11792 0
-11809 11808 11793 0
-11809 -11808 -11793 0
11809 -11808 11793 0
11809 11808 -11793 0
-11809 0
-11810 11562 0
-11810 40 0
11810 -11562 -40 0
-11811 11564 0
-11811 46 0
11811 -11564 -46 0
-11812 11566 0
-11812 39 0
11812 -11566 -39 0
-11813 11568 0
-11813 47 0
11813 -11568 -47 0
-11814 11570 0
-11814 42 0
11814 -11570 -42 0
-11815 11572 0
-11815 44 0
11815 -11572 -44 0
-11816 11574 0
-11816 46 0
11816 -11574 -46 0
-11817 11576 0
-11817 40 0
11817 -11576 -40 0
-11818 11578 0
-11818 42 0
11818 -11578 -42 0
-11819 11580 0
-11819 44 0
11819 -11580 -44 0
-11820 11582 0
-11820 39 0
11820 -11582 -39 0
-11821 11584 0
-11821 47 0
11821 -11584 -47 0
-11822 11586 0
-11822 88 0
11822 -11586 -88 0
-11823 11588 0
-11823 94 0
11823 -11588 -94 0
-11824 11590 0
-11824 136 0
11824 -11590 -136 0
-11825 11592 0
-11825 142 0
11825 -11592 -142 0
-11826 11594 0
-11826 184 0
11826 -11594 -184 0
-11827 11810 11811 0
-11827 -11810 -11811 0
11827 -11810 11811 0
11827 11810 -11811 0
-11828 11827 11812 0
-11828 -11827 -11812 0
11828 -11827 11812 0
11828 11827 -11812 0
-11829 11828 11813 0
-11829 -11828 -11813 0
11829 -11828 11813 0
11829 11828 -11813 0
-11830 11829 11814 0
-11830 -11829 -11814 0
11830 -11829 11814 0
11830 11829 -11814 0
-11831 11830 11815 0
-11831 -11830 -11815 0
11831 -11830 11815 0
11831 11830 -11815 0
-11832 11831 11816 0
-11832 -11831 -11816 0
11832 -11831 11816 0
11832 11831 -11816 0
-11833 11832 11817 0
-11833 -11832 -11817 0
11833 -11832 11817 0
11833 11832 -11817 0
-11834 11833 11818 0
-11834 -11833 -11818 0
11834 -11833 11818 0
11834 11833 -11818 0
-11835 11834 11819 0
-11835 -11834 -11819 0
11835 -11834 11819 0
11835 11834 -11819 0
-11836 11835 11820 0
-11836 -11835 -11820 0
11836 -11835 11820 0
11836 11835 -11820 0
-11837 11836 11821 0
-11837 -11836 -11821 0
11837 -11836 11821 0
11837 11836 -11821 0
-11838 11837 11822 0
-11838 -11837 -11822 0
11838 -11837 11822 0
11838 11837 -11822 0
-11839 11838 11823 0
-11839 -11838 -11823 0
11839 -11838 11823 0
11839 11838 -11823 0
-11840 11839 11824 0
-11840 -11839 -11824 0
11840 -11839 11824 0
11840 11839 -11824 0
-11841 11840 11825 0
-11841 -11840 -11825 0
11841 -11840 11825 0
11841 11840 -11825 0
-11842 11841 11826 0
-11842 -11841 -11826 0
11842 -11841 11826 0
11842 11841 -11826 0
-11842 0
-11843 11562 0
-11843 41 0
11843 -11562 -41 0
-11844 11564 0
-11844 41 0
11844 -11564 -41 0
-11845 11566 0
-11845 45 0
11845 -11566 -45 0
-11846 11568 0
-11846 37 0
11846 -11568 -37 0
-11847 11570 0
-11847 45 0
11847 -11570 -45 0
-11848 11572 0
-11848 37 0
11848 -11572 -37 0
-11849 11574 0
-11849 35 0
11849 -11574 -35 0
-11850 11576 0
-11850 35 0
11850 -11576 -35 0
-11851 11578 0
-11851 36 0
11851 -11578 -36 0
-11852 11580 0
-11852 34 0
11852 -11580 -34 0
-11853 11582 0
-11853 36 0
11853 -11582 -36 0
-11854 11584 0
-11854 34 0
11854 -11584 -34 0
-11855 11586 0
-11855 89 0
11855 -11586 -89 0
-11856 11588 0
-11856 83 0
11856 -11588 -83 0
-11857 11590 0
-11857 137 0
11857 -11590 -137 0
-11858 11592 0
-11858 131 0
11858 -11592 -131 0
-11859 11594 0
-11859 185 0
11859 -11594 -185 0
-11860 11843 11844 0
-11860 -11843 -11844 0
11860 -11843 11844 0
11860 11843 -11844 0
-11861 11860 11845 0
-11861 -11860 -11845 0
11861 -11860 11845 0
11861 11860 -11845 0
-11862 11861 11846 0
-11862 -11861 -11846 0
11862 -11861 11846 0
11862 11861 -11846 0
-11863 11862 11847 0
-11863 -11862 -11847 0
11863 -11862 11847 0
11863 11862 -11847 0
-11864 11863 11848 0
-11864 -11863 -11848 0
11864 -11863 11848 0
11864 11863 -11848 0
-11865 11864 11849 0
-11865 -11864 -11849 0
11865 -11864 11849 0
11865 11864 -11849 0
-11866 11865 11850 0
-11866 -11865 -11850 0
11866 -11865 11850 0
11866 11865 -11850 0
-11867 11866 11851 0
-11867 -11866 -11851 0
11867 -11866 11851 0
11867 11866 -11851 0
-11868 11867 11852 0
-11868 -11867 -11852 0
11868 -11867 11852 0
11868 11867 -11852 0
-11869 11868 11853 0
-11869 -11868 -11853 0
11869 -11868 11853 0
11869 11868 -11853 0
-11870 11869 11854 0
-11870 -11869 -11854 0
11870 -11869 11854 0
11870 11869 -11854 0
-11871 11870 11855 0
-11871 -11870 -11855 0
11871 -11870 11855 0
11871 11870 -11855 0
-11872 11871 11856 0
-11872 -11871 -11856 0
11872 -11871 11856 0
11872 11871 -11856 0
-11873 11872 11857 0
-11873 -11872 -11857 0
11873 -11872 11857 0
11873 11872 -11857 0
-11874 11873 11858 0
-11874 -11873 -11858 0
11874 -11873 11858 0
11874 11873 -11858 0
-11875 11874 11859 0
-11875 -11874 -11859 0
11875 -11874 11859 0
11875 11874 -11859 0
-11875 0
-11876 11562 0
-11876 42 0
11876 -11562 -42 0
-11877 11564 0
-11877 44 0
11877 -11564 -44 0
-11878 11566 0
-11878 46 0
11878 -11566 -46 0
-11879 11568 0
-11879 40 0
11879 -11568 -40 0
-11880 11570 0
-11880 47 0
11880 -11570 -47 0
-11881 11572 0
-11881 39 0
11881 -11572 -39 0
-11882 11574 0
-11882 39 0
11882 -11574 -39 0
-11883 11576 0
-11883 47 0
11883 -11576 -47 0
-11884 11578 0
-11884 40 0
11884 -11578 -40 0
-11885 11580 0
-11885 46 0
11885 -11580 -46 0
-11886 11582 0
-11886 44 0
11886 -11582 -44 0
-11887 11584 0
-11887 42 0
11887 -11584 -42 0
-11888 11586 0
-11888 90 0
11888 -11586 -90 0
-11889 11588 0
-11889 87 0
11889 -11588 -87 0
-11890 11590 0
-11890 138 0
11890 -11590 -138 0
-11891 11592 0
-11891 135 0
11891 -11592 -135 0
-11892 11594 0
-11892 186 0
11892 -11594 -186 0
-11893 11876 11877 0
-11893 -11876 -11877 0
11893 -11876 11877 0
11893 11876 -11877 0
-11894 11893 11878 0
-11894 -11893 -11878 0
11894 -11893 11878 0
11894 11893 -11878 0
-11895 11894 11879 0
-11895 -11894 -11879 0
11895 -11894 11879 0
11895 11894 -11879 0
-11896 11895 11880 0
-11896 -11895 -11880 0
11896 -11895 11880 0
11896 11895 -11880 0
-11897 11896 11881 0
-11897 -11896 -11881 0
11897 -11896 11881 0
11897 11896 -11881 0
-11898 11897 11882 0
-11898 -11897 -11882 0
11898 -11897 11882 0
11898 11897 -11882 0
-11899 11898 11883 0
-11899 -11898 -11883 0
11899 -11898 11883 0
11899 11898 -11883 0
-11900 11899 11884 0
-11900 -11899 -11884 0
11900 -11899 11884 0
11900 11899 -11884 0
-11901 11900 11885 0
-11901 -11900 -11885 0
11901 -11900 11885 0
11901 11900 -11885 0
-11902 11901 11886 0
-11902 -11901 -11886 0
11902 -11901 11886 0
11902 11901 -11886 0
-11903 11902 11887 0
-11903 -11902 -11887 0
11903 -11902 11887 0
11903 11902 -11887 0
-11904 11903 11888 0
-11904 -11903 -11888 0
11904 -11903 11888 0
11904 11903 -11888 0
-11905 11904 11889 0
-11905 -11904 -11889 0
11905 -11904 11889 0
11905 11904 -11889 0
-11906 11905 11890 0
-11906 -11905 -11890 0
11906 -11905 11890 0
11906 11905 -11890 0
-11907 11906 11891 0
-11907 -11906 -11891 0
11907 -11906 11891 0
11907 11906 -11891 0
-11908 11907 11892 0
-11908 -11907 -11892 0
11908 -11907 11892 0
11908 11907 -11892 0
-11908 0
-11909 11562 0
-11909 43 0
11909 -11562 -43 0
-11910 11564 0
-11910 43 0
11910 -11564 -43 0
-11911 11566 0
-11911 48 0
11911 -11566 -48 0
-11912 11568 0
-11912 38 0
11912 -11568 -38 0
-11913 11570 0
-11913 48 0
11913 -11570 -48 0
-11914 11572 0
-11914 38 0
11914 -11572 -38 0
-11915 11574 0
-11915 43 0
11915 -11574 -43 0
-11916 11576 0
-11916 43 0
11916 -11576 -43 0
-11917 11578 0
-11917 48 0
11917 -11578 -48 0
-11918 11580 0
-11918 38 0
11918 -11580 -38 0
-11919 11582 0
-11919 48 0
11919 -11582 -48 0
-11920 11584 0
-11920 38 0
11920 -11584 -38 0
-11921 11586 0
-11921 91 0
11921 -11586 -91 0
-11922 11588 0
-11922 91 0
11922 -11588 -91 0
-11923 11590 0
-11923 139 0
11923 -11590 -139 0
-11924 11592 0
-11924 139 0
11924 -11592 -139 0
-11925 11594 0
-11925 187 0
11925 -11594 -187 0
-11926 11909 11910 0
-11926 -11909 -11910 0
11926 -11909 11910 0
11926 11909 -11910 0
-11927 11926 11911 0
-11927 -11926 -11911 0
11927 -11926 11911 0
11927 11926 -11911 0
-11928 11927 11912 0
-11928 -11927 -11912 0
11928 -11927 11912 0
11928 11927 -11912 0
-11929 11928 11913 0
-11929 -11928 -11913 0
11929 -11928 11913 0
11929 11928 -11913 0
-11930 11929 11914 0
-11930 -11929 -11914 0
11930 -11929 11914 0
11930 11929 -11914 0
-11931 11930 11915 0
-11931 -11930 -11915 0
11931 -11930 11915 0
11931 11930 -11915 0
-11932 11931 11916 0
-11932 -11931 -11916 0
11932 -11931 11916 0
11932 11931 -11916 0
-11933 11932 11917 0
-11933 -11932 -11917 0
11933 -11932 11917 0
11933 11932 -11917 0
-11934 11933 11918 0
-11934 -11933 -11918 0
11934 -11933 11918 0
11934 11933 -11918 0
-11935 11934 11919 0
-11935 -11934 -11919 0
11935 -11934 11919 0
11935 11934 -11919 0
-11936 11935 11920 0
-11936 -11935 -11920 0
11936 -11935 11920 0
11936 11935 -11920 0
-11937 11936 11921 0
-11937 -11936 -11921 0
11937 -11936 11921 0
11937 11936 -11921 0
-11938 11937 11922 0
-11938 -11937 -11922 0
11938 -11937 11922 0
11938 11937 -11922 0
-11939 11938 11923 0
-11939 -11938 -11923 0
11939 -11938 11923 0
11939 11938 -11923 0
-11940 11939 11924 0
-11940 -11939 -11924 0
11940 -11939 11924 0
11940 11939 -11924 0
-11941 11940 11925 0
-11941 -11940 -11925 0
11941 -11940 11925 0
11941 11940 -11925 0
-11941 0
-11942 11562 0
-11942 44 0
11942 -11562 -44 0
-11943 11564 0
-11943 42 0
11943 -11564 -42 0
-11944 11566 0
-11944 47 0
11944 -11566 -47 0
-11945 11568 0
-11945 39 0
11945 -11568 -39 0
-11946 11570 0
-11946 46 0
11946 -11570 -46 0
-11947 11572 0
-11947 40 0
11947 -11572 -40 0
-11948 11574 0
-11948 47 0
11948 -11574 -47 0
-11949 11576 0
-11949 39 0
11949 -11576 -39 0
-11950 11578 0
-11950 44 0
11950 -11578 -44 0
-11951 11580 0
-11951 42 0
11951 -11580 -42 0
-11952 11582 0
-11952 40 0
11952 -11582 -40 0
-11953 11584 0
-11953 46 0
11953 -11584 -46 0
-11954 11586 0
-11954 92 0
11954 -11586 -92 0
-11955 11588 0
-11955 95 0
11955 -11588 -95 0
-11956 11590 0
-11956 140 0
11956 -11590 -140 0
-11957 11592 0
-11957 143 0
11957 -11592 -143 0
-11958 11594 0
-11958 188 0
11958 -11594 -188 0
-11959 11942 11943 0
-11959 -11942 -11943 0
11959 -11942 11943 0
11959 11942 -11943 0
-11960 11959 11944 0
-11960 -11959 -11944 0
11960 -11959 11944 0
11960 11959 -11944 0
-11961 11960 11945 0
-11961 -11960 -11945 0
11961 -11960 11945 0
11961 11960 -11945 0
-11962 11961 11946 0
-11962 -11961 -11946 0
11962 -11961 11946 0
11962 11961 -11946 0
-11963 11962 11947 0
-11963 -11962 -11947 0
11963 -11962 11947 0
11963 11962 -11947 0
-11964 11963 11948 0
-11964 -11963 -11948 0
11964 -11963 11948 0
11964 11963 -11948 0
-11965 11964 11949 0
-11965 -11964 -11949 0
11965 -11964 11949 0
11965 11964 -11949 0
-11966 11965 11950 0
-11966 -11965 -11950 0
11966 -11965 11950 0
11966 11965 -11950 0
-11967 11966 11951 0
-11967 -11966 -11951 0
11967 -11966 11951 0
11967 11966 -11951 0
-11968 11967 11952 0
-11968 -11967 -11952 0
11968 -11967 11952 0
11968 11967 -11952 0
-11969 11968 11953 0
-11969 -11968 -11953 0
11969 -11968 11953 0
11969 11968 -11953 0
-11970 11969 11954 0
-11970 -11969 -11954 0
11970 -11969 11954 0
11970 11969 -11954 0
-11971 11970 11955 0
-11971 -11970 -11955 0
11971 -11970 11955 0
11971 11970 -11955 0
-11972 11971 11956 0
-11972 -11971 -11956 0
11972 -11971 11956 0
11972 11971 -11956 0
-11973 11972 11957 0
-11973 -11972 -11957 0
11973 -11972 11957 0
11973 11972 -11957 0
-11974 11973 11958 0
-11974 -11973 -11958 0
11974 -11973 11958 0
11974 11973 -11958 0
-11974 0
-11975 11562 0
-11975 45 0
11975 -11562 -45 0
-11976 11564 0
-11976 37 0
11976 -11564 -37 0
-11977 11566 0
-11977 41 0
11977 -11566 -41 0
-11978 11568 0
-11978 41 0
11978 -11568 -41 0
-11979 11570 0
-11979 37 0
11979 -11570 -37 0
-11980 11572 0
-11980 45 0
11980 -11572 -45 0
-11981 11574 0
-11981 36 0
11981 -11574 -36 0
-11982 11576 0
-11982 34 0
11982 -11576 -34 0
-11983 11578 0
-11983 35 0
11983 -11578 -35 0
-11984 11580 0
-11984 35 0
11984 -11580 -35 0
-11985 11582 0
-11985 34 0
11985 -11582 -34 0
-11986 11584 0
-11986 36 0
11986 -11584 -36 0
-11987 11586 0
-11987 93 0
11987 -11586 -93 0
-11988 11588 0
-11988 84 0
11988 -11588 -84 0
-11989 11590 0
-11989 141 0
11989 -11590 -141 0
-11990 11592 0
-11990 132 0
11990 -11592 -132 0
-11991 11594 0
-11991 189 0
11991 -11594 -189 0
-11992 11975 11976 0
-11992 -11975 -11976 0
11992 -11975 11976 0
11992 11975 -11976 0
-11993 11992 11977 0
-11993 -11992 -11977 0
11993 -11992 11977 0
11993 11992 -11977 0
-11994 11993 11978 0
-11994 -11993 -11978 0
11994 -11993 11978 0
11994 11993 -11978 0
-11995 11994 11979 0
-11995 -11994 -11979 0
11995 -11994 11979 0
11995 11994 -11979 0
-11996 11995 11980 0
-11996 -11995 -11980 0
11996 -11995 11980 0
11996 11995 -11980 0
-11997 11996 11981 0
-11997 -11996 -11981 0
11997 -11996 11981 0
11997 11996 -11981 0
-11998 11997 11982 0
-11998 -11997 -11982 0
11998 -11997 11982 0
11998 11997 -11982 0
-11999 11998 11983 0
-11999 -11998 -11983 0
11999 -11998 11983 0
11999 11998 -11983 0
-12000 11999 11984 0
-12000 -11999 -11984 0
12000 -11999 11984 0
12000 11999 -11984 0
-12001 12000 11985 0
-12001 -12000 -11985 0
12001 -12000 11985 0
12001 12000 -11985 0
-12002 12001 11986 0
-12002 -12001 -11986 0
12002 -12001 11986 0
12002 12001 -11986 0
-12003 12002 11987 0
-12003 -12002 -11987 0
12003 -12002 11987 0
12003 12002 -11987 0
-12004 12003 11988 0
-12004 -12003 -11988 0
12004 -12003 11988 0
12004 12003 -11988 0
-12005 12004 11989 0
-12005 -12004 -11989 0
12005 -12004 11989 0
12005 12004 -11989 0
-12006 12005 11990 0
-12006 -12005 -11990 0
12006 -12005 11990 0
12006 12005 -11990 0
-12007 12006 11991 0
-12007 -12006 -11991 0
12007 -12006 11991 0
12007 12006 -11991 0
-12007 0
-12008 11562 0
-12008 46 0
12008 -11562 -46 0
-12009 11564 0
-12009 40 0
12009 -11564 -40 0
-12010 11566 0
-12010 42 0
12010 -11566 -42 0
-12011 11568 0
-12011 44 0
12011 -11568 -44 0
-12012 11570 0
-12012 39 0
12012 -11570 -39 0
-12013 11572 0
-12013 47 0
12013 -11572 -47 0
-12014 11574 0
-12014 40 0
12014 -11574 -40 0
-12015 11576 0
-12015 46 0
12015 -11576 -46 0
-12016 11578 0
-12016 39 0
12016 -11578 -39 0
-12017 11580 0
-12017 47 0
12017 -11580 -47 0
-12018 11582 0
-12018 42 0
12018 -11582 -42 0
-12019 11584 0
-12019 44 0
12019 -11584 -44 0
-12020 11586 0
-12020 94 0
12020 -11586 -94 0
-12021 11588 0
-12021 88 0
12021 -11588 -88 0
-12022 11590 0
-12022 142 0
12022 -11590 -142 0
-12023 11592 0
-12023 136 0
12023 -11592 -136 0
-12024 11594 0
-12024 190 0
12024 -11594 -190 0
-12025 12008 12009 0
-12025 -12008 -12009 0
12025 -12008 12009 0
12025 12008 -12009 0
-12026 12025 12010 0
-12026 -12025 -12010 0
12026 -12025 12010 0
12026 12025 -12010 0
-12027 12026 12011 0
-12027 -12026 -12011 0
12027 -12026 12011 0
12027 12026 -12011 0
-12028 12027 12012 0
-12028 -12027 -12012 0
12028 -12027 12012 0
12028 12027 -12012 0
-12029 12028 12013 0
-12029 -12028 -12013 0
12029 -12028 12013 0
12029 12028 -12013 0
-12030 12029 12014 0
-12030 -12029 -12014 0
12030 -12029 12014 0
12030 12029 -12014 0
-12031 12030 12015 0
-12031 -12030 -12015 0
12031 -12030 12015 0
12031 12030 -12015 0
-12032 12031 12016 0
-12032 -12031 -12016 0
12032 -12031 12016 0
12032 12031 -12016 0
-12033 12032 12017 0
-12033 -12032 -12017 0
12033 -12032 12017 0
12033 12032 -12017 0
-12034 12033 12018 0
-12034 -12033 -12018 0
12034 -12033 12018 0
12034 12033 -12018 0
-12035 12034 12019 0
-12035 -12034 -12019 0
12035 -12034 12019 0
12035 12034 -12019 0
-12036 12035 12020 0
-12036 -12035 -12020 0
12036 -12035 12020 0
12036 12035 -12020 0
-12037 12036 12021 0
-12037 -12036 -12021 0
12037 -12036 12021 0
12037 12036 -12021 0
-12038 12037 12022 0
-12038 -12037 -12022 0
12038 -12037 12022 0
12038 12037 -12022 0
-12039 12038 12023 0
-12039 -12038 -12023 0
12039 -12038 12023 0
12039 12038 -12023 0
-12040 12039 12024 0
-12040 -12039 -12024 0
12040 -12039 12024 0
12040 12039 -12024 0
-12040 0
-12041 11562 0
-12041 47 0
12041 -11562 -47 0
-12042 11564 0
-12042 39 0
12042 -11564 -39 0
-12043 11566 0
-12043 44 0
12043 -11566 -44 0
-12044 11568 0
-12044 42 0
12044 -11568 -42 0
-12045 11570 0
-12045 40 0
12045 -11570 -40 0
-12046 11572 0
-12046 46 0
12046 -11572 -46 0
-12047 11574 0
-12047 44 0
12047 -11574 -44 0
-12048 11576 0
-12048 42 0
12048 -11576 -42 0
-12049 11578 0
-12049 47 0
12049 -11578 -47 0
-12050 11580 0
-12050 39 0
12050 -11580 -39 0
-12051 11582 0
-12051 46 0
12051 -11582 -46 0
-12052 11584 0
-12052 40 0
12052 -11584 -40 0
-12053 11586 0
-12053 95 0
12053 -11586 -95 0
-12054 11588 0
-12054 92 0
12054 -11588 -92 0
-12055 11590 0
-12055 143 0
12055 -11590 -143 0
-12056 11592 0
-12056 140 0
12056 -11592 -140 0
-12057 11594 0
-12057 191 0
12057 -11594 -191 0
-12058 12041 12042 0
-12058 -12041 -12042 0
12058 -12041 12042 0
12058 12041 -12042 0
-12059 12058 12043 0
-12059 -12058 -12043 0
12059 -12058 12043 0
12059 12058 -12043 0
-12060 12059 12044 0
-12060 -12059 -12044 0
12060 -12059 12044 0
12060 12059 -12044 0
-12061 12060 12045 0
-12061 -12060 -12045 0
12061 -12060 12045 0
12061 12060 -12045 0
-12062 12061 12046 0
-12062 -12061 -12046 0
12062 -12061 12046 0
12062 12061 -12046 0
-12063 12062 12047 0
-12063 -12062 -12047 0
12063 -12062 12047 0
12063 12062 -12047 0
-12064 12063 12048 0
-12064 -12063 -12048 0
12064 -12063 12048 0
12064 12063 -12048 0
-12065 12064 12049 0
-12065 -12064 -12049 0
12065 -12064 12049 0
12065 12064 -12049 0
-12066 12065 12050 0
-12066 -12065 -12050 0
12066 -12065 12050 0
12066 12065 -12050 0
-12067 12066 12051 0
-12067 -12066 -12051 0
12067 -12066 12051 0
12067 12066 -12051 0
-12068 12067 12052 0
-12068 -12067 -12052 0
12068 -12067 12052 0
12068 12067 -12052 0
-12069 12068 12053 0
-12069 -12068 -12053 0
12069 -12068 12053 0
12069 12068 -12053 0
-12070 12069 12054 0
-12070 -12069 -12054 0
12070 -12069 12054 0
12070 12069 -12054 0
-12071 12070 12055 0
-12071 -12070 -12055 0
12071 -12070 12055 0
12071 12070 -12055 0
-12072 12071 12056 0
-12072 -12071 -12056 0
12072 -12071 12056 0
12072 12071 -12056 0
-12073 12072 12057 0
-12073 -12072 -12057 0
12073 -12072 12057 0
12073 12072 -12057 0
-12073 0
-12074 11562 0
-12074 48 0
12074 -11562 -48 0
-12075 11564 0
-12075 38 0
12075 -11564 -38 0
-12076 11566 0
-12076 43 0
12076 -11566 -43 0
-12077 11568 0
-12077 43 0
12077 -11568 -43 0
-12078 11570 0
-12078 38 0
12078 -11570 -38 0
-12079 11572 0
-12079 48 0
12079 -11572 -48 0
-12080 11574 0
-12080 48 0
12080 -11574 -48 0
-12081 11576 0
-12081 38 0
12081 -11576 -38 0
-12082 11578 0
-12082 43 0
12082 -11578 -43 0
-12083 11580 0
-12083 43 0
12083 -11580 -43 0
-12084 11582 0
-12084 38 0
12084 -11582 -38 0
-12085 11584 0
-12085 48 0
12085 -11584 -48 0
-12086 11586 0
-12086 96 0
12086 -11586 -96 0
-12087 11588 0
-12087 96 0
12087 -11588 -96 0
-12088 11590 0
-12088 144 0
12088 -11590 -144 0
-12089 11592 0
-12089 144 0
12089 -11592 -144 0
-12090 11594 0
-12090 192 0
12090 -11594 -192 0
-12091 12074 12075 0
-12091 -12074 -12075 0
12091 -12074 12075 0
12091 12074 -12075 0
-12092 12091 12076 0
-12092 -12091 -12076 0
12092 -12091 12076 0
12092 12091 -12076 0
-12093 12092 12077 0
-12093 -12092 -12077 0
12093 -12092 12077 0
12093 12092 -12077 0
-12094 12093 12078 0
-12094 -12093 -12078 0
12094 -12093 12078 0
12094 12093 -12078 0
-12095 12094 12079 0
-12095 -12094 -12079 0
12095 -12094 12079 0
12095 12094 -12079 0
-12096 12095 12080 0
-12096 -12095 -12080 0
12096 -12095 12080 0
12096 12095 -12080 0
-12097 12096 12081 0
-12097 -12096 -12081 0
12097 -12096 12081 0
12097 12096 -12081 0
-12098 12097 12082 0
-12098 -12097 -12082 0
12098 -12097 12082 0
12098 12097 -12082 0
-12099 12098 12083 0
-12099 -12098 -12083 0
12099 -12098 12083 0
12099 12098 -12083 0
-12100 12099 12084 0
-12100 -12099 -12084 0
12100 -12099 12084 0
12100 12099 -12084 0
-12101 12100 12085 0
-12101 -12100 -12085 0
12101 -12100 12085 0
12101 12100 -12085 0
-12102 12101 12086 0
-12102 -12101 -12086 0
12102 -12101 12086 0
12102 12101 -12086 0
-12103 12102 12087 0
-12103 -12102 -12087 0
12103 -12102 12087 0
12103 12102 -12087 0
-12104 12103 12088 0
-12104 -12103 -12088 0
12104 -12103 12088 0
12104 12103 -12088 0
-12105 12104 12089 0
-12105 -12104 -12089 0
12105 -12104 12089 0
12105 12104 -12089 0
-12106 12105 12090 0
-12106 -12105 -12090 0
12106 -12105 12090 0
12106 12105 -12090 0
-12106 0
-12107 8 0
-12107 30 0
12107 -8 -30 0
-12108 12107 0
-12108 33 0
12108 -12107 -33 0
-12109 16 0
-12109 32 0
12109 -16 -32 0
-12110 12109 0
-12110 33 0
12110 -12109 -33 0
-12111 12 0
-12111 31 0
12111 -12 -31 0
-12112 12111 0
-12112 33 0
12112 -12111 -33 0
-12113 56 0
-12113 78 0
12113 -56 -78 0
-12114 12113 0
-12114 81 0
12114 -12113 -81 0
-12115 104 0
-12115 126 0
12115 -104 -126 0
-12116 12115 0
-12116 129 0
12116 -12115 -129 0
-12117 152 0
-12117 174 0
12117 -152 -174 0
-12118 12117 0
-12118 177 0
12118 -12117 -177 0
-12119 12108 12110 0
-12119 -12108 -12110 0
12119 -12108 12110 0
12119 12108 -12110 0
-12120 12119 12108 0
-12120 -12119 -12108 0
12120 -12119 12108 0
12120 12119 -12108 0
-12121 12120 12110 0
-12121 -12120 -12110 0
12121 -12120 12110 0
12121 12120 -12110 0
-12122 12121 12112 0
-12122 -12121 -12112 0
12122 -12121 12112 0
12122 12121 -12112 0
-12123 12122 12112 0
-12123 -12122 -12112 0
12123 -12122 12112 0
12123 12122 -12112 0
-12124 12123 12108 0
-12124 -12123 -12108 0
12124 -12123 12108 0
12124 12123 -12108 0
-12125 12124 12110 0
-12125 -12124 -12110 0
12125 -12124 12110 0
12125 12124 -12110 0
-12126 12125 12108 0
-12126 -12125 -12108 0
12126 -12125 12108 0
12126 12125 -12108 0
-12127 12126 12110 0
-12127 -12126 -12110 0
12127 -12126 12110 0
12127 12126 -12110 0
-12128 12127 12112 0
-12128 -12127 -12112 0
12128 -12127 12112 0
12128 12127 -12112 0
-12129 12128 12112 0
-12129 -12128 -12112 0
12129 -12128 12112 0
12129 12128 -12112 0
-12130 12129 12114 0
-12130 -12129 -12114 0
12130 -12129 12114 0
12130 12129 -12114 0
-12131 12130 12114 0
-12131 -12130 -12114 0
12131 -12130 12114 0
12131 12130 -12114 0
-12132 12131 12116 0
-12132 -12131 -12116 0
12132 -12131 12116 0
12132 12131 -12116 0
-12133 12132 12116 0
-12133 -12132 -12116 0
12133 -12132 12116 0
12133 12132 -12116 0
-12134 12133 12118 0
-12134 -12133 -12118 0
12134 -12133 12118 0
12134 12133 -12118 0
-12134 0
-12135 12107 0
-12135 34 0
12135 -12107 -34 0
-12136 12109 0
-12136 36 0
12136 -12109 -36 0
-12137 12111 0
-12137 35 0
12137 -12111 -35 0
-12138 12107 0
-12138 37 0
12138 -12107 -37 0
-12139 12109 0
-12139 45 0
12139 -12109 -45 0
-12140 12111 0
-12140 41 0
12140 -12111 -41 0
-12141 12113 0
-12141 82 0
12141 -12113 -82 0
-12142 12113 0
-12142 85 0
12142 -12113 -85 0
-12143 12115 0
-12143 130 0
12143 -12115 -130 0
-12144 12115 0
-12144 133 0
12144 -12115 -133 0
-12145 12117 0
-12145 178 0
12145 -12117 -178 0
-12146 12135 12136 0
-12146 -12135 -12136 0
12146 -12135 12136 0
12146 12135 -12136 0
-12147 12146 12135 0
-12147 -12146 -12135 0
12147 -12146 12135 0
12147 12146 -12135 0
-12148 12147 12136 0
-12148 -12147 -12136 0
12148 -12147 12136 0
12148 12147 -12136 0
-12149 12148 12137 0
-12149 -12148 -12137 0
12149 -12148 12137 0
12149 12148 -12137 0
-12150 12149 12137 0
-12150 -12149 -12137 0
12150 -12149 12137 0
12150 12149 -12137 0
-12151 12150 12138 0
-12151 -12150 -12138 0
12151 -12150 12138 0
12151 12150 -12138 0
-12152 12151 12139 0
-12152 -12151 -12139 0
12152 -12151 12139 0
12152 12151 -12139 0
-12153 12152 12138 0
-12153 -12152 -12138 0
12153 -12152 12138 0
12153 12152 -12138 0
-12154 12153 12139 0
-12154 -12153 -12139 0
12154 -12153 12139 0
12154 12153 -12139 0
-12155 12154 12140 0
-12155 -12154 -12140 0
12155 -12154 12140 0
12155 12154 -12140 0
-12156 12155 12140 0
-12156 -12155 -12140 0
12156 -12155 12140 0
12156 12155 -12140 0
-12157 12156 12141 0
-12157 -12156 -12141 0
12157 -12156 12141 0
12157 12156 -12141 0
-12158 12157 12142 0
-12158 -12157 -12142 0
12158 -12157 12142 0
12158 12157 -12142 0
-12159 12158 12143 0
-12159 -12158 -12143 0
12159 -12158 12143 0
12159 12158 -12143 0
-12160 12159 12144 0
-12160 -12159 -12144 0
12160 -12159 12144 0
12160 12159 -12144 0
-12161 12160 12145 0
-12161 -12160 -12145 0
12161 -12160 12145 0
12161 12160 -12145 0
-12161 0
-12162 12107 0
-12162 35 0
12162 -12107 -35 0
-12163 12109 0
-12163 35 0
12163 -12109 -35 0
-12164 12107 0
-12164 36 0
12164 -12107 -36 0
-12165 12109 0
-12165 34 0
12165 -12109 -34 0
-12166 12111 0
-12166 36 0
12166 -12111 -36 0
-12167 12111 0
-12167 34 0
12167 -12111 -34 0
-12168 12107 0
-12168 41 0
12168 -12107 -41 0
-12169 12109 0
-12169 41 0
12169 -12109 -41 0
-12170 12107 0
-12170 45 0
12170 -12107 -45 0
-12171 12109 0
-12171 37 0
12171 -12109 -37 0
-12172 12111 0
-12172 45 0
12172 -12111 -45 0
-12173 12111 0
-12173 37 0
12173 -12111 -37 0
-12174 12113 0
-12174 83 0
12174 -12113 -83 0
-12175 12113 0
-12175 89 0
12175 -12113 -89 0
-12176 12115 0
-12176 131 0
12176 -12115 -131 0
-12177 12115 0
-12177 137 0
12177 -12115 -137 0
-12178 12117 0
-12178 179 0
12178 -12117 -179 0
-12179 12162 12163 0
-12179 -12162 -12163 0
12179 -12162 12163 0
12179 12162 -12163 0
-12180 12179 12164 0
-12180 -12179 -12164 0
12180 -12179 12164 0
12180 12179 -12164 0
-12181 12180 12165 0
-12181 -12180 -12165 0
12181 -12180 12165 0
12181 12180 -12165 0
-12182 12181 12166 0
-12182 -12181 -12166 0
12182 -12181 12166 0
12182 12181 -12166 0
-12183 12182 12167 0
-12183 -12182 -12167 0
12183 -12182 12167 0
12183 12182 -12167 0
-12184 12183 12168 0
-12184 -12183 -12168 0
12184 -12183 12168 0
12184 12183 -12168 0
-12185 12184 12169 0
-12185 -12184 -12169 0
12185 -12184 12169 0
12185 12184 -12169 0
-12186 12185 12170 0
-12186 -12185 -12170 0
12186 -12185 12170 0
12186 12185 -12170 0
-12187 12186 12171 0
-12187 -12186 -12171 0
12187 -12186 12171 0
12187 12186 -12171 0
-12188 12187 12172 0
-12188 -12187 -12172 0
12188 -12187 12172 0
12188 12187 -12172 0
-12189 12188 12173 0
-12189 -12188 -12173 0
12189 -12188 12173 0
12189 12188 -12173 0
-12190 12189 12174 0
-12190 -12189 -12174 0
12190 -12189 12174 0
12190 12189 -12174 0
-12191 12190 12175 0
-12191 -12190 -12175 0
12191 -12190 12175 0
12191 12190 -12175 0
-12192 12191 12176 0
-12192 -12191 -12176 0
12192 -12191 12176 0
12192 12191 -12176 0
-12193 12192 12177 0
-12193 -12192 -12177 0
12193 -12192 12177 0
12193 12192 -12177 0
-12194 12193 12178 0
-12194 -12193 -12178 0
12194 -12193 12178 0
12194 12193 -12178 0
-12194 0
-12195 12107 0
-12195 38 0
12195 -12107 -38 0
-12196 12109 0
-12196 48 0
12196 -12109 -48 0
-12197 12111 0
-12197 43 0
12197 -12111 -43 0
-12198 12113 0
-12198 86 0
12198 -12113 -86 0
-12199 12115 0
-12199 134 0
12199 -12115 -134 0
-12200 12117 0
-12200 182 0
12200 -12117 -182 0
-12201 12195 12196 0
-12201 -12195 -12196 0
12201 -12195 12196 0
12201 12195 -12196 0
-12202 12201 12195 0
-12202 -12201 -12195 0
12202 -12201 12195 0
12202 12201 -12195 0
-12203 12202 12196 0
-12203 -12202 -12196 0
12203 -12202 12196 0
12203 12202 -12196 0
-12204 12203 12197 0
-12204 -12203 -12197 0
12204 -12203 12197 0
12204 12203 -12197 0
-12205 12204 12197 0
-12205 -12204 -12197 0
12205 -12204 12197 0
12205 12204 -12197 0
-12206 12205 12195 0
-12206 -12205 -12195 0
12206 -12205 12195 0
12206 12205 -12195 0
-12207 12206 12196 0
-12207 -12206 -12196 0
12207 -12206 12196 0
12207 12206 -12196 0
-12208 12207 12195 0
-12208 -12207 -12195 0
12208 -12207 12195 0
12208 12207 -12195 0
-12209 12208 12196 0
-12209 -12208 -12196 0
12209 -12208 12196 0
12209 12208 -12196 0
-12210 12209 12197 0
-12210 -12209 -12197 0
12210 -12209 12197 0
12210 12209 -12197 0
-12211 12210 12197 0
-12211 -12210 -12197 0
12211 -12210 12197 0
12211 12210 -12197 0
-12212 12211 12198 0
-12212 -12211 -12198 0
12212 -12211 12198 0
12212 12211 -12198 0
-12213 12212 12198 0
-12213 -12212 -12198 0
12213 -12212 12198 0
12213 12212 -12198 0
-12214 12213 12199 0
-12214 -12213 -12199 0
12214 -12213 12199 0
12214 12213 -12199 0
-12215 12214 12199 0
-12215 -12214 -12199 0
12215 -12214 12199 0
12215 12214 -12199 0
-12216 12215 12200 0
-12216 -12215 -12200 0
12216 -12215 12200 0
12216 12215 -12200 0
-12216 0
-12217 12107 0
-12217 39 0
12217 -12107 -39 0
-12218 12109 0
-12218 47 0
12218 -12109 -47 0
-12219 12107 0
-12219 40 0
12219 -12107 -40 0
-12220 12109 0
-12220 46 0
12220 -12109 -46 0
-12221 12111 0
-12221 44 0
12221 -12111 -44 0
-12222 12111 0
-12222 42 0
12222 -12111 -42 0
-12223 12107 0
-12223 42 0
12223 -12107 -42 0
-12224 12109 0
-12224 44 0
12224 -12109 -44 0
-12225 12107 0
-12225 46 0
12225 -12107 -46 0
-12226 12109 0
-12226 40 0
12226 -12109 -40 0
-12227 12111 0
-12227 47 0
12227 -12111 -47 0
-12228 12111 0
-12228 39 0
12228 -12111 -39 0
-12229 12113 0
-12229 87 0
12229 -12113 -87 0
-12230 12113 0
-12230 90 0
12230 -12113 -90 0
-12231 12115 0
-12231 135 0
12231 -12115 -135 0
-12232 12115 0
-12232 138 0
12232 -12115 -138 0
-12233 12117 0
-12233 183 0
12233 -12117 -183 0
-12234 12217 12218 0
-12234 -12217 -12218 0
12234 -12217 12218 0
12234 12217 -12218 0
-12235 12234 12219 0
-12235 -12234 -12219 0
12235 -12234 12219 0
12235 12234 -12219 0
-12236 12235 12220 0
-12236 -12235 -12220 0
12236 -12235 12220 0
12236 12235 -12220 0
-12237 12236 12221 0
-12237 -12236 -12221 0
12237 -12236 12221 0
12237 12236 -12221 0
-12238 12237 12222 0
-12238 -12237 -12222 0
12238 -12237 12222 0
12238 12237 -12222 0
-12239 12238 12223 0
-12239 -12238 -12223 0
12239 -12238 12223 0
12239 12238 -12223 0
-12240 12239 12224 0
-12240 -12239 -12224 0
12240 -12239 12224 0
12240 12239 -12224 0
-12241 12240 12225 0
-12241 -12240 -12225 0
12241 -12240 12225 0
12241 12240 -12225 0
-12242 12241 12226 0
-12242 -12241 -12226 0
12242 -12241 12226 0
12242 12241 -12226 0
-12243 12242 12227 0
-12243 -12242 -12227 0
12243 -12242 12227 0
12243 12242 -12227 0
-12244 12243 12228 0
-12244 -12243 -12228 0
12244 -12243 12228 0
12244 12243 -12228 0
-12245 12244 12229 0
-12245 -12244 -12229 0
12245 -12244 12229 0
12245 12244 -12229 0
-12246 12245 12230 0
-12246 -12245 -12230 0
12246 -12245 12230 0
12246 12245 -12230 0
-12247 12246 12231 0
-12247 -12246 -12231 0
12247 -12246 12231 0
12247 12246 -12231 0
-12248 12247 12232 0
-12248 -12247 -12232 0
12248 -12247 12232 0
12248 12247 -12232 0
-12249 12248 12233 0
-12249 -12248 -12233 0
12249 -12248 12233 0
12249 12248 -12233 0
-12249 0
-12250 12107 0
-12250 43 0
12250 -12107 -43 0
-12251 12109 0
-12251 43 0
12251 -12109 -43 0
-12252 12107 0
-12252 48 0
12252 -12107 -48 0
-12253 12109 0
-12253 38 0
12253 -12109 -38 0
-12254 12111 0
-12254 48 0
12254 -12111 -48 0
-12255 12111 0
-12255 38 0
12255 -12111 -38 0
-12256 12113 0
-12256 91 0
12256 -12113 -91 0
-12257 12115 0
-12257 139 0
12257 -12115 -139 0
-12258 12117 0
-12258 187 0
12258 -12117 -187 0
-12259 12250 12251 0
-12259 -12250 -12251 0
12259 -12250 12251 0
12259 12250 -12251 0
-12260 12259 12252 0
-12260 -12259 -12252 0
12260 -12259 12252 0
12260 12259 -12252 0
-12261 12260 12253 0
-12261 -12260 -12253 0
12261 -12260 12253 0
12261 12260 -12253 0
-12262 12261 12254 0
-12262 -12261 -12254 0
12262 -12261 12254 0
12262 12261 -12254 0
-12263 12262 12255 0
-12263 -12262 -12255 0
12263 -12262 12255 0
12263 12262 -12255 0
-12264 12263 12250 0
-12264 -12263 -12250 0
12264 -12263 12250 0
12264 12263 -12250 0
-12265 12264 12251 0
-12265 -12264 -12251 0
12265 -12264 12251 0
12265 12264 -12251 0
-12266 12265 12252 0
-12266 -12265 -12252 0
12266 -12265 12252 0
12266 12265 -12252 0
-12267 12266 12253 0
-12267 -12266 -12253 0
12267 -12266 12253 0
12267 12266 -12253 0
-12268 12267 12254 0
-12268 -12267 -12254 0
12268 -12267 12254 0
12268 12267 -12254 0
-12269 12268 12255 0
-12269 -12268 -12255 0
12269 -12268 12255 0
12269 12268 -12255 0
-12270 12269 12256 0
-12270 -12269 -12256 0
12270 -12269 12256 0
12270 12269 -12256 0
-12271 12270 12256 0
-12271 -12270 -12256 0
12271 -12270 12256 0
12271 12270 -12256 0
-12272 12271 12257 0
-12272 -12271 -12257 0
12272 -12271 12257 0
12272 12271 -12257 0
-12273 12272 12257 0
-12273 -12272 -12257 0
12273 -12272 12257 0
12273 12272 -12257 0
-12274 12273 12258 0
-12274 -12273 -12258 0
12274 -12273 12258 0
12274 12273 -12258 0
-12274 0
-12275 12107 0
-12275 44 0
12275 -12107 -44 0
-12276 12109 0
-12276 42 0
12276 -12109 -42 0
-12277 12107 0
-12277 47 0
12277 -12107 -47 0
-12278 12109 0
-12278 39 0
12278 -12109 -39 0
-12279 12111 0
-12279 46 0
12279 -12111 -46 0
-12280 12111 0
-12280 40 0
12280 -12111 -40 0
-12281 12113 0
-12281 92 0
12281 -12113 -92 0
-12282 12113 0
-12282 95 0
12282 -12113 -95 0
-12283 12115 0
-12283 140 0
12283 -12115 -140 0
-12284 12115 0
-12284 143 0
12284 -12115 -143 0
-12285 12117 0
-12285 188 0
12285 -12117 -188 0
-12286 12275 12276 0
-12286 -12275 -12276 0
12286 -12275 12276 0
12286 12275 -12276 0
-12287 12286 12277 0
-12287 -12286 -12277 0
12287 -12286 12277 0
12287 12286 -12277 0
-12288 12287 12278 0
-12288 -12287 -12278 0
12288 -12287 12278 0
12288 12287 -12278 0
-12289 12288 12279 0
-12289 -12288 -12279 0
12289 -12288 12279 0
12289 12288 -12279 0
-12290 12289 12280 0
-12290 -12289 -12280 0
12290 -12289 12280 0
12290 12289 -12280 0
-12291 12290 12277 0
-12291 -12290 -12277 0
12291 -12290 12277 0
12291 12290 -12277 0
-12292 12291 12278 0
-12292 -12291 -12278 0
12292 -12291 12278 0
12292 12291 -12278 0
-12293 12292 12275 0
-12293 -12292 -12275 0
12293 -12292 12275 0
12293 12292 -12275 0
-12294 12293 12276 0
-12294 -12293 -12276 0
12294 -12293 12276 0
12294 12293 -12276 0
-12295 12294 12280 0
-12295 -12294 -12280 0
12295 -12294 12280 0
12295 12294 -12280 0
-12296 12295 12279 0
-12296 -12295 -12279 0
12296 -12295 12279 0
12296 12295 -12279 0
-12297 12296 12281 0
-12297 -12296 -12281 0
12297 -12296 12281 0
12297 12296 -12281 0
-12298 12297 12282 0
-12298 -12297 -12282 0
12298 -12297 12282 0
12298 12297 -12282 0
-12299 12298 12283 0
-12299 -12298 -12283 0
12299 -12298 12283 0
12299 12298 -12283 0
-12300 12299 12284 0
-12300 -12299 -12284 0
12300 -12299 12284 0
12300 12299 -12284 0
-12301 12300 12285 0
-12301 -12300 -12285 0
12301 -12300 12285 0
12301 12300 -12285 0
-12301 0
-12302 8 0
-12302 31 0
12302 -8 -31 0
-12303 12302 0
-12303 33 0
12303 -12302 -33 0
-12304 16 0
-12304 31 0
12304 -16 -31 0
-12305 12304 0
-12305 33 0
12305 -12304 -33 0
-12306 8 0
-12306 32 0
12306 -8 -32 0
-12307 12306 0
-12307 33 0
12307 -12306 -33 0
-12308 16 0
-12308 30 0
12308 -16 -30 0
-12309 12308 0
-12309 33 0
12309 -12308 -33 0
-12310 12 0
-12310 32 0
12310 -12 -32 0
-12311 12310 0
-12311 33 0
12311 -12310 -33 0
-12312 12 0
-12312 30 0
12312 -12 -30 0
-12313 12312 0
-12313 33 0
12313 -12312 -33 0
-12314 56 0
-12314 79 0
12314 -56 -79 0
-12315 12314 0
-12315 81 0
12315 -12314 -81 0
-12316 78 0
-12316 60 0
12316 -78 -60 0
-12317 12316 0
-12317 81 0
12317 -12316 -81 0
-12318 104 0
-12318 127 0
12318 -104 -127 0
-12319 12318 0
-12319 129 0
12319 -12318 -129 0
-12320 126 0
-12320 108 0
12320 -126 -108 0
-12321 12320 0
-12321 129 0
12321 -12320 -129 0
-12322 152 0
-12322 175 0
12322 -152 -175 0
-12323 12322 0
-12323 177 0
12323 -12322 -177 0
-12324 12303 12305 0
-12324 -12303 -12305 0
12324 -12303 12305 0
12324 12303 -12305 0
-12325 12324 12307 0
-12325 -12324 -12307 0
12325 -12324 12307 0
12325 12324 -12307 0
-12326 12325 12309 0
-12326 -12325 -12309 0
12326 -12325 12309 0
12326 12325 -12309 0
-12327 12326 12311 0
-12327 -12326 -12311 0
12327 -12326 12311 0
12327 12326 -12311 0
-12328 12327 12313 0
-12328 -12327 -12313 0
12328 -12327 12313 0
12328 12327 -12313 0
-12329 12328 12313 0
-12329 -12328 -12313 0
12329 -12328 12313 0
12329 12328 -12313 0
-12330 12329 12311 0
-12330 -12329 -12311 0
12330 -12329 12311 0
12330 12329 -12311 0
-12331 12330 12309 0
-12331 -12330 -12309 0
12331 -12330 12309 0
12331 12330 -12309 0
-12332 12331 12307 0
-12332 -12331 -12307 0
12332 -12331 12307 0
12332 12331 -12307 0
-12333 12332 12305 0
-12333 -12332 -12305 0
12333 -12332 12305 0
12333 12332 -12305 0
-12334 12333 12303 0
-12334 -12333 -12303 0
12334 -12333 12303 0
12334 12333 -12303 0
-12335 12334 12315 0
-12335 -12334 -12315 0
12335 -12334 12315 0
12335 12334 -12315 0
-12336 12335 12317 0
-12336 -12335 -12317 0
12336 -12335 12317 0
12336 12335 -12317 0
-12337 12336 12319 0
-12337 -12336 -12319 0
12337 -12336 12319 0
12337 12336 -12319 0
-12338 12337 12321 0
-12338 -12337 -12321 0
12338 -12337 12321 0
12338 12337 -12321 0
-12339 12338 12323 0
-12339 -12338 -12323 0
12339 -12338 12323 0
12339 12338 -12323 0
-12339 0
-12340 12302 0
-12340 34 0
12340 -12302 -34 0
-12341 12304 0
-12341 36 0
12341 -12304 -36 0
-12342 12306 0
-12342 34 0
12342 -12306 -34 0
-12343 12308 0
-12343 36 0
12343 -12308 -36 0
-12344 12310 0
-12344 35 0
12344 -12310 -35 0
-12345 12312 0
-12345 35 0
12345 -12312 -35 0
-12346 12312 0
-12346 37 0
12346 -12312 -37 0
-12347 12310 0
-12347 45 0
12347 -12310 -45 0
-12348 12308 0
-12348 37 0
12348 -12308 -37 0
-12349 12306 0
-12349 45 0
12349 -12306 -45 0
-12350 12304 0
-12350 41 0
12350 -12304 -41 0
-12351 12302 0
-12351 41 0
12351 -12302 -41 0
-12352 12314 0
-12352 82 0
12352 -12314 -82 0
-12353 12316 0
-12353 85 0
12353 -12316 -85 0
-12354 12318 0
-12354 130 0
12354 -12318 -130 0
-12355 12320 0
-12355 133 0
12355 -12320 -133 0
-12356 12322 0
-12356 178 0
12356 -12322 -178 0
-12357 12340 12341 0
-12357 -12340 -12341 0
12357 -12340 12341 0
12357 12340 -12341 0
-12358 12357 12342 0
-12358 -12357 -12342 0
12358 -12357 12342 0
12358 12357 -12342 0
-12359 12358 12343 0
-12359 -12358 -12343 0
12359 -12358 12343 0
12359 12358 -12343 0
-12360 12359 12344 0
-12360 -12359 -12344 0
12360 -12359 12344 0
12360 12359 -12344 0
-12361 12360 12345 0
-12361 -12360 -12345 0
12361 -12360 12345 0
12361 12360 -12345 0
-12362 12361 12346 0
-12362 -12361 -12346 0
12362 -12361 12346 0
12362 12361 -12346 0
-12363 12362 12347 0
-12363 -12362 -12347 0
12363 -12362 12347 0
12363 12362 -12347 0
-12364 12363 12348 0
-12364 -12363 -12348 0
12364 -12363 12348 0
12364 12363 -12348 0
-12365 12364 12349 0
-12365 -12364 -12349 0
12365 -12364 12349 0
12365 12364 -12349 0
-12366 12365 12350 0
-12366 -12365 -12350 0
12366 -12365 12350 0
12366 12365 -12350 0
-12367 12366 12351 0
-12367 -12366 -12351 0
12367 -12366 12351 0
12367 12366 -12351 0
-12368 12367 12352 0
-12368 -12367 -12352 0
12368 -12367 12352 0
12368 12367 -12352 0
-12369 12368 12353 0
-12369 -12368 -12353 0
12369 -12368 12353 0
12369 12368 -12353 0
-12370 12369 12354 0
-12370 -12369 -12354 0
12370 -12369 12354 0
12370 12369 -12354 0
-12371 12370 12355 0
-12371 -12370 -12355 0
12371 -12370 12355 0
12371 12370 -12355 0
-12372 12371 12356 0
-12372 -12371 -12356 0
12372 -12371 12356 0
12372 12371 -12356 0
-12372 0
-12373 12302 0
-12373 35 0
12373 -12302 -35 0
-12374 12304 0
-12374 35 0
12374 -12304 -35 0
-12375 12306 0
-12375 36 0
12375 -12306 -36 0
-12376 12308 0
-12376 34 0
12376 -12308 -34 0
-12377 12310 0
-12377 36 0
12377 -12310 -36 0
-12378 12312 0
-12378 34 0
12378 -12312 -34 0
-12379 12312 0
-12379 41 0
12379 -12312 -41 0
-12380 12310 0
-12380 41 0
12380 -12310 -41 0
-12381 12308 0
-12381 45 0
12381 -12308 -45 0
-12382 12306 0
-12382 37 0
12382 -12306 -37 0
-12383 12304 0
-12383 45 0
12383 -12304 -45 0
-12384 12302 0
-12384 37 0
12384 -12302 -37 0
-12385 12314 0
-12385 83 0
12385 -12314 -83 0
-12386 12316 0
-12386 89 0
12386 -12316 -89 0
-12387 12318 0
-12387 131 0
12387 -12318 -131 0
-12388 12320 0
-12388 137 0
12388 -12320 -137 0
-12389 12322 0
-12389 179 0
12389 -12322 -179 0
-12390 12373 12374 0
-12390 -12373 -12374 0
12390 -12373 12374 0
12390 12373 -12374 0
-12391 12390 12375 0
-12391 -12390 -12375 0
12391 -12390 12375 0
12391 12390 -12375 0
-12392 12391 12376 0
-12392 -12391 -12376 0
12392 -12391 12376 0
12392 12391 -12376 0
-12393 12392 12377 0
-12393 -12392 -12377 0
12393 -12392 12377 0
12393 12392 -12377 0
-12394 12393 12378 0
-12394 -12393 -12378 0
12394 -12393 12378 0
12394 12393 -12378 0
-12395 12394 12379 0
-12395 -12394 -12379 0
12395 -12394 12379 0
12395 12394 -12379 0
-12396 12395 12380 0
-12396 -12395 -12380 0
12396 -12395 12380 0
12396 12395 -12380 0
-12397 12396 12381 0
-12397 -12396 -12381 0
12397 -12396 12381 0
12397 12396 -12381 0
-12398 12397 12382 0
-12398 -12397 -12382 0
12398 -12397 12382 0
12398 12397 -12382 0
-12399 12398 12383 0
-12399 -12398 -12383 0
12399 -12398 12383 0
12399 12398 -12383 0
-12400 12399 12384 0
-12400 -12399 -12384 0
12400 -12399 12384 0
12400 12399 -12384 0
-12401 12400 12385 0
-12401 -12400 -12385 0
12401 -12400 12385 0
12401 12400 -12385 0
-12402 12401 12386 0
-12402 -12401 -12386 0
12402 -12401 12386 0
12402 12401 -12386 0
-12403 12402 12387 0
-12403 -12402 -12387 0
12403 -12402 12387 0
12403 12402 -12387 0
-12404 12403 12388 0
-12404 -12403 -12388 0
12404 -12403 12388 0
12404 12403 -12388 0
-12405 12404 12389 0
-12405 -12404 -12389 0
12405 -12404 12389 0
12405 12404 -12389 0
-12405 0
-12406 12302 0
-12406 36 0
12406 -12302 -36 0
-12407 12304 0
-12407 34 0
12407 -12304 -34 0
-12408 12306 0
-12408 35 0
12408 -12306 -35 0
-12409 12308 0
-12409 35 0
12409 -12308 -35 0
-12410 12310 0
-12410 34 0
12410 -12310 -34 0
-12411 12312 0
-12411 36 0
12411 -12312 -36 0
-12412 12312 0
-12412 45 0
12412 -12312 -45 0
-12413 12310 0
-12413 37 0
12413 -12310 -37 0
-12414 12308 0
-12414 41 0
12414 -12308 -41 0
-12415 12306 0
-12415 41 0
12415 -12306 -41 0
-12416 12304 0
-12416 37 0
12416 -12304 -37 0
-12417 12302 0
-12417 45 0
12417 -12302 -45 0
-12418 12314 0
-12418 84 0
12418 -12314 -84 0
-12419 12316 0
-12419 93 0
12419 -12316 -93 0
-12420 12318 0
-12420 132 0
12420 -12318 -132 0
-12421 12320 0
-12421 141 0
12421 -12320 -141 0
-12422 12322 0
-12422 180 0
12422 -12322 -180 0
-12423 12406 12407 0
-12423 -12406 -12407 0
12423 -12406 12407 0
12423 12406 -12407 0
-12424 12423 12408 0
-12424 -12423 -12408 0
12424 -12423 12408 0
12424 12423 -12408 0
-12425 12424 12409 0
-12425 -12424 -12409 0
12425 -12424 12409 0
12425 12424 -12409 0
-12426 12425 12410 0
-12426 -12425 -12410 0
12426 -12425 12410 0
12426 12425 -12410 0
-12427 12426 12411 0
-12427 -12426 -12411 0
12427 -12426 12411 0
12427 12426 -12411 0
-12428 12427 12412 0
-12428 -12427 -12412 0
12428 -12427 12412 0
12428 12427 -12412 0
-12429 12428 12413 0
-12429 -12428 -12413 0
12429 -12428 12413 0
12429 12428 -12413 0
-12430 12429 12414 0
-12430 -12429 -12414 0
12430 -12429 12414 0
12430 12429 -12414 0
-12431 12430 12415 0
-12431 -12430 -12415 0
12431 -12430 12415 0
12431 12430 -12415 0
-12432 12431 12416 0
-12432 -12431 -12416 0
12432 -12431 12416 0
12432 12431 -12416 0
-12433 12432 12417 0
-12433 -12432 -12417 0
12433 -12432 12417 0
12433 12432 -12417 0
-12434 12433 12418 0
-12434 -12433 -12418 0
12434 -12433 12418 0
12434 12433 -12418 0
-12435 12434 12419 0
-12435 -12434 -12419 0
12435 -12434 12419 0
12435 12434 -12419 0
-12436 12435 12420 0
-12436 -12435 -12420 0
12436 -12435 12420 0
12436 12435 -12420 0
-12437 12436 12421 0
-12437 -12436 -12421 0
12437 -12436 12421 0
12437 12436 -12421 0
-12438 12437 12422 0
-12438 -12437 -12422 0
12438 -12437 12422 0
12438 12437 -12422 0
-12438 0
-12439 12302 0
-12439 38 0
12439 -12302 -38 0
-12440 12304 0
-12440 48 0
12440 -12304 -48 0
-12441 12306 0
-12441 38 0
12441 -12306 -38 0
-12442 12308 0
-12442 48 0
12442 -12308 -48 0
-12443 12310 0
-12443 43 0
12443 -12310 -43 0
-12444 12312 0
-12444 43 0
12444 -12312 -43 0
-12445 12312 0
-12445 38 0
12445 -12312 -38 0
-12446 12310 0
-12446 48 0
12446 -12310 -48 0
-12447 12308 0
-12447 38 0
12447 -12308 -38 0
-12448 12306 0
-12448 48 0
12448 -12306 -48 0
-12449 12304 0
-12449 43 0
12449 -12304 -43 0
-12450 12302 0
-12450 43 0
12450 -12302 -43 0
-12451 12314 0
-12451 86 0
12451 -12314 -86 0
-12452 12316 0
-12452 86 0
12452 -12316 -86 0
-12453 12318 0
-12453 134 0
12453 -12318 -134 0
-12454 12320 0
-12454 134 0
12454 -12320 -134 0
-12455 12322 0
-12455 182 0
12455 -12322 -182 0
-12456 12439 12440 0
-12456 -12439 -12440 0
12456 -12439 12440 0
12456 12439 -12440 0
-12457 12456 12441 0
-12457 -12456 -12441 0
12457 -12456 12441 0
12457 12456 -12441 0
-12458 12457 12442 0
-12458 -12457 -12442 0
12458 -12457 12442 0
12458 12457 -12442 0
-12459 12458 12443 0
-12459 -12458 -12443 0
12459 -12458 12443 0
12459 12458 -12443 0
-12460 12459 12444 0
-12460 -12459 -12444 0
12460 -12459 12444 0
12460 12459 -12444 0
-12461 12460 12445 0
-12461 -12460 -12445 0
12461 -12460 12445 0
12461 12460 -12445 0
-12462 12461 12446 0
-12462 -12461 -12446 0
12462 -12461 12446 0
12462 12461 -12446 0
-12463 12462 12447 0
-12463 -12462 -12447 0
12463 -12462 12447 0
12463 12462 -12447 0
-12464 12463 12448 0
-12464 -12463 -12448 0
12464 -12463 12448 0
12464 12463 -12448 0
-12465 12464 12449 0
-12465 -12464 -12449 0
12465 -12464 12449 0
12465 12464 -12449 0
-12466 12465 12450 0
-12466 -12465 -12450 0
12466 -12465 12450 0
12466 12465 -12450 0
-12467 12466 12451 0
-12467 -12466 -12451 0
12467 -12466 12451 0
12467 12466 -12451 0
-12468 12467 12452 0
-12468 -12467 -12452 0
12468 -12467 12452 0
12468 12467 -12452 0
-12469 12468 12453 0
-12469 -12468 -12453 0
12469 -12468 12453 0
12469 12468 -12453 0
-12470 12469 12454 0
-12470 -12469 -12454 0
12470 -12469 12454 0
12470 12469 -12454 0
-12471 12470 12455 0
-12471 -12470 -12455 0
12471 -12470 12455 0
12471 12470 -12455 0
-12471 0
-12472 12302 0
-12472 39 0
12472 -12302 -39 0
-12473 12304 0
-12473 47 0
12473 -12304 -47 0
-12474 12306 0
-12474 40 0
12474 -12306 -40 0
-12475 12308 0
-12475 46 0
12475 -12308 -46 0
-12476 12310 0
-12476 44 0
12476 -12310 -44 0
-12477 12312 0
-12477 42 0
12477 -12312 -42 0
-12478 12314 0
-12478 87 0
12478 -12314 -87 0
-12479 12316 0
-12479 90 0
12479 -12316 -90 0
-12480 12318 0
-12480 135 0
12480 -12318 -135 0
-12481 12320 0
-12481 138 0
12481 -12320 -138 0
-12482 12322 0
-12482 183 0
12482 -12322 -183 0
-12483 12472 12473 0
-12483 -12472 -12473 0
12483 -12472 12473 0
12483 12472 -12473 0
-12484 12483 12474 0
-12484 -12483 -12474 0
12484 -12483 12474 0
12484 12483 -12474 0
-12485 12484 12475 0
-12485 -12484 -12475 0
12485 -12484 12475 0
12485 12484 -12475 0
-12486 12485 12476 0
-12486 -12485 -12476 0
12486 -12485 12476 0
12486 12485 -12476 0
-12487 12486 12477 0
-12487 -12486 -12477 0
12487 -12486 12477 0
12487 12486 -12477 0
-12488 12487 12477 0
-12488 -12487 -12477 0
12488 -12487 12477 0
12488 12487 -12477 0
-12489 12488 12476 0
-12489 -12488 -12476 0
12489 -12488 12476 0
12489 12488 -12476 0
-12490 12489 12475 0
-12490 -12489 -12475 0
12490 -12489 12475 0
12490 12489 -12475 0
-12491 12490 12474 0
-12491 -12490 -12474 0
12491 -12490 12474 0
12491 12490 -12474 0
-12492 12491 12473 0
-12492 -12491 -12473 0
12492 -12491 12473 0
12492 12491 -12473 0
-12493 12492 12472 0
-12493 -12492 -12472 0
12493 -12492 12472 0
12493 12492 -12472 0
-12494 12493 12478 0
-12494 -12493 -12478 0
12494 -12493 12478 0
12494 12493 -12478 0
-12495 12494 12479 0
-12495 -12494 -12479 0
12495 -12494 12479 0
12495 12494 -12479 0
-12496 12495 12480 0
-12496 -12495 -12480 0
12496 -12495 12480 0
12496 12495 -12480 0
-12497 12496 12481 0
-12497 -12496 -12481 0
12497 -12496 12481 0
12497 12496 -12481 0
-12498 12497 12482 0
-12498 -12497 -12482 0
12498 -12497 12482 0
12498 12497 -12482 0
-12498 0
-12499 12302 0
-12499 40 0
12499 -12302 -40 0
-12500 12304 0
-12500 46 0
12500 -12304 -46 0
-12501 12306 0
-12501 39 0
12501 -12306 -39 0
-12502 12308 0
-12502 47 0
12502 -12308 -47 0
-12503 12310 0
-12503 42 0
12503 -12310 -42 0
-12504 12312 0
-12504 44 0
12504 -12312 -44 0
-12505 12312 0
-12505 46 0
12505 -12312 -46 0
-12506 12310 0
-12506 40 0
12506 -12310 -40 0
-12507 12308 0
-12507 42 0
12507 -12308 -42 0
-12508 12306 0
-12508 44 0
12508 -12306 -44 0
-12509 12304 0
-12509 39 0
12509 -12304 -39 0
-12510 12302 0
-12510 47 0
12510 -12302 -47 0
-12511 12314 0
-12511 88 0
12511 -12314 -88 0
-12512 12316 0
-12512 94 0
12512 -12316 -94 0
-12513 12318 0
-12513 136 0
12513 -12318 -136 0
-12514 12320 0
-12514 142 0
12514 -12320 -142 0
-12515 12322 0
-12515 184 0
12515 -12322 -184 0
-12516 12499 12500 0
-12516 -12499 -12500 0
12516 -12499 12500 0
12516 12499 -12500 0
-12517 12516 12501 0
-12517 -12516 -12501 0
12517 -12516 12501 0
12517 12516 -12501 0
-12518 12517 12502 0
-12518 -12517 -12502 0
12518 -12517 12502 0
12518 12517 -12502 0
-12519 12518 12503 0
-12519 -12518 -12503 0
12519 -12518 12503 0
12519 12518 -12503 0
-12520 12519 12504 0
-12520 -12519 -12504 0
12520 -12519 12504 0
12520 12519 -12504 0
-12521 12520 12505 0
-12521 -12520 -12505 0
12521 -12520 12505 0
12521 12520 -12505 0
-12522 12521 12506 0
-12522 -12521 -12506 0
12522 -12521 12506 0
12522 12521 -12506 0
-12523 12522 12507 0
-12523 -12522 -12507 0
12523 -12522 12507 0
12523 12522 -12507 0
-12524 12523 12508 0
-12524 -12523 -12508 0
12524 -12523 12508 0
12524 12523 -12508 0
-12525 12524 12509 0
-12525 -12524 -12509 0
12525 -12524 12509 0
12525 12524 -12509 0
-12526 12525 12510 0
-12526 -12525 -12510 0
12526 -12525 12510 0
12526 12525 -12510 0
-12527 12526 12511 0
-12527 -12526 -12511 0
12527 -12526 12511 0
12527 12526 -12511 0
-12528 12527 12512 0
-12528 -12527 -12512 0
12528 -12527 12512 0
12528 12527 -12512 0
-12529 12528 12513 0
-12529 -12528 -12513 0
12529 -12528 12513 0
12529 12528 -12513 0
-12530 12529 12514 0
-12530 -12529 -12514 0
12530 -12529 12514 0
12530 12529 -12514 0
-12531 12530 12515 0
-12531 -12530 -12515 0
12531 -12530 12515 0
12531 12530 -12515 0
-12531 0
-12532 12302 0
-12532 42 0
12532 -12302 -42 0
-12533 12304 0
-12533 44 0
12533 -12304 -44 0
-12534 12306 0
-12534 46 0
12534 -12306 -46 0
-12535 12308 0
-12535 40 0
12535 -12308 -40 0
-12536 12310 0
-12536 47 0
12536 -12310 -47 0
-12537 12312 0
-12537 39 0
12537 -12312 -39 0
-12538 12314 0
-12538 90 0
12538 -12314 -90 0
-12539 12316 0
-12539 87 0
12539 -12316 -87 0
-12540 12318 0
-12540 138 0
12540 -12318 -138 0
-12541 12320 0
-12541 135 0
12541 -12320 -135 0
-12542 12322 0
-12542 186 0
12542 -12322 -186 0
-12543 12532 12533 0
-12543 -12532 -12533 0
12543 -12532 12533 0
12543 12532 -12533 0
-12544 12543 12534 0
-12544 -12543 -12534 0
12544 -12543 12534 0
12544 12543 -12534 0
-12545 12544 12535 0
-12545 -12544 -12535 0
12545 -12544 12535 0
12545 12544 -12535 0
-12546 12545 12536 0
-12546 -12545 -12536 0
12546 -12545 12536 0
12546 12545 -12536 0
-12547 12546 12537 0
-12547 -12546 -12537 0
12547 -12546 12537 0
12547 12546 -12537 0
-12548 12547 12537 0
-12548 -12547 -12537 0
12548 -12547 12537 0
12548 12547 -12537 0
-12549 12548 12536 0
-12549 -12548 -12536 0
12549 -12548 12536 0
12549 12548 -12536 0
-12550 12549 12535 0
-12550 -12549 -12535 0
12550 -12549 12535 0
12550 12549 -12535 0
-12551 12550 12534 0
-12551 -12550 -12534 0
12551 -12550 12534 0
12551 12550 -12534 0
-12552 12551 12533 0
-12552 -12551 -12533 0
12552 -12551 12533 0
12552 12551 -12533 0
-12553 12552 12532 0
-12553 -12552 -12532 0
12553 -12552 12532 0
12553 12552 -12532 0
-12554 12553 12538 0
-12554 -12553 -12538 0
12554 -12553 12538 0
12554 12553 -12538 0
-12555 12554 12539 0
-12555 -12554 -12539 0
12555 -12554 12539 0
12555 12554 -12539 0
-12556 12555 12540 0
-12556 -12555 -12540 0
12556 -12555 12540 0
12556 12555 -12540 0
-12557 12556 12541 0
-12557 -12556 -12541 0
12557 -12556 12541 0
12557 12556 -12541 0
-12558 12557 12542 0
-12558 -12557 -12542 0
12558 -12557 12542 0
12558 12557 -12542 0
-12558 0
-12559 12302 0
-12559 44 0
12559 -12302 -44 0
-12560 12304 0
-12560 42 0
12560 -12304 -42 0
-12561 12306 0
-12561 47 0
12561 -12306 -47 0
-12562 12308 0
-12562 39 0
12562 -12308 -39 0
-12563 12310 0
-12563 46 0
12563 -12310 -46 0
-12564 12312 0
-12564 40 0
12564 -12312 -40 0
-12565 12312 0
-12565 47 0
12565 -12312 -47 0
-12566 12310 0
-12566 39 0
12566 -12310 -39 0
-12567 12308 0
-12567 44 0
12567 -12308 -44 0
-12568 12306 0
-12568 42 0
12568 -12306 -42 0
-12569 12304 0
-12569 40 0
12569 -12304 -40 0
-12570 12302 0
-12570 46 0
12570 -12302 -46 0
-12571 12314 0
-12571 92 0
12571 -12314 -92 0
-12572 12316 0
-12572 95 0
12572 -12316 -95 0
-12573 12318 0
-12573 140 0
12573 -12318 -140 0
-12574 12320 0
-12574 143 0
12574 -12320 -143 0
-12575 12322 0
-12575 188 0
12575 -12322 -188 0
-12576 12559 12560 0
-12576 -12559 -12560 0
12576 -12559 12560 0
12576 12559 -12560 0
-12577 12576 12561 0
-12577 -12576 -12561 0
12577 -12576 12561 0
12577 12576 -12561 0
-12578 12577 12562 0
-12578 -12577 -12562 0
12578 -12577 12562 0
12578 12577 -12562 0
-12579 12578 12563 0
-12579 -12578 -12563 0
12579 -12578 12563 0
12579 12578 -12563 0
-12580 12579 12564 0
-12580 -12579 -12564 0
12580 -12579 12564 0
12580 12579 -12564 0
-12581 12580 12565 0
-12581 -12580 -12565 0
12581 -12580 12565 0
12581 12580 -12565 0
-12582 12581 12566 0
-12582 -12581 -12566 0
12582 -12581 12566 0
12582 12581 -12566 0
-12583 12582 12567 0
-12583 -12582 -12567 0
12583 -12582 12567 0
12583 12582 -12567 0
-12584 12583 12568 0
-12584 -12583 -12568 0
12584 -12583 12568 0
12584 12583 -12568 0
-12585 12584 12569 0
-12585 -12584 -12569 0
12585 -12584 12569 0
12585 12584 -12569 0
-12586 12585 12570 0
-12586 -12585 -12570 0
12586 -12585 12570 0
12586 12585 -12570 0
-12587 12586 12571 0
-12587 -12586 -12571 0
12587 -12586 12571 0
12587 12586 -12571 0
-12588 12587 12572 0
-12588 -12587 -12572 0
12588 -12587 12572 0
12588 12587 -12572 0
-12589 12588 12573 0
-12589 -12588 -12573 0
12589 -12588 12573 0
12589 12588 -12573 0
-12590 12589 12574 0
-12590 -12589 -12574 0
12590 -12589 12574 0
12590 12589 -12574 0
-12591 12590 12575 0
-12591 -12590 -12575 0
12591 -12590 12575 0
12591 12590 -12575 0
-12591 0
-12592 12302 0
-12592 48 0
12592 -12302 -48 0
-12593 12304 0
-12593 38 0
12593 -12304 -38 0
-12594 12306 0
-12594 43 0
12594 -12306 -43 0
-12595 12308 0
-12595 43 0
12595 -12308 -43 0
-12596 12310 0
-12596 38 0
12596 -12310 -38 0
-12597 12312 0
-12597 48 0
12597 -12312 -48 0
-12598 12314 0
-12598 96 0
12598 -12314 -96 0
-12599 12316 0
-12599 96 0
12599 -12316 -96 0
-12600 12318 0
-12600 144 0
12600 -12318 -144 0
-12601 12320 0
-12601 144 0
12601 -12320 -144 0
-12602 12322 0
-12602 192 0
12602 -12322 -192 0
-12603 12592 12593 0
-12603 -12592 -12593 0
12603 -12592 12593 0
12603 12592 -12593 0
-12604 12603 12594 0
-12604 -12603 -12594 0
12604 -12603 12594 0
12604 12603 -12594 0
-12605 12604 12595 0
-12605 -12604 -12595 0
12605 -12604 12595 0
12605 12604 -12595 0
-12606 12605 12596 0
-12606 -12605 -12596 0
12606 -12605 12596 0
12606 12605 -12596 0
-12607 12606 12597 0
-12607 -12606 -12597 0
12607 -12606 12597 0
12607 12606 -12597 0
-12608 12607 12597 0
-12608 -12607 -12597 0
12608 -12607 12597 0
12608 12607 -12597 0
-12609 12608 12596 0
-12609 -12608 -12596 0
12609 -12608 12596 0
12609 12608 -12596 0
-12610 12609 12595 0
-12610 -12609 -12595 0
12610 -12609 12595 0
12610 12609 -12595 0
-12611 12610 12594 0
-12611 -12610 -12594 0
12611 -12610 12594 0
12611 12610 -12594 0
-12612 12611 12593 0
-12612 -12611 -12593 0
12612 -12611 12593 0
12612 12611 -12593 0
-12613 12612 12592 0
-12613 -12612 -12592 0
12613 -12612 12592 0
12613 12612 -12592 0
-12614 12613 12598 0
-12614 -12613 -12598 0
12614 -12613 12598 0
12614 12613 -12598 0
-12615 12614 12599 0
-12615 -12614 -12599 0
12615 -12614 12599 0
12615 12614 -12599 0
-12616 12615 12600 0
-12616 -12615 -12600 0
12616 -12615 12600 0
12616 12615 -12600 0
-12617 12616 12601 0
-12617 -12616 -12601 0
12617 -12616 12601 0
12617 12616 -12601 0
-12618 12617 12602 0
-12618 -12617 -12602 0
12618 -12617 12602 0
12618 12617 -12602 0
-12618 0
