p cnf 12802 45073
-2 3 0
2 -3 0
-3 2 0
3 -2 0
-5 13 0
5 -13 0
-6 15 0
6 -15 0
-7 14 0
7 -14 0
-8 16 0
8 -16 0
-10 11 0
10 -11 0
-11 10 0
11 -10 0
-13 5 0
13 -5 0
-14 7 0
14 -7 0
-15 6 0
15 -6 0
-16 8 0
16 -8 0
-18 20 0
18 -20 0
-20 18 0
20 -18 0
-21 25 0
21 -25 0
-22 28 0
22 -28 0
-23 27 0
23 -27 0
-24 26 0
24 -26 0
-25 21 0
25 -21 0
-26 24 0
26 -24 0
-27 23 0
27 -23 0
-28 22 0
28 -22 0
-30 32 0
30 -32 0
-32 30 0
32 -30 0
-34 36 0
34 -36 0
-36 34 0
36 -34 0
-37 45 0
37 -45 0
-38 48 0
38 -48 0
-39 47 0
39 -47 0
-40 46 0
40 -46 0
-42 44 0
42 -44 0
-44 42 0
44 -42 0
-45 37 0
45 -37 0
-46 40 0
46 -40 0
-47 39 0
47 -39 0
-48 38 0
48 -38 0
1 2 3 4 5 6 7 8 9 10 11 12 13 14 15 16 0
17 18 19 20 21 22 23 24 25 26 27 28 29 30 31 32 0
33 34 35 36 37 38 39 40 41 42 43 44 45 46 47 48 0
-50 51 0
50 -51 0
-51 50 0
51 -50 0
-53 61 0
53 -61 0
-54 63 0
54 -63 0
-55 62 0
55 -62 0
-56 64 0
56 -64 0
-58 59 0
58 -59 0
-59 58 0
59 -58 0
-61 53 0
61 -53 0
-62 55 0
62 -55 0
-63 54 0
63 -54 0
-64 56 0
64 -56 0
-66 68 0
66 -68 0
-68 66 0
68 -66 0
-69 73 0
69 -73 0
-70 76 0
70 -76 0
-71 75 0
71 -75 0
-72 74 0
72 -74 0
-73 69 0
73 -69 0
-74 72 0
74 -72 0
-75 71 0
75 -71 0
-76 70 0
76 -70 0
-78 80 0
78 -80 0
-80 78 0
80 -78 0
-82 84 0
82 -84 0
-84 82 0
84 -82 0
-85 93 0
85 -93 0
-86 96 0
86 -96 0
-87 95 0
87 -95 0
-88 94 0
88 -94 0
-90 92 0
90 -92 0
-92 90 0
92 -90 0
-93 85 0
93 -85 0
-94 88 0
94 -88 0
-95 87 0
95 -87 0
-96 86 0
96 -86 0
49 50 51 52 53 54 55 56 57 58 59 60 61 62 63 64 0
65 66 67 68 69 70 71 72 73 74 75 76 77 78 79 80 0
81 82 83 84 85 86 87 88 89 90 91 92 93 94 95 96 0
-97 113 0
97 -113 0
-98 121 0
98 -121 0
-99 117 0
99 -117 0
-100 125 0
100 -125 0
-101 116 0
101 -116 0
-102 124 0
102 -124 0
-103 120 0
103 -120 0
-104 128 0
104 -128 0
-105 115 0
105 -115 0
-106 123 0
106 -123 0
-107 119 0
107 -119 0
-108 127 0
108 -127 0
-109 114 0
109 -114 0
-110 122 0
110 -122 0
-111 118 0
111 -118 0
-112 126 0
112 -126 0
-113 97 0
113 -97 0
-114 109 0
114 -109 0
-115 105 0
115 -105 0
-116 101 0
116 -101 0
-117 99 0
117 -99 0
-118 111 0
118 -111 0
-119 107 0
119 -107 0
-120 103 0
120 -103 0
-121 98 0
121 -98 0
-122 110 0
122 -110 0
-123 106 0
123 -106 0
-124 102 0
124 -102 0
-125 100 0
125 -100 0
-126 112 0
126 -112 0
-127 108 0
127 -108 0
-128 104 0
128 -104 0
-130 141 0
130 -141 0
-131 137 0
131 -137 0
-132 133 0
132 -133 0
-133 132 0
133 -132 0
-134 144 0
134 -144 0
-135 140 0
135 -140 0
-137 131 0
137 -131 0
-138 143 0
138 -143 0
-140 135 0
140 -135 0
-141 130 0
141 -130 0
-143 138 0
143 -138 0
-144 134 0
144 -134 0
-97 113 0
97 -113 0
-98 117 0
98 -117 0
-99 121 0
99 -121 0
-100 125 0
100 -125 0
-101 114 0
101 -114 0
-102 118 0
102 -118 0
-103 122 0
103 -122 0
-104 126 0
104 -126 0
-105 115 0
105 -115 0
-106 119 0
106 -119 0
-107 123 0
107 -123 0
-108 127 0
108 -127 0
-109 116 0
109 -116 0
-110 120 0
110 -120 0
-111 124 0
111 -124 0
-112 128 0
112 -128 0
-113 97 0
113 -97 0
-114 101 0
114 -101 0
-115 105 0
115 -105 0
-116 109 0
116 -109 0
-117 98 0
117 -98 0
-118 102 0
118 -102 0
-119 106 0
119 -106 0
-120 110 0
120 -110 0
-121 99 0
121 -99 0
-122 103 0
122 -103 0
-123 107 0
123 -107 0
-124 111 0
124 -111 0
-125 100 0
125 -100 0
-126 104 0
126 -104 0
-127 108 0
127 -108 0
-128 112 0
128 -112 0
-130 133 0
130 -133 0
-131 137 0
131 -137 0
-132 141 0
132 -141 0
-133 130 0
133 -130 0
-135 138 0
135 -138 0
-136 142 0
136 -142 0
-137 131 0
137 -131 0
-138 135 0
138 -135 0
-140 143 0
140 -143 0
-141 132 0
141 -132 0
-142 136 0
142 -136 0
-143 140 0
143 -140 0
-98 99 0
98 -99 0
-99 98 0
99 -98 0
-101 109 0
101 -109 0
-102 111 0
102 -111 0
-103 110 0
103 -110 0
-104 112 0
104 -112 0
-106 107 0
106 -107 0
-107 106 0
107 -106 0
-109 101 0
109 -101 0
-110 103 0
110 -103 0
-111 102 0
111 -102 0
-112 104 0
112 -104 0
-114 116 0
114 -116 0
-116 114 0
116 -114 0
-117 121 0
117 -121 0
-118 124 0
118 -124 0
-119 123 0
119 -123 0
-120 122 0
120 -122 0
-121 117 0
121 -117 0
-122 120 0
122 -120 0
-123 119 0
123 -119 0
-124 118 0
124 -118 0
-126 128 0
126 -128 0
-128 126 0
128 -126 0
-130 132 0
130 -132 0
-132 130 0
132 -130 0
-133 141 0
133 -141 0
-134 144 0
134 -144 0
-135 143 0
135 -143 0
-136 142 0
136 -142 0
-138 140 0
138 -140 0
-140 138 0
140 -138 0
-141 133 0
141 -133 0
-142 136 0
142 -136 0
-143 135 0
143 -135 0
-144 134 0
144 -134 0
97 98 99 100 101 102 103 104 105 106 107 108 109 110 111 112 0
113 114 115 116 117 118 119 120 121 122 123 124 125 126 127 128 0
129 130 131 132 133 134 135 136 137 138 139 140 141 142 143 144 0
-146 147 0
146 -147 0
-147 146 0
147 -146 0
-149 157 0
149 -157 0
-150 159 0
150 -159 0
-151 158 0
151 -158 0
-152 160 0
152 -160 0
-154 155 0
154 -155 0
-155 154 0
155 -154 0
-157 149 0
157 -149 0
-158 151 0
158 -151 0
-159 150 0
159 -150 0
-160 152 0
160 -152 0
-162 164 0
162 -164 0
-164 162 0
164 -162 0
-165 169 0
165 -169 0
-166 172 0
166 -172 0
-167 171 0
167 -171 0
-168 170 0
168 -170 0
-169 165 0
169 -165 0
-170 168 0
170 -168 0
-171 167 0
171 -167 0
-172 166 0
172 -166 0
-174 176 0
174 -176 0
-176 174 0
176 -174 0
-178 180 0
178 -180 0
-180 178 0
180 -178 0
-181 189 0
181 -189 0
-182 192 0
182 -192 0
-183 191 0
183 -191 0
-184 190 0
184 -190 0
-186 188 0
186 -188 0
-188 186 0
188 -186 0
-189 181 0
189 -181 0
-190 184 0
190 -184 0
-191 183 0
191 -183 0
-192 182 0
192 -182 0
-145 146 0
145 -146 0
-146 145 0
146 -145 0
-149 150 0
149 -150 0
-150 149 0
150 -149 0
-153 158 0
153 -158 0
-154 157 0
154 -157 0
-155 159 0
155 -159 0
-156 160 0
156 -160 0
-157 154 0
157 -154 0
-158 153 0
158 -153 0
-159 155 0
159 -155 0
-160 156 0
160 -156 0
-161 165 0
161 -165 0
-162 166 0
162 -166 0
-163 168 0
163 -168 0
-164 167 0
164 -167 0
-165 161 0
165 -161 0
-166 162 0
166 -162 0
-167 164 0
167 -164 0
-168 163 0
168 -163 0
-171 172 0
171 -172 0
-172 171 0
172 -171 0
-175 176 0
175 -176 0
-176 175 0
176 -175 0
-179 180 0
179 -180 0
-180 179 0
180 -179 0
-183 184 0
183 -184 0
-184 183 0
184 -183 0
-185 189 0
185 -189 0
-186 190 0
186 -190 0
-187 192 0
187 -192 0
-188 191 0
188 -191 0
-189 185 0
189 -185 0
-190 186 0
190 -186 0
-191 188 0
191 -188 0
-192 187 0
192 -187 0
-145 147 0
145 -147 0
-146 145 0
146 -145 0
-147 146 0
147 -146 0
-149 159 0
149 -159 0
-150 157 0
150 -157 0
-151 158 0
151 -158 0
-152 160 0
152 -160 0
-153 151 0
153 -151 0
-154 149 0
154 -149 0
-155 150 0
155 -150 0
-156 152 0
156 -152 0
-157 155 0
157 -155 0
-158 153 0
158 -153 0
-159 154 0
159 -154 0
-160 156 0
160 -156 0
-161 169 0
161 -169 0
-162 172 0
162 -172 0
-163 170 0
163 -170 0
-164 171 0
164 -171 0
-165 161 0
165 -161 0
-166 164 0
166 -164 0
-167 162 0
167 -162 0
-168 163 0
168 -163 0
-169 165 0
169 -165 0
-170 168 0
170 -168 0
-171 166 0
171 -166 0
-172 167 0
172 -167 0
-174 176 0
174 -176 0
-175 174 0
175 -174 0
-176 175 0
176 -175 0
-178 180 0
178 -180 0
-179 178 0
179 -178 0
-180 179 0
180 -179 0
-181 189 0
181 -189 0
-182 192 0
182 -192 0
-183 190 0
183 -190 0
-184 191 0
184 -191 0
-185 181 0
185 -181 0
-186 184 0
186 -184 0
-187 182 0
187 -182 0
-188 183 0
188 -183 0
-189 185 0
189 -185 0
-190 188 0
190 -188 0
-191 186 0
191 -186 0
-192 187 0
192 -187 0
-145 147 0
145 -147 0
-147 145 0
147 -145 0
-149 155 0
149 -155 0
-150 154 0
150 -154 0
-151 153 0
151 -153 0
-152 156 0
152 -156 0
-153 151 0
153 -151 0
-154 150 0
154 -150 0
-155 149 0
155 -149 0
-156 152 0
156 -152 0
-157 159 0
157 -159 0
-159 157 0
159 -157 0
-161 169 0
161 -169 0
-162 171 0
162 -171 0
-163 170 0
163 -170 0
-164 172 0
164 -172 0
-166 167 0
166 -167 0
-167 166 0
167 -166 0
-169 161 0
169 -161 0
-170 163 0
170 -163 0
-171 162 0
171 -162 0
-172 164 0
172 -164 0
-174 175 0
174 -175 0
-175 174 0
175 -174 0
-178 179 0
178 -179 0
-179 178 0
179 -178 0
-181 185 0
181 -185 0
-182 187 0
182 -187 0
-183 186 0
183 -186 0
-184 188 0
184 -188 0
-185 181 0
185 -181 0
-186 183 0
186 -183 0
-187 182 0
187 -182 0
-188 184 0
188 -184 0
-190 191 0
190 -191 0
-191 190 0
191 -190 0
-145 146 0
145 -146 0
-146 147 0
146 -147 0
-147 145 0
147 -145 0
-149 154 0
149 -154 0
-150 155 0
150 -155 0
-151 153 0
151 -153 0
-152 156 0
152 -156 0
-153 158 0
153 -158 0
-154 159 0
154 -159 0
-155 157 0
155 -157 0
-156 160 0
156 -160 0
-157 150 0
157 -150 0
-158 151 0
158 -151 0
-159 149 0
159 -149 0
-160 152 0
160 -152 0
-161 165 0
161 -165 0
-162 167 0
162 -167 0
-163 168 0
163 -168 0
-164 166 0
164 -166 0
-165 169 0
165 -169 0
-166 171 0
166 -171 0
-167 172 0
167 -172 0
-168 170 0
168 -170 0
-169 161 0
169 -161 0
-170 163 0
170 -163 0
-171 164 0
171 -164 0
-172 162 0
172 -162 0
-174 175 0
174 -175 0
-175 176 0
175 -176 0
-176 174 0
176 -174 0
-178 179 0
178 -179 0
-179 180 0
179 -180 0
-180 178 0
180 -178 0
-181 185 0
181 -185 0
-182 187 0
182 -187 0
-183 188 0
183 -188 0
-184 186 0
184 -186 0
-185 189 0
185 -189 0
-186 191 0
186 -191 0
-187 192 0
187 -192 0
-188 190 0
188 -190 0
-189 181 0
189 -181 0
-190 183 0
190 -183 0
-191 184 0
191 -184 0
-192 182 0
192 -182 0
145 146 147 148 149 150 151 152 153 154 155 156 157 158 159 160 0
161 162 163 164 165 166 167 168 169 170 171 172 173 174 175 176 0
177 178 179 180 181 182 183 184 185 186 187 188 189 190 191 192 0
-193 1 0
-193 17 0
193 -1 -17 0
-194 193 0
-194 33 0
194 -193 -33 0
-195 2 0
-195 21 0
195 -2 -21 0
-196 195 0
-196 33 0
196 -195 -33 0
-197 49 0
-197 65 0
197 -49 -65 0
-198 197 0
-198 81 0
198 -197 -81 0
-199 50 0
-199 69 0
199 -50 -69 0
-200 199 0
-200 81 0
200 -199 -81 0
-201 97 0
-201 113 0
201 -97 -113 0
-202 201 0
-202 129 0
202 -201 -129 0
-203 98 0
-203 117 0
203 -98 -117 0
-204 203 0
-204 129 0
204 -203 -129 0
-205 145 0
-205 161 0
205 -145 -161 0
-206 205 0
-206 177 0
206 -205 -177 0
-207 194 196 0
-207 -194 -196 0
207 -194 196 0
207 194 -196 0
-208 207 196 0
-208 -207 -196 0
208 -207 196 0
208 207 -196 0
-209 208 194 0
-209 -208 -194 0
209 -208 194 0
209 208 -194 0
-210 209 196 0
-210 -209 -196 0
210 -209 196 0
210 209 -196 0
-211 210 196 0
-211 -210 -196 0
211 -210 196 0
211 210 -196 0
-212 211 198 0
-212 -211 -198 0
212 -211 198 0
212 211 -198 0
-213 212 200 0
-213 -212 -200 0
213 -212 200 0
213 212 -200 0
-214 213 200 0
-214 -213 -200 0
214 -213 200 0
214 213 -200 0
-215 214 198 0
-215 -214 -198 0
215 -214 198 0
215 214 -198 0
-216 215 200 0
-216 -215 -200 0
216 -215 200 0
216 215 -200 0
-217 216 200 0
-217 -216 -200 0
217 -216 200 0
217 216 -200 0
-218 217 202 0
-218 -217 -202 0
218 -217 202 0
218 217 -202 0
-219 218 204 0
-219 -218 -204 0
219 -218 204 0
219 218 -204 0
-220 219 204 0
-220 -219 -204 0
220 -219 204 0
220 219 -204 0
-221 220 206 0
-221 -220 -206 0
221 -220 206 0
221 220 -206 0
-222 221 206 0
-222 -221 -206 0
222 -221 206 0
222 221 -206 0
-222 0
-223 193 0
-223 34 0
223 -193 -34 0
-224 195 0
-224 34 0
224 -195 -34 0
-225 195 0
-225 35 0
225 -195 -35 0
-226 193 0
-226 37 0
226 -193 -37 0
-227 195 0
-227 37 0
227 -195 -37 0
-228 195 0
-228 41 0
228 -195 -41 0
-229 197 0
-229 82 0
229 -197 -82 0
-230 199 0
-230 82 0
230 -199 -82 0
-231 199 0
-231 83 0
231 -199 -83 0
-232 197 0
-232 85 0
232 -197 -85 0
-233 199 0
-233 85 0
233 -199 -85 0
-234 199 0
-234 89 0
234 -199 -89 0
-235 201 0
-235 130 0
235 -201 -130 0
-236 203 0
-236 130 0
236 -203 -130 0
-237 203 0
-237 131 0
237 -203 -131 0
-238 205 0
-238 178 0
238 -205 -178 0
-239 205 0
-239 181 0
239 -205 -181 0
-240 223 224 0
-240 -223 -224 0
240 -223 224 0
240 223 -224 0
-241 240 225 0
-241 -240 -225 0
241 -240 225 0
241 240 -225 0
-242 241 226 0
-242 -241 -226 0
242 -241 226 0
242 241 -226 0
-243 242 227 0
-243 -242 -227 0
243 -242 227 0
243 242 -227 0
-244 243 228 0
-244 -243 -228 0
244 -243 228 0
244 243 -228 0
-245 244 229 0
-245 -244 -229 0
245 -244 229 0
245 244 -229 0
-246 245 230 0
-246 -245 -230 0
246 -245 230 0
246 245 -230 0
-247 246 231 0
-247 -246 -231 0
247 -246 231 0
247 246 -231 0
-248 247 232 0
-248 -247 -232 0
248 -247 232 0
248 247 -232 0
-249 248 233 0
-249 -248 -233 0
249 -248 233 0
249 248 -233 0
-250 249 234 0
-250 -249 -234 0
250 -249 234 0
250 249 -234 0
-251 250 235 0
-251 -250 -235 0
251 -250 235 0
251 250 -235 0
-252 251 236 0
-252 -251 -236 0
252 -251 236 0
252 251 -236 0
-253 252 237 0
-253 -252 -237 0
253 -252 237 0
253 252 -237 0
-254 253 238 0
-254 -253 -238 0
254 -253 238 0
254 253 -238 0
-255 254 239 0
-255 -254 -239 0
255 -254 239 0
255 254 -239 0
-255 0
-256 193 0
-256 35 0
256 -193 -35 0
-257 195 0
-257 36 0
257 -195 -36 0
-258 193 0
-258 41 0
258 -193 -41 0
-259 195 0
-259 45 0
259 -195 -45 0
-260 197 0
-260 83 0
260 -197 -83 0
-261 199 0
-261 84 0
261 -199 -84 0
-262 197 0
-262 89 0
262 -197 -89 0
-263 199 0
-263 93 0
263 -199 -93 0
-264 201 0
-264 131 0
264 -201 -131 0
-265 203 0
-265 132 0
265 -203 -132 0
-266 205 0
-266 179 0
266 -205 -179 0
-267 205 0
-267 185 0
267 -205 -185 0
-268 256 257 0
-268 -256 -257 0
268 -256 257 0
268 256 -257 0
-269 268 257 0
-269 -268 -257 0
269 -268 257 0
269 268 -257 0
-270 269 258 0
-270 -269 -258 0
270 -269 258 0
270 269 -258 0
-271 270 259 0
-271 -270 -259 0
271 -270 259 0
271 270 -259 0
-272 271 259 0
-272 -271 -259 0
272 -271 259 0
272 271 -259 0
-273 272 260 0
-273 -272 -260 0
273 -272 260 0
273 272 -260 0
-274 273 261 0
-274 -273 -261 0
274 -273 261 0
274 273 -261 0
-275 274 261 0
-275 -274 -261 0
275 -274 261 0
275 274 -261 0
-276 275 262 0
-276 -275 -262 0
276 -275 262 0
276 275 -262 0
-277 276 263 0
-277 -276 -263 0
277 -276 263 0
277 276 -263 0
-278 277 263 0
-278 -277 -263 0
278 -277 263 0
278 277 -263 0
-279 278 264 0
-279 -278 -264 0
279 -278 264 0
279 278 -264 0
-280 279 265 0
-280 -279 -265 0
280 -279 265 0
280 279 -265 0
-281 280 265 0
-281 -280 -265 0
281 -280 265 0
281 280 -265 0
-282 281 266 0
-282 -281 -266 0
282 -281 266 0
282 281 -266 0
-283 282 267 0
-283 -282 -267 0
283 -282 267 0
283 282 -267 0
283 0
-284 193 0
-284 38 0
284 -193 -38 0
-285 195 0
-285 38 0
285 -195 -38 0
-286 195 0
-286 43 0
286 -195 -43 0
-287 197 0
-287 86 0
287 -197 -86 0
-288 199 0
-288 86 0
288 -199 -86 0
-289 199 0
-289 91 0
289 -199 -91 0
-290 201 0
-290 134 0
290 -201 -134 0
-291 203 0
-291 134 0
291 -203 -134 0
-292 203 0
-292 139 0
292 -203 -139 0
-293 205 0
-293 182 0
293 -205 -182 0
-294 284 285 0
-294 -284 -285 0
294 -284 285 0
294 284 -285 0
-295 294 286 0
-295 -294 -286 0
295 -294 286 0
295 294 -286 0
-296 295 284 0
-296 -295 -284 0
296 -295 284 0
296 295 -284 0
-297 296 285 0
-297 -296 -285 0
297 -296 285 0
297 296 -285 0
-298 297 286 0
-298 -297 -286 0
298 -297 286 0
298 297 -286 0
-299 298 287 0
-299 -298 -287 0
299 -298 287 0
299 298 -287 0
-300 299 288 0
-300 -299 -288 0
300 -299 288 0
300 299 -288 0
-301 300 289 0
-301 -300 -289 0
301 -300 289 0
301 300 -289 0
-302 301 287 0
-302 -301 -287 0
302 -301 287 0
302 301 -287 0
-303 302 288 0
-303 -302 -288 0
303 -302 288 0
303 302 -288 0
-304 303 289 0
-304 -303 -289 0
304 -303 289 0
304 303 -289 0
-305 304 290 0
-305 -304 -290 0
305 -304 290 0
305 304 -290 0
-306 305 291 0
-306 -305 -291 0
306 -305 291 0
306 305 -291 0
-307 306 292 0
-307 -306 -292 0
307 -306 292 0
307 306 -292 0
-308 307 293 0
-308 -307 -293 0
308 -307 293 0
308 307 -293 0
-309 308 293 0
-309 -308 -293 0
309 -308 293 0
309 308 -293 0
-309 0
-310 193 0
-310 39 0
310 -193 -39 0
-311 195 0
-311 40 0
311 -195 -40 0
-312 195 0
-312 44 0
312 -195 -44 0
-313 193 0
-313 42 0
313 -193 -42 0
-314 195 0
-314 46 0
314 -195 -46 0
-315 195 0
-315 47 0
315 -195 -47 0
-316 197 0
-316 87 0
316 -197 -87 0
-317 199 0
-317 88 0
317 -199 -88 0
-318 199 0
-318 92 0
318 -199 -92 0
-319 197 0
-319 90 0
319 -197 -90 0
-320 199 0
-320 94 0
320 -199 -94 0
-321 199 0
-321 95 0
321 -199 -95 0
-322 201 0
-322 135 0
322 -201 -135 0
-323 203 0
-323 136 0
323 -203 -136 0
-324 203 0
-324 140 0
324 -203 -140 0
-325 205 0
-325 183 0
325 -205 -183 0
-326 205 0
-326 186 0
326 -205 -186 0
-327 310 311 0
-327 -310 -311 0
327 -310 311 0
327 310 -311 0
-328 327 312 0
-328 -327 -312 0
328 -327 312 0
328 327 -312 0
-329 328 313 0
-329 -328 -313 0
329 -328 313 0
329 328 -313 0
-330 329 314 0
-330 -329 -314 0
330 -329 314 0
330 329 -314 0
-331 330 315 0
-331 -330 -315 0
331 -330 315 0
331 330 -315 0
-332 331 316 0
-332 -331 -316 0
332 -331 316 0
332 331 -316 0
-333 332 317 0
-333 -332 -317 0
333 -332 317 0
333 332 -317 0
-334 333 318 0
-334 -333 -318 0
334 -333 318 0
334 333 -318 0
-335 334 319 0
-335 -334 -319 0
335 -334 319 0
335 334 -319 0
-336 335 320 0
-336 -335 -320 0
336 -335 320 0
336 335 -320 0
-337 336 321 0
-337 -336 -321 0
337 -336 321 0
337 336 -321 0
-338 337 322 0
-338 -337 -322 0
338 -337 322 0
338 337 -322 0
-339 338 323 0
-339 -338 -323 0
339 -338 323 0
339 338 -323 0
-340 339 324 0
-340 -339 -324 0
340 -339 324 0
340 339 -324 0
-341 340 325 0
-341 -340 -325 0
341 -340 325 0
341 340 -325 0
-342 341 326 0
-342 -341 -326 0
342 -341 326 0
342 341 -326 0
-342 0
-343 193 0
-343 40 0
343 -193 -40 0
-344 195 0
-344 39 0
344 -195 -39 0
-345 195 0
-345 42 0
345 -195 -42 0
-346 193 0
-346 46 0
346 -193 -46 0
-347 197 0
-347 88 0
347 -197 -88 0
-348 199 0
-348 87 0
348 -199 -87 0
-349 199 0
-349 90 0
349 -199 -90 0
-350 197 0
-350 94 0
350 -197 -94 0
-351 201 0
-351 136 0
351 -201 -136 0
-352 203 0
-352 135 0
352 -203 -135 0
-353 203 0
-353 138 0
353 -203 -138 0
-354 205 0
-354 184 0
354 -205 -184 0
-355 205 0
-355 190 0
355 -205 -190 0
-356 343 344 0
-356 -343 -344 0
356 -343 344 0
356 343 -344 0
-357 356 345 0
-357 -356 -345 0
357 -356 345 0
357 356 -345 0
-358 357 346 0
-358 -357 -346 0
358 -357 346 0
358 357 -346 0
-359 358 345 0
-359 -358 -345 0
359 -358 345 0
359 358 -345 0
-360 359 344 0
-360 -359 -344 0
360 -359 344 0
360 359 -344 0
-361 360 347 0
-361 -360 -347 0
361 -360 347 0
361 360 -347 0
-362 361 348 0
-362 -361 -348 0
362 -361 348 0
362 361 -348 0
-363 362 349 0
-363 -362 -349 0
363 -362 349 0
363 362 -349 0
-364 363 350 0
-364 -363 -350 0
364 -363 350 0
364 363 -350 0
-365 364 349 0
-365 -364 -349 0
365 -364 349 0
365 364 -349 0
-366 365 348 0
-366 -365 -348 0
366 -365 348 0
366 365 -348 0
-367 366 351 0
-367 -366 -351 0
367 -366 351 0
367 366 -351 0
-368 367 352 0
-368 -367 -352 0
368 -367 352 0
368 367 -352 0
-369 368 353 0
-369 -368 -353 0
369 -368 353 0
369 368 -353 0
-370 369 354 0
-370 -369 -354 0
370 -369 354 0
370 369 -354 0
-371 370 355 0
-371 -370 -355 0
371 -370 355 0
371 370 -355 0
-371 0
-372 193 0
-372 43 0
372 -193 -43 0
-373 195 0
-373 48 0
373 -195 -48 0
-374 197 0
-374 91 0
374 -197 -91 0
-375 199 0
-375 96 0
375 -199 -96 0
-376 201 0
-376 139 0
376 -201 -139 0
-377 203 0
-377 144 0
377 -203 -144 0
-378 205 0
-378 187 0
378 -205 -187 0
-379 372 373 0
-379 -372 -373 0
379 -372 373 0
379 372 -373 0
-380 379 373 0
-380 -379 -373 0
380 -379 373 0
380 379 -373 0
-381 380 372 0
-381 -380 -372 0
381 -380 372 0
381 380 -372 0
-382 381 373 0
-382 -381 -373 0
382 -381 373 0
382 381 -373 0
-383 382 373 0
-383 -382 -373 0
383 -382 373 0
383 382 -373 0
-384 383 374 0
-384 -383 -374 0
384 -383 374 0
384 383 -374 0
-385 384 375 0
-385 -384 -375 0
385 -384 375 0
385 384 -375 0
-386 385 375 0
-386 -385 -375 0
386 -385 375 0
386 385 -375 0
-387 386 374 0
-387 -386 -374 0
387 -386 374 0
387 386 -374 0
-388 387 375 0
-388 -387 -375 0
388 -387 375 0
388 387 -375 0
-389 388 375 0
-389 -388 -375 0
389 -388 375 0
389 388 -375 0
-390 389 376 0
-390 -389 -376 0
390 -389 376 0
390 389 -376 0
-391 390 377 0
-391 -390 -377 0
391 -390 377 0
391 390 -377 0
-392 391 377 0
-392 -391 -377 0
392 -391 377 0
392 391 -377 0
-393 392 378 0
-393 -392 -378 0
393 -392 378 0
393 392 -378 0
-394 393 378 0
-394 -393 -378 0
394 -393 378 0
394 393 -378 0
-394 0
-395 1 0
-395 18 0
395 -1 -18 0
-396 395 0
-396 33 0
396 -395 -33 0
-397 2 0
-397 22 0
397 -2 -22 0
-398 397 0
-398 33 0
398 -397 -33 0
-399 2 0
-399 23 0
399 -2 -23 0
-400 399 0
-400 33 0
400 -399 -33 0
-401 17 0
-401 5 0
401 -17 -5 0
-402 401 0
-402 33 0
402 -401 -33 0
-403 21 0
-403 6 0
403 -21 -6 0
-404 403 0
-404 33 0
404 -403 -33 0
-405 21 0
-405 10 0
405 -21 -10 0
-406 405 0
-406 33 0
406 -405 -33 0
-407 49 0
-407 66 0
407 -49 -66 0
-408 407 0
-408 81 0
408 -407 -81 0
-409 50 0
-409 70 0
409 -50 -70 0
-410 409 0
-410 81 0
410 -409 -81 0
-411 50 0
-411 71 0
411 -50 -71 0
-412 411 0
-412 81 0
412 -411 -81 0
-413 65 0
-413 53 0
413 -65 -53 0
-414 413 0
-414 81 0
414 -413 -81 0
-415 69 0
-415 54 0
415 -69 -54 0
-416 415 0
-416 81 0
416 -415 -81 0
-417 69 0
-417 58 0
417 -69 -58 0
-418 417 0
-418 81 0
418 -417 -81 0
-419 97 0
-419 114 0
419 -97 -114 0
-420 419 0
-420 129 0
420 -419 -129 0
-421 98 0
-421 118 0
421 -98 -118 0
-422 421 0
-422 129 0
422 -421 -129 0
-423 98 0
-423 119 0
423 -98 -119 0
-424 423 0
-424 129 0
424 -423 -129 0
-425 145 0
-425 162 0
425 -145 -162 0
-426 425 0
-426 177 0
426 -425 -177 0
-427 161 0
-427 149 0
427 -161 -149 0
-428 427 0
-428 177 0
428 -427 -177 0
-429 396 398 0
-429 -396 -398 0
429 -396 398 0
429 396 -398 0
-430 429 400 0
-430 -429 -400 0
430 -429 400 0
430 429 -400 0
-431 430 402 0
-431 -430 -402 0
431 -430 402 0
431 430 -402 0
-432 431 404 0
-432 -431 -404 0
432 -431 404 0
432 431 -404 0
-433 432 406 0
-433 -432 -406 0
433 -432 406 0
433 432 -406 0
-434 433 408 0
-434 -433 -408 0
434 -433 408 0
434 433 -408 0
-435 434 410 0
-435 -434 -410 0
435 -434 410 0
435 434 -410 0
-436 435 412 0
-436 -435 -412 0
436 -435 412 0
436 435 -412 0
-437 436 414 0
-437 -436 -414 0
437 -436 414 0
437 436 -414 0
-438 437 416 0
-438 -437 -416 0
438 -437 416 0
438 437 -416 0
-439 438 418 0
-439 -438 -418 0
439 -438 418 0
439 438 -418 0
-440 439 420 0
-440 -439 -420 0
440 -439 420 0
440 439 -420 0
-441 440 422 0
-441 -440 -422 0
441 -440 422 0
441 440 -422 0
-442 441 424 0
-442 -441 -424 0
442 -441 424 0
442 441 -424 0
-443 442 426 0
-443 -442 -426 0
443 -442 426 0
443 442 -426 0
-444 443 428 0
-444 -443 -428 0
444 -443 428 0
444 443 -428 0
-444 0
-445 395 0
-445 34 0
445 -395 -34 0
-446 397 0
-446 34 0
446 -397 -34 0
-447 399 0
-447 35 0
447 -399 -35 0
-448 401 0
-448 37 0
448 -401 -37 0
-449 403 0
-449 37 0
449 -403 -37 0
-450 405 0
-450 41 0
450 -405 -41 0
-451 407 0
-451 82 0
451 -407 -82 0
-452 409 0
-452 82 0
452 -409 -82 0
-453 411 0
-453 83 0
453 -411 -83 0
-454 413 0
-454 85 0
454 -413 -85 0
-455 415 0
-455 85 0
455 -415 -85 0
-456 417 0
-456 89 0
456 -417 -89 0
-457 419 0
-457 130 0
457 -419 -130 0
-458 421 0
-458 130 0
458 -421 -130 0
-459 423 0
-459 131 0
459 -423 -131 0
-460 425 0
-460 178 0
460 -425 -178 0
-461 427 0
-461 181 0
461 -427 -181 0
-462 445 446 0
-462 -445 -446 0
462 -445 446 0
462 445 -446 0
-463 462 447 0
-463 -462 -447 0
463 -462 447 0
463 462 -447 0
-464 463 448 0
-464 -463 -448 0
464 -463 448 0
464 463 -448 0
-465 464 449 0
-465 -464 -449 0
465 -464 449 0
465 464 -449 0
-466 465 450 0
-466 -465 -450 0
466 -465 450 0
466 465 -450 0
-467 466 451 0
-467 -466 -451 0
467 -466 451 0
467 466 -451 0
-468 467 452 0
-468 -467 -452 0
468 -467 452 0
468 467 -452 0
-469 468 453 0
-469 -468 -453 0
469 -468 453 0
469 468 -453 0
-470 469 454 0
-470 -469 -454 0
470 -469 454 0
470 469 -454 0
-471 470 455 0
-471 -470 -455 0
471 -470 455 0
471 470 -455 0
-472 471 456 0
-472 -471 -456 0
472 -471 456 0
472 471 -456 0
-473 472 457 0
-473 -472 -457 0
473 -472 457 0
473 472 -457 0
-474 473 458 0
-474 -473 -458 0
474 -473 458 0
474 473 -458 0
-475 474 459 0
-475 -474 -459 0
475 -474 459 0
475 474 -459 0
-476 475 460 0
-476 -475 -460 0
476 -475 460 0
476 475 -460 0
-477 476 461 0
-477 -476 -461 0
477 -476 461 0
477 476 -461 0
-477 0
-478 395 0
-478 35 0
478 -395 -35 0
-479 397 0
-479 36 0
479 -397 -36 0
-480 399 0
-480 36 0
480 -399 -36 0
-481 401 0
-481 41 0
481 -401 -41 0
-482 403 0
-482 45 0
482 -403 -45 0
-483 405 0
-483 45 0
483 -405 -45 0
-484 407 0
-484 83 0
484 -407 -83 0
-485 409 0
-485 84 0
485 -409 -84 0
-486 411 0
-486 84 0
486 -411 -84 0
-487 413 0
-487 89 0
487 -413 -89 0
-488 415 0
-488 93 0
488 -415 -93 0
-489 417 0
-489 93 0
489 -417 -93 0
-490 419 0
-490 131 0
490 -419 -131 0
-491 421 0
-491 132 0
491 -421 -132 0
-492 423 0
-492 132 0
492 -423 -132 0
-493 425 0
-493 179 0
493 -425 -179 0
-494 427 0
-494 185 0
494 -427 -185 0
-495 478 479 0
-495 -478 -479 0
495 -478 479 0
495 478 -479 0
-496 495 480 0
-496 -495 -480 0
496 -495 480 0
496 495 -480 0
-497 496 481 0
-497 -496 -481 0
497 -496 481 0
497 496 -481 0
-498 497 482 0
-498 -497 -482 0
498 -497 482 0
498 497 -482 0
-499 498 483 0
-499 -498 -483 0
499 -498 483 0
499 498 -483 0
-500 499 484 0
-500 -499 -484 0
500 -499 484 0
500 499 -484 0
-501 500 485 0
-501 -500 -485 0
501 -500 485 0
501 500 -485 0
-502 501 486 0
-502 -501 -486 0
502 -501 486 0
502 501 -486 0
-503 502 487 0
-503 -502 -487 0
503 -502 487 0
503 502 -487 0
-504 503 488 0
-504 -503 -488 0
504 -503 488 0
504 503 -488 0
-505 504 489 0
-505 -504 -489 0
505 -504 489 0
505 504 -489 0
-506 505 490 0
-506 -505 -490 0
506 -505 490 0
506 505 -490 0
-507 506 491 0
-507 -506 -491 0
507 -506 491 0
507 506 -491 0
-508 507 492 0
-508 -507 -492 0
508 -507 492 0
508 507 -492 0
-509 508 493 0
-509 -508 -493 0
509 -508 493 0
509 508 -493 0
-510 509 494 0
-510 -509 -494 0
510 -509 494 0
510 509 -494 0
510 0
-511 395 0
-511 36 0
511 -395 -36 0
-512 397 0
-512 35 0
512 -397 -35 0
-513 399 0
-513 34 0
513 -399 -34 0
-514 401 0
-514 45 0
514 -401 -45 0
-515 403 0
-515 41 0
515 -403 -41 0
-516 405 0
-516 37 0
516 -405 -37 0
-517 407 0
-517 84 0
517 -407 -84 0
-518 409 0
-518 83 0
518 -409 -83 0
-519 411 0
-519 82 0
519 -411 -82 0
-520 413 0
-520 93 0
520 -413 -93 0
-521 415 0
-521 89 0
521 -415 -89 0
-522 417 0
-522 85 0
522 -417 -85 0
-523 419 0
-523 132 0
523 -419 -132 0
-524 421 0
-524 131 0
524 -421 -131 0
-525 423 0
-525 130 0
525 -423 -130 0
-526 425 0
-526 180 0
526 -425 -180 0
-527 427 0
-527 189 0
527 -427 -189 0
-528 511 512 0
-528 -511 -512 0
528 -511 512 0
528 511 -512 0
-529 528 513 0
-529 -528 -513 0
529 -528 513 0
529 528 -513 0
-530 529 514 0
-530 -529 -514 0
530 -529 514 0
530 529 -514 0
-531 530 515 0
-531 -530 -515 0
531 -530 515 0
531 530 -515 0
-532 531 516 0
-532 -531 -516 0
532 -531 516 0
532 531 -516 0
-533 532 517 0
-533 -532 -517 0
533 -532 517 0
533 532 -517 0
-534 533 518 0
-534 -533 -518 0
534 -533 518 0
534 533 -518 0
-535 534 519 0
-535 -534 -519 0
535 -534 519 0
535 534 -519 0
-536 535 520 0
-536 -535 -520 0
536 -535 520 0
536 535 -520 0
-537 536 521 0
-537 -536 -521 0
537 -536 521 0
537 536 -521 0
-538 537 522 0
-538 -537 -522 0
538 -537 522 0
538 537 -522 0
-539 538 523 0
-539 -538 -523 0
539 -538 523 0
539 538 -523 0
-540 539 524 0
-540 -539 -524 0
540 -539 524 0
540 539 -524 0
-541 540 525 0
-541 -540 -525 0
541 -540 525 0
541 540 -525 0
-542 541 526 0
-542 -541 -526 0
542 -541 526 0
542 541 -526 0
-543 542 527 0
-543 -542 -527 0
543 -542 527 0
543 542 -527 0
-543 0
-544 395 0
-544 37 0
544 -395 -37 0
-545 397 0
-545 37 0
545 -397 -37 0
-546 399 0
-546 41 0
546 -399 -41 0
-547 401 0
-547 34 0
547 -401 -34 0
-548 403 0
-548 34 0
548 -403 -34 0
-549 405 0
-549 35 0
549 -405 -35 0
-550 407 0
-550 85 0
550 -407 -85 0
-551 409 0
-551 85 0
551 -409 -85 0
-552 411 0
-552 89 0
552 -411 -89 0
-553 413 0
-553 82 0
553 -413 -82 0
-554 415 0
-554 82 0
554 -415 -82 0
-555 417 0
-555 83 0
555 -417 -83 0
-556 419 0
-556 133 0
556 -419 -133 0
-557 421 0
-557 133 0
557 -421 -133 0
-558 423 0
-558 137 0
558 -423 -137 0
-559 425 0
-559 181 0
559 -425 -181 0
-560 427 0
-560 178 0
560 -427 -178 0
-561 544 545 0
-561 -544 -545 0
561 -544 545 0
561 544 -545 0
-562 561 546 0
-562 -561 -546 0
562 -561 546 0
562 561 -546 0
-563 562 547 0
-563 -562 -547 0
563 -562 547 0
563 562 -547 0
-564 563 548 0
-564 -563 -548 0
564 -563 548 0
564 563 -548 0
-565 564 549 0
-565 -564 -549 0
565 -564 549 0
565 564 -549 0
-566 565 550 0
-566 -565 -550 0
566 -565 550 0
566 565 -550 0
-567 566 551 0
-567 -566 -551 0
567 -566 551 0
567 566 -551 0
-568 567 552 0
-568 -567 -552 0
568 -567 552 0
568 567 -552 0
-569 568 553 0
-569 -568 -553 0
569 -568 553 0
569 568 -553 0
-570 569 554 0
-570 -569 -554 0
570 -569 554 0
570 569 -554 0
-571 570 555 0
-571 -570 -555 0
571 -570 555 0
571 570 -555 0
-572 571 556 0
-572 -571 -556 0
572 -571 556 0
572 571 -556 0
-573 572 557 0
-573 -572 -557 0
573 -572 557 0
573 572 -557 0
-574 573 558 0
-574 -573 -558 0
574 -573 558 0
574 573 -558 0
-575 574 559 0
-575 -574 -559 0
575 -574 559 0
575 574 -559 0
-576 575 560 0
-576 -575 -560 0
576 -575 560 0
576 575 -560 0
-576 0
-577 395 0
-577 38 0
577 -395 -38 0
-578 397 0
-578 38 0
578 -397 -38 0
-579 399 0
-579 43 0
579 -399 -43 0
-580 401 0
-580 38 0
580 -401 -38 0
-581 403 0
-581 38 0
581 -403 -38 0
-582 405 0
-582 43 0
582 -405 -43 0
-583 407 0
-583 86 0
583 -407 -86 0
-584 409 0
-584 86 0
584 -409 -86 0
-585 411 0
-585 91 0
585 -411 -91 0
-586 413 0
-586 86 0
586 -413 -86 0
-587 415 0
-587 86 0
587 -415 -86 0
-588 417 0
-588 91 0
588 -417 -91 0
-589 419 0
-589 134 0
589 -419 -134 0
-590 421 0
-590 134 0
590 -421 -134 0
-591 423 0
-591 139 0
591 -423 -139 0
-592 425 0
-592 182 0
592 -425 -182 0
-593 427 0
-593 182 0
593 -427 -182 0
-594 577 578 0
-594 -577 -578 0
594 -577 578 0
594 577 -578 0
-595 594 579 0
-595 -594 -579 0
595 -594 579 0
595 594 -579 0
-596 595 580 0
-596 -595 -580 0
596 -595 580 0
596 595 -580 0
-597 596 581 0
-597 -596 -581 0
597 -596 581 0
597 596 -581 0
-598 597 582 0
-598 -597 -582 0
598 -597 582 0
598 597 -582 0
-599 598 583 0
-599 -598 -583 0
599 -598 583 0
599 598 -583 0
-600 599 584 0
-600 -599 -584 0
600 -599 584 0
600 599 -584 0
-601 600 585 0
-601 -600 -585 0
601 -600 585 0
601 600 -585 0
-602 601 586 0
-602 -601 -586 0
602 -601 586 0
602 601 -586 0
-603 602 587 0
-603 -602 -587 0
603 -602 587 0
603 602 -587 0
-604 603 588 0
-604 -603 -588 0
604 -603 588 0
604 603 -588 0
-605 604 589 0
-605 -604 -589 0
605 -604 589 0
605 604 -589 0
-606 605 590 0
-606 -605 -590 0
606 -605 590 0
606 605 -590 0
-607 606 591 0
-607 -606 -591 0
607 -606 591 0
607 606 -591 0
-608 607 592 0
-608 -607 -592 0
608 -607 592 0
608 607 -592 0
-609 608 593 0
-609 -608 -593 0
609 -608 593 0
609 608 -593 0
-609 0
-610 395 0
-610 39 0
610 -395 -39 0
-611 397 0
-611 40 0
611 -397 -40 0
-612 399 0
-612 44 0
612 -399 -44 0
-613 401 0
-613 42 0
613 -401 -42 0
-614 403 0
-614 46 0
614 -403 -46 0
-615 405 0
-615 47 0
615 -405 -47 0
-616 407 0
-616 87 0
616 -407 -87 0
-617 409 0
-617 88 0
617 -409 -88 0
-618 411 0
-618 92 0
618 -411 -92 0
-619 413 0
-619 90 0
619 -413 -90 0
-620 415 0
-620 94 0
620 -415 -94 0
-621 417 0
-621 95 0
621 -417 -95 0
-622 419 0
-622 135 0
622 -419 -135 0
-623 421 0
-623 136 0
623 -421 -136 0
-624 423 0
-624 140 0
624 -423 -140 0
-625 425 0
-625 183 0
625 -425 -183 0
-626 427 0
-626 186 0
626 -427 -186 0
-627 610 611 0
-627 -610 -611 0
627 -610 611 0
627 610 -611 0
-628 627 612 0
-628 -627 -612 0
628 -627 612 0
628 627 -612 0
-629 628 613 0
-629 -628 -613 0
629 -628 613 0
629 628 -613 0
-630 629 614 0
-630 -629 -614 0
630 -629 614 0
630 629 -614 0
-631 630 615 0
-631 -630 -615 0
631 -630 615 0
631 630 -615 0
-632 631 616 0
-632 -631 -616 0
632 -631 616 0
632 631 -616 0
-633 632 617 0
-633 -632 -617 0
633 -632 617 0
633 632 -617 0
-634 633 618 0
-634 -633 -618 0
634 -633 618 0
634 633 -618 0
-635 634 619 0
-635 -634 -619 0
635 -634 619 0
635 634 -619 0
-636 635 620 0
-636 -635 -620 0
636 -635 620 0
636 635 -620 0
-637 636 621 0
-637 -636 -621 0
637 -636 621 0
637 636 -621 0
-638 637 622 0
-638 -637 -622 0
638 -637 622 0
638 637 -622 0
-639 638 623 0
-639 -638 -623 0
639 -638 623 0
639 638 -623 0
-640 639 624 0
-640 -639 -624 0
640 -639 624 0
640 639 -624 0
-641 640 625 0
-641 -640 -625 0
641 -640 625 0
641 640 -625 0
-642 641 626 0
-642 -641 -626 0
642 -641 626 0
642 641 -626 0
-642 0
-643 395 0
-643 40 0
643 -395 -40 0
-644 397 0
-644 39 0
644 -397 -39 0
-645 399 0
-645 42 0
645 -399 -42 0
-646 401 0
-646 46 0
646 -401 -46 0
-647 403 0
-647 42 0
647 -403 -42 0
-648 405 0
-648 39 0
648 -405 -39 0
-649 407 0
-649 88 0
649 -407 -88 0
-650 409 0
-650 87 0
650 -409 -87 0
-651 411 0
-651 90 0
651 -411 -90 0
-652 413 0
-652 94 0
652 -413 -94 0
-653 415 0
-653 90 0
653 -415 -90 0
-654 417 0
-654 87 0
654 -417 -87 0
-655 419 0
-655 136 0
655 -419 -136 0
-656 421 0
-656 135 0
656 -421 -135 0
-657 423 0
-657 138 0
657 -423 -138 0
-658 425 0
-658 184 0
658 -425 -184 0
-659 427 0
-659 190 0
659 -427 -190 0
-660 643 644 0
-660 -643 -644 0
660 -643 644 0
660 643 -644 0
-661 660 645 0
-661 -660 -645 0
661 -660 645 0
661 660 -645 0
-662 661 646 0
-662 -661 -646 0
662 -661 646 0
662 661 -646 0
-663 662 647 0
-663 -662 -647 0
663 -662 647 0
663 662 -647 0
-664 663 648 0
-664 -663 -648 0
664 -663 648 0
664 663 -648 0
-665 664 649 0
-665 -664 -649 0
665 -664 649 0
665 664 -649 0
-666 665 650 0
-666 -665 -650 0
666 -665 650 0
666 665 -650 0
-667 666 651 0
-667 -666 -651 0
667 -666 651 0
667 666 -651 0
-668 667 652 0
-668 -667 -652 0
668 -667 652 0
668 667 -652 0
-669 668 653 0
-669 -668 -653 0
669 -668 653 0
669 668 -653 0
-670 669 654 0
-670 -669 -654 0
670 -669 654 0
670 669 -654 0
-671 670 655 0
-671 -670 -655 0
671 -670 655 0
671 670 -655 0
-672 671 656 0
-672 -671 -656 0
672 -671 656 0
672 671 -656 0
-673 672 657 0
-673 -672 -657 0
673 -672 657 0
673 672 -657 0
-674 673 658 0
-674 -673 -658 0
674 -673 658 0
674 673 -658 0
-675 674 659 0
-675 -674 -659 0
675 -674 659 0
675 674 -659 0
-675 0
-676 395 0
-676 41 0
676 -395 -41 0
-677 397 0
-677 45 0
677 -397 -45 0
-678 399 0
-678 45 0
678 -399 -45 0
-679 401 0
-679 35 0
679 -401 -35 0
-680 403 0
-680 36 0
680 -403 -36 0
-681 405 0
-681 36 0
681 -405 -36 0
-682 407 0
-682 89 0
682 -407 -89 0
-683 409 0
-683 93 0
683 -409 -93 0
-684 411 0
-684 93 0
684 -411 -93 0
-685 413 0
-685 83 0
685 -413 -83 0
-686 415 0
-686 84 0
686 -415 -84 0
-687 417 0
-687 84 0
687 -417 -84 0
-688 419 0
-688 137 0
688 -419 -137 0
-689 421 0
-689 141 0
689 -421 -141 0
-690 423 0
-690 141 0
690 -423 -141 0
-691 425 0
-691 185 0
691 -425 -185 0
-692 427 0
-692 179 0
692 -427 -179 0
-693 676 677 0
-693 -676 -677 0
693 -676 677 0
693 676 -677 0
-694 693 678 0
-694 -693 -678 0
694 -693 678 0
694 693 -678 0
-695 694 679 0
-695 -694 -679 0
695 -694 679 0
695 694 -679 0
-696 695 680 0
-696 -695 -680 0
696 -695 680 0
696 695 -680 0
-697 696 681 0
-697 -696 -681 0
697 -696 681 0
697 696 -681 0
-698 697 682 0
-698 -697 -682 0
698 -697 682 0
698 697 -682 0
-699 698 683 0
-699 -698 -683 0
699 -698 683 0
699 698 -683 0
-700 699 684 0
-700 -699 -684 0
700 -699 684 0
700 699 -684 0
-701 700 685 0
-701 -700 -685 0
701 -700 685 0
701 700 -685 0
-702 701 686 0
-702 -701 -686 0
702 -701 686 0
702 701 -686 0
-703 702 687 0
-703 -702 -687 0
703 -702 687 0
703 702 -687 0
-704 703 688 0
-704 -703 -688 0
704 -703 688 0
704 703 -688 0
-705 704 689 0
-705 -704 -689 0
705 -704 689 0
705 704 -689 0
-706 705 690 0
-706 -705 -690 0
706 -705 690 0
706 705 -690 0
-707 706 691 0
-707 -706 -691 0
707 -706 691 0
707 706 -691 0
-708 707 692 0
-708 -707 -692 0
708 -707 692 0
708 707 -692 0
-708 0
-709 395 0
-709 42 0
709 -395 -42 0
-710 397 0
-710 46 0
710 -397 -46 0
-711 399 0
-711 47 0
711 -399 -47 0
-712 401 0
-712 39 0
712 -401 -39 0
-713 403 0
-713 40 0
713 -403 -40 0
-714 405 0
-714 44 0
714 -405 -44 0
-715 407 0
-715 90 0
715 -407 -90 0
-716 409 0
-716 94 0
716 -409 -94 0
-717 411 0
-717 95 0
717 -411 -95 0
-718 413 0
-718 87 0
718 -413 -87 0
-719 415 0
-719 88 0
719 -415 -88 0
-720 417 0
-720 92 0
720 -417 -92 0
-721 419 0
-721 138 0
721 -419 -138 0
-722 421 0
-722 142 0
722 -421 -142 0
-723 423 0
-723 143 0
723 -423 -143 0
-724 425 0
-724 186 0
724 -425 -186 0
-725 427 0
-725 183 0
725 -427 -183 0
-726 709 710 0
-726 -709 -710 0
726 -709 710 0
726 709 -710 0
-727 726 711 0
-727 -726 -711 0
727 -726 711 0
727 726 -711 0
-728 727 712 0
-728 -727 -712 0
728 -727 712 0
728 727 -712 0
-729 728 713 0
-729 -728 -713 0
729 -728 713 0
729 728 -713 0
-730 729 714 0
-730 -729 -714 0
730 -729 714 0
730 729 -714 0
-731 730 715 0
-731 -730 -715 0
731 -730 715 0
731 730 -715 0
-732 731 716 0
-732 -731 -716 0
732 -731 716 0
732 731 -716 0
-733 732 717 0
-733 -732 -717 0
733 -732 717 0
733 732 -717 0
-734 733 718 0
-734 -733 -718 0
734 -733 718 0
734 733 -718 0
-735 734 719 0
-735 -734 -719 0
735 -734 719 0
735 734 -719 0
-736 735 720 0
-736 -735 -720 0
736 -735 720 0
736 735 -720 0
-737 736 721 0
-737 -736 -721 0
737 -736 721 0
737 736 -721 0
-738 737 722 0
-738 -737 -722 0
738 -737 722 0
738 737 -722 0
-739 738 723 0
-739 -738 -723 0
739 -738 723 0
739 738 -723 0
-740 739 724 0
-740 -739 -724 0
740 -739 724 0
740 739 -724 0
-741 740 725 0
-741 -740 -725 0
741 -740 725 0
741 740 -725 0
-741 0
-742 395 0
-742 43 0
742 -395 -43 0
-743 397 0
-743 48 0
743 -397 -48 0
-744 399 0
-744 48 0
744 -399 -48 0
-745 401 0
-745 43 0
745 -401 -43 0
-746 403 0
-746 48 0
746 -403 -48 0
-747 405 0
-747 48 0
747 -405 -48 0
-748 407 0
-748 91 0
748 -407 -91 0
-749 409 0
-749 96 0
749 -409 -96 0
-750 411 0
-750 96 0
750 -411 -96 0
-751 413 0
-751 91 0
751 -413 -91 0
-752 415 0
-752 96 0
752 -415 -96 0
-753 417 0
-753 96 0
753 -417 -96 0
-754 419 0
-754 139 0
754 -419 -139 0
-755 421 0
-755 144 0
755 -421 -144 0
-756 423 0
-756 144 0
756 -423 -144 0
-757 425 0
-757 187 0
757 -425 -187 0
-758 427 0
-758 187 0
758 -427 -187 0
-759 742 743 0
-759 -742 -743 0
759 -742 743 0
759 742 -743 0
-760 759 744 0
-760 -759 -744 0
760 -759 744 0
760 759 -744 0
-761 760 745 0
-761 -760 -745 0
761 -760 745 0
761 760 -745 0
-762 761 746 0
-762 -761 -746 0
762 -761 746 0
762 761 -746 0
-763 762 747 0
-763 -762 -747 0
763 -762 747 0
763 762 -747 0
-764 763 748 0
-764 -763 -748 0
764 -763 748 0
764 763 -748 0
-765 764 749 0
-765 -764 -749 0
765 -764 749 0
765 764 -749 0
-766 765 750 0
-766 -765 -750 0
766 -765 750 0
766 765 -750 0
-767 766 751 0
-767 -766 -751 0
767 -766 751 0
767 766 -751 0
-768 767 752 0
-768 -767 -752 0
768 -767 752 0
768 767 -752 0
-769 768 753 0
-769 -768 -753 0
769 -768 753 0
769 768 -753 0
-770 769 754 0
-770 -769 -754 0
770 -769 754 0
770 769 -754 0
-771 770 755 0
-771 -770 -755 0
771 -770 755 0
771 770 -755 0
-772 771 756 0
-772 -771 -756 0
772 -771 756 0
772 771 -756 0
-773 772 757 0
-773 -772 -757 0
773 -772 757 0
773 772 -757 0
-774 773 758 0
-774 -773 -758 0
774 -773 758 0
774 773 -758 0
-774 0
-775 395 0
-775 44 0
775 -395 -44 0
-776 397 0
-776 47 0
776 -397 -47 0
-777 399 0
-777 46 0
777 -399 -46 0
-778 401 0
-778 47 0
778 -401 -47 0
-779 403 0
-779 44 0
779 -403 -44 0
-780 405 0
-780 40 0
780 -405 -40 0
-781 407 0
-781 92 0
781 -407 -92 0
-782 409 0
-782 95 0
782 -409 -95 0
-783 411 0
-783 94 0
783 -411 -94 0
-784 413 0
-784 95 0
784 -413 -95 0
-785 415 0
-785 92 0
785 -415 -92 0
-786 417 0
-786 88 0
786 -417 -88 0
-787 419 0
-787 140 0
787 -419 -140 0
-788 421 0
-788 143 0
788 -421 -143 0
-789 423 0
-789 142 0
789 -423 -142 0
-790 425 0
-790 188 0
790 -425 -188 0
-791 427 0
-791 191 0
791 -427 -191 0
-792 775 776 0
-792 -775 -776 0
792 -775 776 0
792 775 -776 0
-793 792 777 0
-793 -792 -777 0
793 -792 777 0
793 792 -777 0
-794 793 778 0
-794 -793 -778 0
794 -793 778 0
794 793 -778 0
-795 794 779 0
-795 -794 -779 0
795 -794 779 0
795 794 -779 0
-796 795 780 0
-796 -795 -780 0
796 -795 780 0
796 795 -780 0
-797 796 781 0
-797 -796 -781 0
797 -796 781 0
797 796 -781 0
-798 797 782 0
-798 -797 -782 0
798 -797 782 0
798 797 -782 0
-799 798 783 0
-799 -798 -783 0
799 -798 783 0
799 798 -783 0
-800 799 784 0
-800 -799 -784 0
800 -799 784 0
800 799 -784 0
-801 800 785 0
-801 -800 -785 0
801 -800 785 0
801 800 -785 0
-802 801 786 0
-802 -801 -786 0
802 -801 786 0
802 801 -786 0
-803 802 787 0
-803 -802 -787 0
803 -802 787 0
803 802 -787 0
-804 803 788 0
-804 -803 -788 0
804 -803 788 0
804 803 -788 0
-805 804 789 0
-805 -804 -789 0
805 -804 789 0
805 804 -789 0
-806 805 790 0
-806 -805 -790 0
806 -805 790 0
806 805 -790 0
-807 806 791 0
-807 -806 -791 0
807 -806 791 0
807 806 -791 0
-807 0
-808 395 0
-808 45 0
808 -395 -45 0
-809 397 0
-809 41 0
809 -397 -41 0
-810 399 0
-810 37 0
810 -399 -37 0
-811 401 0
-811 36 0
811 -401 -36 0
-812 403 0
-812 35 0
812 -403 -35 0
-813 405 0
-813 34 0
813 -405 -34 0
-814 407 0
-814 93 0
814 -407 -93 0
-815 409 0
-815 89 0
815 -409 -89 0
-816 411 0
-816 85 0
816 -411 -85 0
-817 413 0
-817 84 0
817 -413 -84 0
-818 415 0
-818 83 0
818 -415 -83 0
-819 417 0
-819 82 0
819 -417 -82 0
-820 419 0
-820 141 0
820 -419 -141 0
-821 421 0
-821 137 0
821 -421 -137 0
-822 423 0
-822 133 0
822 -423 -133 0
-823 425 0
-823 189 0
823 -425 -189 0
-824 427 0
-824 180 0
824 -427 -180 0
-825 808 809 0
-825 -808 -809 0
825 -808 809 0
825 808 -809 0
-826 825 810 0
-826 -825 -810 0
826 -825 810 0
826 825 -810 0
-827 826 811 0
-827 -826 -811 0
827 -826 811 0
827 826 -811 0
-828 827 812 0
-828 -827 -812 0
828 -827 812 0
828 827 -812 0
-829 828 813 0
-829 -828 -813 0
829 -828 813 0
829 828 -813 0
-830 829 814 0
-830 -829 -814 0
830 -829 814 0
830 829 -814 0
-831 830 815 0
-831 -830 -815 0
831 -830 815 0
831 830 -815 0
-832 831 816 0
-832 -831 -816 0
832 -831 816 0
832 831 -816 0
-833 832 817 0
-833 -832 -817 0
833 -832 817 0
833 832 -817 0
-834 833 818 0
-834 -833 -818 0
834 -833 818 0
834 833 -818 0
-835 834 819 0
-835 -834 -819 0
835 -834 819 0
835 834 -819 0
-836 835 820 0
-836 -835 -820 0
836 -835 820 0
836 835 -820 0
-837 836 821 0
-837 -836 -821 0
837 -836 821 0
837 836 -821 0
-838 837 822 0
-838 -837 -822 0
838 -837 822 0
838 837 -822 0
-839 838 823 0
-839 -838 -823 0
839 -838 823 0
839 838 -823 0
-840 839 824 0
-840 -839 -824 0
840 -839 824 0
840 839 -824 0
-840 0
-841 395 0
-841 46 0
841 -395 -46 0
-842 397 0
-842 42 0
842 -397 -42 0
-843 399 0
-843 39 0
843 -399 -39 0
-844 401 0
-844 40 0
844 -401 -40 0
-845 403 0
-845 39 0
845 -403 -39 0
-846 405 0
-846 42 0
846 -405 -42 0
-847 407 0
-847 94 0
847 -407 -94 0
-848 409 0
-848 90 0
848 -409 -90 0
-849 411 0
-849 87 0
849 -411 -87 0
-850 413 0
-850 88 0
850 -413 -88 0
-851 415 0
-851 87 0
851 -415 -87 0
-852 417 0
-852 90 0
852 -417 -90 0
-853 419 0
-853 142 0
853 -419 -142 0
-854 421 0
-854 138 0
854 -421 -138 0
-855 423 0
-855 135 0
855 -423 -135 0
-856 425 0
-856 190 0
856 -425 -190 0
-857 427 0
-857 184 0
857 -427 -184 0
-858 841 842 0
-858 -841 -842 0
858 -841 842 0
858 841 -842 0
-859 858 843 0
-859 -858 -843 0
859 -858 843 0
859 858 -843 0
-860 859 844 0
-860 -859 -844 0
860 -859 844 0
860 859 -844 0
-861 860 845 0
-861 -860 -845 0
861 -860 845 0
861 860 -845 0
-862 861 846 0
-862 -861 -846 0
862 -861 846 0
862 861 -846 0
-863 862 847 0
-863 -862 -847 0
863 -862 847 0
863 862 -847 0
-864 863 848 0
-864 -863 -848 0
864 -863 848 0
864 863 -848 0
-865 864 849 0
-865 -864 -849 0
865 -864 849 0
865 864 -849 0
-866 865 850 0
-866 -865 -850 0
866 -865 850 0
866 865 -850 0
-867 866 851 0
-867 -866 -851 0
867 -866 851 0
867 866 -851 0
-868 867 852 0
-868 -867 -852 0
868 -867 852 0
868 867 -852 0
-869 868 853 0
-869 -868 -853 0
869 -868 853 0
869 868 -853 0
-870 869 854 0
-870 -869 -854 0
870 -869 854 0
870 869 -854 0
-871 870 855 0
-871 -870 -855 0
871 -870 855 0
871 870 -855 0
-872 871 856 0
-872 -871 -856 0
872 -871 856 0
872 871 -856 0
-873 872 857 0
-873 -872 -857 0
873 -872 857 0
873 872 -857 0
-873 0
-874 395 0
-874 47 0
874 -395 -47 0
-875 397 0
-875 44 0
875 -397 -44 0
-876 399 0
-876 40 0
876 -399 -40 0
-877 401 0
-877 44 0
877 -401 -44 0
-878 403 0
-878 47 0
878 -403 -47 0
-879 405 0
-879 46 0
879 -405 -46 0
-880 407 0
-880 95 0
880 -407 -95 0
-881 409 0
-881 92 0
881 -409 -92 0
-882 411 0
-882 88 0
882 -411 -88 0
-883 413 0
-883 92 0
883 -413 -92 0
-884 415 0
-884 95 0
884 -415 -95 0
-885 417 0
-885 94 0
885 -417 -94 0
-886 419 0
-886 143 0
886 -419 -143 0
-887 421 0
-887 140 0
887 -421 -140 0
-888 423 0
-888 136 0
888 -423 -136 0
-889 425 0
-889 191 0
889 -425 -191 0
-890 427 0
-890 188 0
890 -427 -188 0
-891 874 875 0
-891 -874 -875 0
891 -874 875 0
891 874 -875 0
-892 891 876 0
-892 -891 -876 0
892 -891 876 0
892 891 -876 0
-893 892 877 0
-893 -892 -877 0
893 -892 877 0
893 892 -877 0
-894 893 878 0
-894 -893 -878 0
894 -893 878 0
894 893 -878 0
-895 894 879 0
-895 -894 -879 0
895 -894 879 0
895 894 -879 0
-896 895 880 0
-896 -895 -880 0
896 -895 880 0
896 895 -880 0
-897 896 881 0
-897 -896 -881 0
897 -896 881 0
897 896 -881 0
-898 897 882 0
-898 -897 -882 0
898 -897 882 0
898 897 -882 0
-899 898 883 0
-899 -898 -883 0
899 -898 883 0
899 898 -883 0
-900 899 884 0
-900 -899 -884 0
900 -899 884 0
900 899 -884 0
-901 900 885 0
-901 -900 -885 0
901 -900 885 0
901 900 -885 0
-902 901 886 0
-902 -901 -886 0
902 -901 886 0
902 901 -886 0
-903 902 887 0
-903 -902 -887 0
903 -902 887 0
903 902 -887 0
-904 903 888 0
-904 -903 -888 0
904 -903 888 0
904 903 -888 0
-905 904 889 0
-905 -904 -889 0
905 -904 889 0
905 904 -889 0
-906 905 890 0
-906 -905 -890 0
906 -905 890 0
906 905 -890 0
-906 0
-907 395 0
-907 48 0
907 -395 -48 0
-908 397 0
-908 43 0
908 -397 -43 0
-909 399 0
-909 38 0
909 -399 -38 0
-910 401 0
-910 48 0
910 -401 -48 0
-911 403 0
-911 43 0
911 -403 -43 0
-912 405 0
-912 38 0
912 -405 -38 0
-913 407 0
-913 96 0
913 -407 -96 0
-914 409 0
-914 91 0
914 -409 -91 0
-915 411 0
-915 86 0
915 -411 -86 0
-916 413 0
-916 96 0
916 -413 -96 0
-917 415 0
-917 91 0
917 -415 -91 0
-918 417 0
-918 86 0
918 -417 -86 0
-919 419 0
-919 144 0
919 -419 -144 0
-920 421 0
-920 139 0
920 -421 -139 0
-921 423 0
-921 134 0
921 -423 -134 0
-922 425 0
-922 192 0
922 -425 -192 0
-923 427 0
-923 192 0
923 -427 -192 0
-924 907 908 0
-924 -907 -908 0
924 -907 908 0
924 907 -908 0
-925 924 909 0
-925 -924 -909 0
925 -924 909 0
925 924 -909 0
-926 925 910 0
-926 -925 -910 0
926 -925 910 0
926 925 -910 0
-927 926 911 0
-927 -926 -911 0
927 -926 911 0
927 926 -911 0
-928 927 912 0
-928 -927 -912 0
928 -927 912 0
928 927 -912 0
-929 928 913 0
-929 -928 -913 0
929 -928 913 0
929 928 -913 0
-930 929 914 0
-930 -929 -914 0
930 -929 914 0
930 929 -914 0
-931 930 915 0
-931 -930 -915 0
931 -930 915 0
931 930 -915 0
-932 931 916 0
-932 -931 -916 0
932 -931 916 0
932 931 -916 0
-933 932 917 0
-933 -932 -917 0
933 -932 917 0
933 932 -917 0
-934 933 918 0
-934 -933 -918 0
934 -933 918 0
934 933 -918 0
-935 934 919 0
-935 -934 -919 0
935 -934 919 0
935 934 -919 0
-936 935 920 0
-936 -935 -920 0
936 -935 920 0
936 935 -920 0
-937 936 921 0
-937 -936 -921 0
937 -936 921 0
937 936 -921 0
-938 937 922 0
-938 -937 -922 0
938 -937 922 0
938 937 -922 0
-939 938 923 0
-939 -938 -923 0
939 -938 923 0
939 938 -923 0
-939 0
-940 1 0
-940 19 0
940 -1 -19 0
-941 940 0
-941 33 0
941 -940 -33 0
-942 2 0
-942 24 0
942 -2 -24 0
-943 942 0
-943 33 0
943 -942 -33 0
-944 17 0
-944 9 0
944 -17 -9 0
-945 944 0
-945 33 0
945 -944 -33 0
-946 21 0
-946 14 0
946 -21 -14 0
-947 946 0
-947 33 0
947 -946 -33 0
-948 49 0
-948 67 0
948 -49 -67 0
-949 948 0
-949 81 0
949 -948 -81 0
-950 50 0
-950 72 0
950 -50 -72 0
-951 950 0
-951 81 0
951 -950 -81 0
-952 65 0
-952 57 0
952 -65 -57 0
-953 952 0
-953 81 0
953 -952 -81 0
-954 69 0
-954 62 0
954 -69 -62 0
-955 954 0
-955 81 0
955 -954 -81 0
-956 97 0
-956 115 0
956 -97 -115 0
-957 956 0
-957 129 0
957 -956 -129 0
-958 98 0
-958 120 0
958 -98 -120 0
-959 958 0
-959 129 0
959 -958 -129 0
-960 145 0
-960 163 0
960 -145 -163 0
-961 960 0
-961 177 0
961 -960 -177 0
-962 161 0
-962 153 0
962 -161 -153 0
-963 962 0
-963 177 0
963 -962 -177 0
-964 941 943 0
-964 -941 -943 0
964 -941 943 0
964 941 -943 0
-965 964 943 0
-965 -964 -943 0
965 -964 943 0
965 964 -943 0
-966 965 945 0
-966 -965 -945 0
966 -965 945 0
966 965 -945 0
-967 966 947 0
-967 -966 -947 0
967 -966 947 0
967 966 -947 0
-968 967 947 0
-968 -967 -947 0
968 -967 947 0
968 967 -947 0
-969 968 949 0
-969 -968 -949 0
969 -968 949 0
969 968 -949 0
-970 969 951 0
-970 -969 -951 0
970 -969 951 0
970 969 -951 0
-971 970 951 0
-971 -970 -951 0
971 -970 951 0
971 970 -951 0
-972 971 953 0
-972 -971 -953 0
972 -971 953 0
972 971 -953 0
-973 972 955 0
-973 -972 -955 0
973 -972 955 0
973 972 -955 0
-974 973 955 0
-974 -973 -955 0
974 -973 955 0
974 973 -955 0
-975 974 957 0
-975 -974 -957 0
975 -974 957 0
975 974 -957 0
-976 975 959 0
-976 -975 -959 0
976 -975 959 0
976 975 -959 0
-977 976 959 0
-977 -976 -959 0
977 -976 959 0
977 976 -959 0
-978 977 961 0
-978 -977 -961 0
978 -977 961 0
978 977 -961 0
-979 978 963 0
-979 -978 -963 0
979 -978 963 0
979 978 -963 0
-979 0
-980 940 0
-980 34 0
980 -940 -34 0
-981 942 0
-981 34 0
981 -942 -34 0
-982 942 0
-982 35 0
982 -942 -35 0
-983 944 0
-983 37 0
983 -944 -37 0
-984 946 0
-984 37 0
984 -946 -37 0
-985 946 0
-985 41 0
985 -946 -41 0
-986 948 0
-986 82 0
986 -948 -82 0
-987 950 0
-987 82 0
987 -950 -82 0
-988 950 0
-988 83 0
988 -950 -83 0
-989 952 0
-989 85 0
989 -952 -85 0
-990 954 0
-990 85 0
990 -954 -85 0
-991 954 0
-991 89 0
991 -954 -89 0
-992 956 0
-992 130 0
992 -956 -130 0
-993 958 0
-993 130 0
993 -958 -130 0
-994 958 0
-994 131 0
994 -958 -131 0
-995 960 0
-995 178 0
995 -960 -178 0
-996 962 0
-996 181 0
996 -962 -181 0
-997 980 981 0
-997 -980 -981 0
997 -980 981 0
997 980 -981 0
-998 997 982 0
-998 -997 -982 0
998 -997 982 0
998 997 -982 0
-999 998 983 0
-999 -998 -983 0
999 -998 983 0
999 998 -983 0
-1000 999 984 0
-1000 -999 -984 0
1000 -999 984 0
1000 999 -984 0
-1001 1000 985 0
-1001 -1000 -985 0
1001 -1000 985 0
1001 1000 -985 0
-1002 1001 986 0
-1002 -1001 -986 0
1002 -1001 986 0
1002 1001 -986 0
-1003 1002 987 0
-1003 -1002 -987 0
1003 -1002 987 0
1003 1002 -987 0
-1004 1003 988 0
-1004 -1003 -988 0
1004 -1003 988 0
1004 1003 -988 0
-1005 1004 989 0
-1005 -1004 -989 0
1005 -1004 989 0
1005 1004 -989 0
-1006 1005 990 0
-1006 -1005 -990 0
1006 -1005 990 0
1006 1005 -990 0
-1007 1006 991 0
-1007 -1006 -991 0
1007 -1006 991 0
1007 1006 -991 0
-1008 1007 992 0
-1008 -1007 -992 0
1008 -1007 992 0
1008 1007 -992 0
-1009 1008 993 0
-1009 -1008 -993 0
1009 -1008 993 0
1009 1008 -993 0
-1010 1009 994 0
-1010 -1009 -994 0
1010 -1009 994 0
1010 1009 -994 0
-1011 1010 995 0
-1011 -1010 -995 0
1011 -1010 995 0
1011 1010 -995 0
-1012 1011 996 0
-1012 -1011 -996 0
1012 -1011 996 0
1012 1011 -996 0
-1012 0
-1013 940 0
-1013 35 0
1013 -940 -35 0
-1014 942 0
-1014 36 0
1014 -942 -36 0
-1015 944 0
-1015 41 0
1015 -944 -41 0
-1016 946 0
-1016 45 0
1016 -946 -45 0
-1017 948 0
-1017 83 0
1017 -948 -83 0
-1018 950 0
-1018 84 0
1018 -950 -84 0
-1019 952 0
-1019 89 0
1019 -952 -89 0
-1020 954 0
-1020 93 0
1020 -954 -93 0
-1021 956 0
-1021 131 0
1021 -956 -131 0
-1022 958 0
-1022 132 0
1022 -958 -132 0
-1023 960 0
-1023 179 0
1023 -960 -179 0
-1024 962 0
-1024 185 0
1024 -962 -185 0
-1025 1013 1014 0
-1025 -1013 -1014 0
1025 -1013 1014 0
1025 1013 -1014 0
-1026 1025 1014 0
-1026 -1025 -1014 0
1026 -1025 1014 0
1026 1025 -1014 0
-1027 1026 1015 0
-1027 -1026 -1015 0
1027 -1026 1015 0
1027 1026 -1015 0
-1028 1027 1016 0
-1028 -1027 -1016 0
1028 -1027 1016 0
1028 1027 -1016 0
-1029 1028 1016 0
-1029 -1028 -1016 0
1029 -1028 1016 0
1029 1028 -1016 0
-1030 1029 1017 0
-1030 -1029 -1017 0
1030 -1029 1017 0
1030 1029 -1017 0
-1031 1030 1018 0
-1031 -1030 -1018 0
1031 -1030 1018 0
1031 1030 -1018 0
-1032 1031 1018 0
-1032 -1031 -1018 0
1032 -1031 1018 0
1032 1031 -1018 0
-1033 1032 1019 0
-1033 -1032 -1019 0
1033 -1032 1019 0
1033 1032 -1019 0
-1034 1033 1020 0
-1034 -1033 -1020 0
1034 -1033 1020 0
1034 1033 -1020 0
-1035 1034 1020 0
-1035 -1034 -1020 0
1035 -1034 1020 0
1035 1034 -1020 0
-1036 1035 1021 0
-1036 -1035 -1021 0
1036 -1035 1021 0
1036 1035 -1021 0
-1037 1036 1022 0
-1037 -1036 -1022 0
1037 -1036 1022 0
1037 1036 -1022 0
-1038 1037 1022 0
-1038 -1037 -1022 0
1038 -1037 1022 0
1038 1037 -1022 0
-1039 1038 1023 0
-1039 -1038 -1023 0
1039 -1038 1023 0
1039 1038 -1023 0
-1040 1039 1024 0
-1040 -1039 -1024 0
1040 -1039 1024 0
1040 1039 -1024 0
-1040 0
-1041 940 0
-1041 37 0
1041 -940 -37 0
-1042 942 0
-1042 37 0
1042 -942 -37 0
-1043 942 0
-1043 41 0
1043 -942 -41 0
-1044 944 0
-1044 34 0
1044 -944 -34 0
-1045 946 0
-1045 34 0
1045 -946 -34 0
-1046 946 0
-1046 35 0
1046 -946 -35 0
-1047 948 0
-1047 85 0
1047 -948 -85 0
-1048 950 0
-1048 85 0
1048 -950 -85 0
-1049 950 0
-1049 89 0
1049 -950 -89 0
-1050 952 0
-1050 82 0
1050 -952 -82 0
-1051 954 0
-1051 82 0
1051 -954 -82 0
-1052 954 0
-1052 83 0
1052 -954 -83 0
-1053 956 0
-1053 133 0
1053 -956 -133 0
-1054 958 0
-1054 133 0
1054 -958 -133 0
-1055 958 0
-1055 137 0
1055 -958 -137 0
-1056 960 0
-1056 181 0
1056 -960 -181 0
-1057 962 0
-1057 178 0
1057 -962 -178 0
-1058 1041 1042 0
-1058 -1041 -1042 0
1058 -1041 1042 0
1058 1041 -1042 0
-1059 1058 1043 0
-1059 -1058 -1043 0
1059 -1058 1043 0
1059 1058 -1043 0
-1060 1059 1044 0
-1060 -1059 -1044 0
1060 -1059 1044 0
1060 1059 -1044 0
-1061 1060 1045 0
-1061 -1060 -1045 0
1061 -1060 1045 0
1061 1060 -1045 0
-1062 1061 1046 0
-1062 -1061 -1046 0
1062 -1061 1046 0
1062 1061 -1046 0
-1063 1062 1047 0
-1063 -1062 -1047 0
1063 -1062 1047 0
1063 1062 -1047 0
-1064 1063 1048 0
-1064 -1063 -1048 0
1064 -1063 1048 0
1064 1063 -1048 0
-1065 1064 1049 0
-1065 -1064 -1049 0
1065 -1064 1049 0
1065 1064 -1049 0
-1066 1065 1050 0
-1066 -1065 -1050 0
1066 -1065 1050 0
1066 1065 -1050 0
-1067 1066 1051 0
-1067 -1066 -1051 0
1067 -1066 1051 0
1067 1066 -1051 0
-1068 1067 1052 0
-1068 -1067 -1052 0
1068 -1067 1052 0
1068 1067 -1052 0
-1069 1068 1053 0
-1069 -1068 -1053 0
1069 -1068 1053 0
1069 1068 -1053 0
-1070 1069 1054 0
-1070 -1069 -1054 0
1070 -1069 1054 0
1070 1069 -1054 0
-1071 1070 1055 0
-1071 -1070 -1055 0
1071 -1070 1055 0
1071 1070 -1055 0
-1072 1071 1056 0
-1072 -1071 -1056 0
1072 -1071 1056 0
1072 1071 -1056 0
-1073 1072 1057 0
-1073 -1072 -1057 0
1073 -1072 1057 0
1073 1072 -1057 0
-1073 0
-1074 940 0
-1074 38 0
1074 -940 -38 0
-1075 942 0
-1075 38 0
1075 -942 -38 0
-1076 942 0
-1076 43 0
1076 -942 -43 0
-1077 944 0
-1077 38 0
1077 -944 -38 0
-1078 946 0
-1078 38 0
1078 -946 -38 0
-1079 946 0
-1079 43 0
1079 -946 -43 0
-1080 948 0
-1080 86 0
1080 -948 -86 0
-1081 950 0
-1081 86 0
1081 -950 -86 0
-1082 950 0
-1082 91 0
1082 -950 -91 0
-1083 952 0
-1083 86 0
1083 -952 -86 0
-1084 954 0
-1084 86 0
1084 -954 -86 0
-1085 954 0
-1085 91 0
1085 -954 -91 0
-1086 956 0
-1086 134 0
1086 -956 -134 0
-1087 958 0
-1087 134 0
1087 -958 -134 0
-1088 958 0
-1088 139 0
1088 -958 -139 0
-1089 960 0
-1089 182 0
1089 -960 -182 0
-1090 962 0
-1090 182 0
1090 -962 -182 0
-1091 1074 1075 0
-1091 -1074 -1075 0
1091 -1074 1075 0
1091 1074 -1075 0
-1092 1091 1076 0
-1092 -1091 -1076 0
1092 -1091 1076 0
1092 1091 -1076 0
-1093 1092 1077 0
-1093 -1092 -1077 0
1093 -1092 1077 0
1093 1092 -1077 0
-1094 1093 1078 0
-1094 -1093 -1078 0
1094 -1093 1078 0
1094 1093 -1078 0
-1095 1094 1079 0
-1095 -1094 -1079 0
1095 -1094 1079 0
1095 1094 -1079 0
-1096 1095 1080 0
-1096 -1095 -1080 0
1096 -1095 1080 0
1096 1095 -1080 0
-1097 1096 1081 0
-1097 -1096 -1081 0
1097 -1096 1081 0
1097 1096 -1081 0
-1098 1097 1082 0
-1098 -1097 -1082 0
1098 -1097 1082 0
1098 1097 -1082 0
-1099 1098 1083 0
-1099 -1098 -1083 0
1099 -1098 1083 0
1099 1098 -1083 0
-1100 1099 1084 0
-1100 -1099 -1084 0
1100 -1099 1084 0
1100 1099 -1084 0
-1101 1100 1085 0
-1101 -1100 -1085 0
1101 -1100 1085 0
1101 1100 -1085 0
-1102 1101 1086 0
-1102 -1101 -1086 0
1102 -1101 1086 0
1102 1101 -1086 0
-1103 1102 1087 0
-1103 -1102 -1087 0
1103 -1102 1087 0
1103 1102 -1087 0
-1104 1103 1088 0
-1104 -1103 -1088 0
1104 -1103 1088 0
1104 1103 -1088 0
-1105 1104 1089 0
-1105 -1104 -1089 0
1105 -1104 1089 0
1105 1104 -1089 0
-1106 1105 1090 0
-1106 -1105 -1090 0
1106 -1105 1090 0
1106 1105 -1090 0
-1106 0
-1107 940 0
-1107 39 0
1107 -940 -39 0
-1108 942 0
-1108 40 0
1108 -942 -40 0
-1109 942 0
-1109 44 0
1109 -942 -44 0
-1110 944 0
-1110 42 0
1110 -944 -42 0
-1111 946 0
-1111 46 0
1111 -946 -46 0
-1112 946 0
-1112 47 0
1112 -946 -47 0
-1113 948 0
-1113 87 0
1113 -948 -87 0
-1114 950 0
-1114 88 0
1114 -950 -88 0
-1115 950 0
-1115 92 0
1115 -950 -92 0
-1116 952 0
-1116 90 0
1116 -952 -90 0
-1117 954 0
-1117 94 0
1117 -954 -94 0
-1118 954 0
-1118 95 0
1118 -954 -95 0
-1119 956 0
-1119 135 0
1119 -956 -135 0
-1120 958 0
-1120 136 0
1120 -958 -136 0
-1121 958 0
-1121 140 0
1121 -958 -140 0
-1122 960 0
-1122 183 0
1122 -960 -183 0
-1123 962 0
-1123 186 0
1123 -962 -186 0
-1124 1107 1108 0
-1124 -1107 -1108 0
1124 -1107 1108 0
1124 1107 -1108 0
-1125 1124 1109 0
-1125 -1124 -1109 0
1125 -1124 1109 0
1125 1124 -1109 0
-1126 1125 1110 0
-1126 -1125 -1110 0
1126 -1125 1110 0
1126 1125 -1110 0
-1127 1126 1111 0
-1127 -1126 -1111 0
1127 -1126 1111 0
1127 1126 -1111 0
-1128 1127 1112 0
-1128 -1127 -1112 0
1128 -1127 1112 0
1128 1127 -1112 0
-1129 1128 1113 0
-1129 -1128 -1113 0
1129 -1128 1113 0
1129 1128 -1113 0
-1130 1129 1114 0
-1130 -1129 -1114 0
1130 -1129 1114 0
1130 1129 -1114 0
-1131 1130 1115 0
-1131 -1130 -1115 0
1131 -1130 1115 0
1131 1130 -1115 0
-1132 1131 1116 0
-1132 -1131 -1116 0
1132 -1131 1116 0
1132 1131 -1116 0
-1133 1132 1117 0
-1133 -1132 -1117 0
1133 -1132 1117 0
1133 1132 -1117 0
-1134 1133 1118 0
-1134 -1133 -1118 0
1134 -1133 1118 0
1134 1133 -1118 0
-1135 1134 1119 0
-1135 -1134 -1119 0
1135 -1134 1119 0
1135 1134 -1119 0
-1136 1135 1120 0
-1136 -1135 -1120 0
1136 -1135 1120 0
1136 1135 -1120 0
-1137 1136 1121 0
-1137 -1136 -1121 0
1137 -1136 1121 0
1137 1136 -1121 0
-1138 1137 1122 0
-1138 -1137 -1122 0
1138 -1137 1122 0
1138 1137 -1122 0
-1139 1138 1123 0
-1139 -1138 -1123 0
1139 -1138 1123 0
1139 1138 -1123 0
-1139 0
-1140 940 0
-1140 40 0
1140 -940 -40 0
-1141 942 0
-1141 39 0
1141 -942 -39 0
-1142 942 0
-1142 42 0
1142 -942 -42 0
-1143 944 0
-1143 46 0
1143 -944 -46 0
-1144 946 0
-1144 42 0
1144 -946 -42 0
-1145 946 0
-1145 39 0
1145 -946 -39 0
-1146 948 0
-1146 88 0
1146 -948 -88 0
-1147 950 0
-1147 87 0
1147 -950 -87 0
-1148 950 0
-1148 90 0
1148 -950 -90 0
-1149 952 0
-1149 94 0
1149 -952 -94 0
-1150 954 0
-1150 90 0
1150 -954 -90 0
-1151 954 0
-1151 87 0
1151 -954 -87 0
-1152 956 0
-1152 136 0
1152 -956 -136 0
-1153 958 0
-1153 135 0
1153 -958 -135 0
-1154 958 0
-1154 138 0
1154 -958 -138 0
-1155 960 0
-1155 184 0
1155 -960 -184 0
-1156 962 0
-1156 190 0
1156 -962 -190 0
-1157 1140 1141 0
-1157 -1140 -1141 0
1157 -1140 1141 0
1157 1140 -1141 0
-1158 1157 1142 0
-1158 -1157 -1142 0
1158 -1157 1142 0
1158 1157 -1142 0
-1159 1158 1143 0
-1159 -1158 -1143 0
1159 -1158 1143 0
1159 1158 -1143 0
-1160 1159 1144 0
-1160 -1159 -1144 0
1160 -1159 1144 0
1160 1159 -1144 0
-1161 1160 1145 0
-1161 -1160 -1145 0
1161 -1160 1145 0
1161 1160 -1145 0
-1162 1161 1146 0
-1162 -1161 -1146 0
1162 -1161 1146 0
1162 1161 -1146 0
-1163 1162 1147 0
-1163 -1162 -1147 0
1163 -1162 1147 0
1163 1162 -1147 0
-1164 1163 1148 0
-1164 -1163 -1148 0
1164 -1163 1148 0
1164 1163 -1148 0
-1165 1164 1149 0
-1165 -1164 -1149 0
1165 -1164 1149 0
1165 1164 -1149 0
-1166 1165 1150 0
-1166 -1165 -1150 0
1166 -1165 1150 0
1166 1165 -1150 0
-1167 1166 1151 0
-1167 -1166 -1151 0
1167 -1166 1151 0
1167 1166 -1151 0
-1168 1167 1152 0
-1168 -1167 -1152 0
1168 -1167 1152 0
1168 1167 -1152 0
-1169 1168 1153 0
-1169 -1168 -1153 0
1169 -1168 1153 0
1169 1168 -1153 0
-1170 1169 1154 0
-1170 -1169 -1154 0
1170 -1169 1154 0
1170 1169 -1154 0
-1171 1170 1155 0
-1171 -1170 -1155 0
1171 -1170 1155 0
1171 1170 -1155 0
-1172 1171 1156 0
-1172 -1171 -1156 0
1172 -1171 1156 0
1172 1171 -1156 0
-1172 0
-1173 940 0
-1173 41 0
1173 -940 -41 0
-1174 942 0
-1174 45 0
1174 -942 -45 0
-1175 944 0
-1175 35 0
1175 -944 -35 0
-1176 946 0
-1176 36 0
1176 -946 -36 0
-1177 948 0
-1177 89 0
1177 -948 -89 0
-1178 950 0
-1178 93 0
1178 -950 -93 0
-1179 952 0
-1179 83 0
1179 -952 -83 0
-1180 954 0
-1180 84 0
1180 -954 -84 0
-1181 956 0
-1181 137 0
1181 -956 -137 0
-1182 958 0
-1182 141 0
1182 -958 -141 0
-1183 960 0
-1183 185 0
1183 -960 -185 0
-1184 962 0
-1184 179 0
1184 -962 -179 0
-1185 1173 1174 0
-1185 -1173 -1174 0
1185 -1173 1174 0
1185 1173 -1174 0
-1186 1185 1174 0
-1186 -1185 -1174 0
1186 -1185 1174 0
1186 1185 -1174 0
-1187 1186 1175 0
-1187 -1186 -1175 0
1187 -1186 1175 0
1187 1186 -1175 0
-1188 1187 1176 0
-1188 -1187 -1176 0
1188 -1187 1176 0
1188 1187 -1176 0
-1189 1188 1176 0
-1189 -1188 -1176 0
1189 -1188 1176 0
1189 1188 -1176 0
-1190 1189 1177 0
-1190 -1189 -1177 0
1190 -1189 1177 0
1190 1189 -1177 0
-1191 1190 1178 0
-1191 -1190 -1178 0
1191 -1190 1178 0
1191 1190 -1178 0
-1192 1191 1178 0
-1192 -1191 -1178 0
1192 -1191 1178 0
1192 1191 -1178 0
-1193 1192 1179 0
-1193 -1192 -1179 0
1193 -1192 1179 0
1193 1192 -1179 0
-1194 1193 1180 0
-1194 -1193 -1180 0
1194 -1193 1180 0
1194 1193 -1180 0
-1195 1194 1180 0
-1195 -1194 -1180 0
1195 -1194 1180 0
1195 1194 -1180 0
-1196 1195 1181 0
-1196 -1195 -1181 0
1196 -1195 1181 0
1196 1195 -1181 0
-1197 1196 1182 0
-1197 -1196 -1182 0
1197 -1196 1182 0
1197 1196 -1182 0
-1198 1197 1182 0
-1198 -1197 -1182 0
1198 -1197 1182 0
1198 1197 -1182 0
-1199 1198 1183 0
-1199 -1198 -1183 0
1199 -1198 1183 0
1199 1198 -1183 0
-1200 1199 1184 0
-1200 -1199 -1184 0
1200 -1199 1184 0
1200 1199 -1184 0
1200 0
-1201 940 0
-1201 42 0
1201 -940 -42 0
-1202 942 0
-1202 46 0
1202 -942 -46 0
-1203 942 0
-1203 47 0
1203 -942 -47 0
-1204 944 0
-1204 39 0
1204 -944 -39 0
-1205 946 0
-1205 40 0
1205 -946 -40 0
-1206 946 0
-1206 44 0
1206 -946 -44 0
-1207 948 0
-1207 90 0
1207 -948 -90 0
-1208 950 0
-1208 94 0
1208 -950 -94 0
-1209 950 0
-1209 95 0
1209 -950 -95 0
-1210 952 0
-1210 87 0
1210 -952 -87 0
-1211 954 0
-1211 88 0
1211 -954 -88 0
-1212 954 0
-1212 92 0
1212 -954 -92 0
-1213 956 0
-1213 138 0
1213 -956 -138 0
-1214 958 0
-1214 142 0
1214 -958 -142 0
-1215 958 0
-1215 143 0
1215 -958 -143 0
-1216 960 0
-1216 186 0
1216 -960 -186 0
-1217 962 0
-1217 183 0
1217 -962 -183 0
-1218 1201 1202 0
-1218 -1201 -1202 0
1218 -1201 1202 0
1218 1201 -1202 0
-1219 1218 1203 0
-1219 -1218 -1203 0
1219 -1218 1203 0
1219 1218 -1203 0
-1220 1219 1204 0
-1220 -1219 -1204 0
1220 -1219 1204 0
1220 1219 -1204 0
-1221 1220 1205 0
-1221 -1220 -1205 0
1221 -1220 1205 0
1221 1220 -1205 0
-1222 1221 1206 0
-1222 -1221 -1206 0
1222 -1221 1206 0
1222 1221 -1206 0
-1223 1222 1207 0
-1223 -1222 -1207 0
1223 -1222 1207 0
1223 1222 -1207 0
-1224 1223 1208 0
-1224 -1223 -1208 0
1224 -1223 1208 0
1224 1223 -1208 0
-1225 1224 1209 0
-1225 -1224 -1209 0
1225 -1224 1209 0
1225 1224 -1209 0
-1226 1225 1210 0
-1226 -1225 -1210 0
1226 -1225 1210 0
1226 1225 -1210 0
-1227 1226 1211 0
-1227 -1226 -1211 0
1227 -1226 1211 0
1227 1226 -1211 0
-1228 1227 1212 0
-1228 -1227 -1212 0
1228 -1227 1212 0
1228 1227 -1212 0
-1229 1228 1213 0
-1229 -1228 -1213 0
1229 -1228 1213 0
1229 1228 -1213 0
-1230 1229 1214 0
-1230 -1229 -1214 0
1230 -1229 1214 0
1230 1229 -1214 0
-1231 1230 1215 0
-1231 -1230 -1215 0
1231 -1230 1215 0
1231 1230 -1215 0
-1232 1231 1216 0
-1232 -1231 -1216 0
1232 -1231 1216 0
1232 1231 -1216 0
-1233 1232 1217 0
-1233 -1232 -1217 0
1233 -1232 1217 0
1233 1232 -1217 0
-1233 0
-1234 940 0
-1234 43 0
1234 -940 -43 0
-1235 942 0
-1235 48 0
1235 -942 -48 0
-1236 944 0
-1236 43 0
1236 -944 -43 0
-1237 946 0
-1237 48 0
1237 -946 -48 0
-1238 948 0
-1238 91 0
1238 -948 -91 0
-1239 950 0
-1239 96 0
1239 -950 -96 0
-1240 952 0
-1240 91 0
1240 -952 -91 0
-1241 954 0
-1241 96 0
1241 -954 -96 0
-1242 956 0
-1242 139 0
1242 -956 -139 0
-1243 958 0
-1243 144 0
1243 -958 -144 0
-1244 960 0
-1244 187 0
1244 -960 -187 0
-1245 962 0
-1245 187 0
1245 -962 -187 0
-1246 1234 1235 0
-1246 -1234 -1235 0
1246 -1234 1235 0
1246 1234 -1235 0
-1247 1246 1235 0
-1247 -1246 -1235 0
1247 -1246 1235 0
1247 1246 -1235 0
-1248 1247 1236 0
-1248 -1247 -1236 0
1248 -1247 1236 0
1248 1247 -1236 0
-1249 1248 1237 0
-1249 -1248 -1237 0
1249 -1248 1237 0
1249 1248 -1237 0
-1250 1249 1237 0
-1250 -1249 -1237 0
1250 -1249 1237 0
1250 1249 -1237 0
-1251 1250 1238 0
-1251 -1250 -1238 0
1251 -1250 1238 0
1251 1250 -1238 0
-1252 1251 1239 0
-1252 -1251 -1239 0
1252 -1251 1239 0
1252 1251 -1239 0
-1253 1252 1239 0
-1253 -1252 -1239 0
1253 -1252 1239 0
1253 1252 -1239 0
-1254 1253 1240 0
-1254 -1253 -1240 0
1254 -1253 1240 0
1254 1253 -1240 0
-1255 1254 1241 0
-1255 -1254 -1241 0
1255 -1254 1241 0
1255 1254 -1241 0
-1256 1255 1241 0
-1256 -1255 -1241 0
1256 -1255 1241 0
1256 1255 -1241 0
-1257 1256 1242 0
-1257 -1256 -1242 0
1257 -1256 1242 0
1257 1256 -1242 0
-1258 1257 1243 0
-1258 -1257 -1243 0
1258 -1257 1243 0
1258 1257 -1243 0
-1259 1258 1243 0
-1259 -1258 -1243 0
1259 -1258 1243 0
1259 1258 -1243 0
-1260 1259 1244 0
-1260 -1259 -1244 0
1260 -1259 1244 0
1260 1259 -1244 0
-1261 1260 1245 0
-1261 -1260 -1245 0
1261 -1260 1245 0
1261 1260 -1245 0
-1261 0
-1262 1 0
-1262 21 0
1262 -1 -21 0
-1263 1262 0
-1263 33 0
1263 -1262 -33 0
-1264 2 0
-1264 17 0
1264 -2 -17 0
-1265 1264 0
-1265 33 0
1265 -1264 -33 0
-1266 2 0
-1266 25 0
1266 -2 -25 0
-1267 1266 0
-1267 33 0
1267 -1266 -33 0
-1268 21 0
-1268 3 0
1268 -21 -3 0
-1269 1268 0
-1269 33 0
1269 -1268 -33 0
-1270 49 0
-1270 69 0
1270 -49 -69 0
-1271 1270 0
-1271 81 0
1271 -1270 -81 0
-1272 50 0
-1272 65 0
1272 -50 -65 0
-1273 1272 0
-1273 81 0
1273 -1272 -81 0
-1274 50 0
-1274 73 0
1274 -50 -73 0
-1275 1274 0
-1275 81 0
1275 -1274 -81 0
-1276 69 0
-1276 51 0
1276 -69 -51 0
-1277 1276 0
-1277 81 0
1277 -1276 -81 0
-1278 97 0
-1278 117 0
1278 -97 -117 0
-1279 1278 0
-1279 129 0
1279 -1278 -129 0
-1280 98 0
-1280 113 0
1280 -98 -113 0
-1281 1280 0
-1281 129 0
1281 -1280 -129 0
-1282 98 0
-1282 121 0
1282 -98 -121 0
-1283 1282 0
-1283 129 0
1283 -1282 -129 0
-1284 145 0
-1284 165 0
1284 -145 -165 0
-1285 1284 0
-1285 177 0
1285 -1284 -177 0
-1286 161 0
-1286 146 0
1286 -161 -146 0
-1287 1286 0
-1287 177 0
1287 -1286 -177 0
-1288 1263 1265 0
-1288 -1263 -1265 0
1288 -1263 1265 0
1288 1263 -1265 0
-1289 1288 1267 0
-1289 -1288 -1267 0
1289 -1288 1267 0
1289 1288 -1267 0
-1290 1289 1265 0
-1290 -1289 -1265 0
1290 -1289 1265 0
1290 1289 -1265 0
-1291 1290 1263 0
-1291 -1290 -1263 0
1291 -1290 1263 0
1291 1290 -1263 0
-1292 1291 1269 0
-1292 -1291 -1269 0
1292 -1291 1269 0
1292 1291 -1269 0
-1293 1292 1271 0
-1293 -1292 -1271 0
1293 -1292 1271 0
1293 1292 -1271 0
-1294 1293 1273 0
-1294 -1293 -1273 0
1294 -1293 1273 0
1294 1293 -1273 0
-1295 1294 1275 0
-1295 -1294 -1275 0
1295 -1294 1275 0
1295 1294 -1275 0
-1296 1295 1273 0
-1296 -1295 -1273 0
1296 -1295 1273 0
1296 1295 -1273 0
-1297 1296 1271 0
-1297 -1296 -1271 0
1297 -1296 1271 0
1297 1296 -1271 0
-1298 1297 1277 0
-1298 -1297 -1277 0
1298 -1297 1277 0
1298 1297 -1277 0
-1299 1298 1279 0
-1299 -1298 -1279 0
1299 -1298 1279 0
1299 1298 -1279 0
-1300 1299 1281 0
-1300 -1299 -1281 0
1300 -1299 1281 0
1300 1299 -1281 0
-1301 1300 1283 0
-1301 -1300 -1283 0
1301 -1300 1283 0
1301 1300 -1283 0
-1302 1301 1285 0
-1302 -1301 -1285 0
1302 -1301 1285 0
1302 1301 -1285 0
-1303 1302 1287 0
-1303 -1302 -1287 0
1303 -1302 1287 0
1303 1302 -1287 0
-1303 0
-1304 1262 0
-1304 34 0
1304 -1262 -34 0
-1305 1264 0
-1305 34 0
1305 -1264 -34 0
-1306 1266 0
-1306 35 0
1306 -1266 -35 0
-1307 1264 0
-1307 37 0
1307 -1264 -37 0
-1308 1262 0
-1308 37 0
1308 -1262 -37 0
-1309 1268 0
-1309 41 0
1309 -1268 -41 0
-1310 1270 0
-1310 82 0
1310 -1270 -82 0
-1311 1272 0
-1311 82 0
1311 -1272 -82 0
-1312 1274 0
-1312 83 0
1312 -1274 -83 0
-1313 1272 0
-1313 85 0
1313 -1272 -85 0
-1314 1270 0
-1314 85 0
1314 -1270 -85 0
-1315 1276 0
-1315 89 0
1315 -1276 -89 0
-1316 1278 0
-1316 130 0
1316 -1278 -130 0
-1317 1280 0
-1317 130 0
1317 -1280 -130 0
-1318 1282 0
-1318 131 0
1318 -1282 -131 0
-1319 1284 0
-1319 178 0
1319 -1284 -178 0
-1320 1286 0
-1320 181 0
1320 -1286 -181 0
-1321 1304 1305 0
-1321 -1304 -1305 0
1321 -1304 1305 0
1321 1304 -1305 0
-1322 1321 1306 0
-1322 -1321 -1306 0
1322 -1321 1306 0
1322 1321 -1306 0
-1323 1322 1307 0
-1323 -1322 -1307 0
1323 -1322 1307 0
1323 1322 -1307 0
-1324 1323 1308 0
-1324 -1323 -1308 0
1324 -1323 1308 0
1324 1323 -1308 0
-1325 1324 1309 0
-1325 -1324 -1309 0
1325 -1324 1309 0
1325 1324 -1309 0
-1326 1325 1310 0
-1326 -1325 -1310 0
1326 -1325 1310 0
1326 1325 -1310 0
-1327 1326 1311 0
-1327 -1326 -1311 0
1327 -1326 1311 0
1327 1326 -1311 0
-1328 1327 1312 0
-1328 -1327 -1312 0
1328 -1327 1312 0
1328 1327 -1312 0
-1329 1328 1313 0
-1329 -1328 -1313 0
1329 -1328 1313 0
1329 1328 -1313 0
-1330 1329 1314 0
-1330 -1329 -1314 0
1330 -1329 1314 0
1330 1329 -1314 0
-1331 1330 1315 0
-1331 -1330 -1315 0
1331 -1330 1315 0
1331 1330 -1315 0
-1332 1331 1316 0
-1332 -1331 -1316 0
1332 -1331 1316 0
1332 1331 -1316 0
-1333 1332 1317 0
-1333 -1332 -1317 0
1333 -1332 1317 0
1333 1332 -1317 0
-1334 1333 1318 0
-1334 -1333 -1318 0
1334 -1333 1318 0
1334 1333 -1318 0
-1335 1334 1319 0
-1335 -1334 -1319 0
1335 -1334 1319 0
1335 1334 -1319 0
-1336 1335 1320 0
-1336 -1335 -1320 0
1336 -1335 1320 0
1336 1335 -1320 0
-1336 0
-1337 1262 0
-1337 35 0
1337 -1262 -35 0
-1338 1264 0
-1338 36 0
1338 -1264 -36 0
-1339 1266 0
-1339 36 0
1339 -1266 -36 0
-1340 1264 0
-1340 41 0
1340 -1264 -41 0
-1341 1262 0
-1341 45 0
1341 -1262 -45 0
-1342 1268 0
-1342 45 0
1342 -1268 -45 0
-1343 1270 0
-1343 83 0
1343 -1270 -83 0
-1344 1272 0
-1344 84 0
1344 -1272 -84 0
-1345 1274 0
-1345 84 0
1345 -1274 -84 0
-1346 1272 0
-1346 89 0
1346 -1272 -89 0
-1347 1270 0
-1347 93 0
1347 -1270 -93 0
-1348 1276 0
-1348 93 0
1348 -1276 -93 0
-1349 1278 0
-1349 131 0
1349 -1278 -131 0
-1350 1280 0
-1350 132 0
1350 -1280 -132 0
-1351 1282 0
-1351 132 0
1351 -1282 -132 0
-1352 1284 0
-1352 179 0
1352 -1284 -179 0
-1353 1286 0
-1353 185 0
1353 -1286 -185 0
-1354 1337 1338 0
-1354 -1337 -1338 0
1354 -1337 1338 0
1354 1337 -1338 0
-1355 1354 1339 0
-1355 -1354 -1339 0
1355 -1354 1339 0
1355 1354 -1339 0
-1356 1355 1340 0
-1356 -1355 -1340 0
1356 -1355 1340 0
1356 1355 -1340 0
-1357 1356 1341 0
-1357 -1356 -1341 0
1357 -1356 1341 0
1357 1356 -1341 0
-1358 1357 1342 0
-1358 -1357 -1342 0
1358 -1357 1342 0
1358 1357 -1342 0
-1359 1358 1343 0
-1359 -1358 -1343 0
1359 -1358 1343 0
1359 1358 -1343 0
-1360 1359 1344 0
-1360 -1359 -1344 0
1360 -1359 1344 0
1360 1359 -1344 0
-1361 1360 1345 0
-1361 -1360 -1345 0
1361 -1360 1345 0
1361 1360 -1345 0
-1362 1361 1346 0
-1362 -1361 -1346 0
1362 -1361 1346 0
1362 1361 -1346 0
-1363 1362 1347 0
-1363 -1362 -1347 0
1363 -1362 1347 0
1363 1362 -1347 0
-1364 1363 1348 0
-1364 -1363 -1348 0
1364 -1363 1348 0
1364 1363 -1348 0
-1365 1364 1349 0
-1365 -1364 -1349 0
1365 -1364 1349 0
1365 1364 -1349 0
-1366 1365 1350 0
-1366 -1365 -1350 0
1366 -1365 1350 0
1366 1365 -1350 0
-1367 1366 1351 0
-1367 -1366 -1351 0
1367 -1366 1351 0
1367 1366 -1351 0
-1368 1367 1352 0
-1368 -1367 -1352 0
1368 -1367 1352 0
1368 1367 -1352 0
-1369 1368 1353 0
-1369 -1368 -1353 0
1369 -1368 1353 0
1369 1368 -1353 0
1369 0
-1370 1262 0
-1370 36 0
1370 -1262 -36 0
-1371 1264 0
-1371 35 0
1371 -1264 -35 0
-1372 1266 0
-1372 34 0
1372 -1266 -34 0
-1373 1264 0
-1373 45 0
1373 -1264 -45 0
-1374 1262 0
-1374 41 0
1374 -1262 -41 0
-1375 1268 0
-1375 37 0
1375 -1268 -37 0
-1376 1270 0
-1376 84 0
1376 -1270 -84 0
-1377 1272 0
-1377 83 0
1377 -1272 -83 0
-1378 1274 0
-1378 82 0
1378 -1274 -82 0
-1379 1272 0
-1379 93 0
1379 -1272 -93 0
-1380 1270 0
-1380 89 0
1380 -1270 -89 0
-1381 1276 0
-1381 85 0
1381 -1276 -85 0
-1382 1278 0
-1382 132 0
1382 -1278 -132 0
-1383 1280 0
-1383 131 0
1383 -1280 -131 0
-1384 1282 0
-1384 130 0
1384 -1282 -130 0
-1385 1284 0
-1385 180 0
1385 -1284 -180 0
-1386 1286 0
-1386 189 0
1386 -1286 -189 0
-1387 1370 1371 0
-1387 -1370 -1371 0
1387 -1370 1371 0
1387 1370 -1371 0
-1388 1387 1372 0
-1388 -1387 -1372 0
1388 -1387 1372 0
1388 1387 -1372 0
-1389 1388 1373 0
-1389 -1388 -1373 0
1389 -1388 1373 0
1389 1388 -1373 0
-1390 1389 1374 0
-1390 -1389 -1374 0
1390 -1389 1374 0
1390 1389 -1374 0
-1391 1390 1375 0
-1391 -1390 -1375 0
1391 -1390 1375 0
1391 1390 -1375 0
-1392 1391 1376 0
-1392 -1391 -1376 0
1392 -1391 1376 0
1392 1391 -1376 0
-1393 1392 1377 0
-1393 -1392 -1377 0
1393 -1392 1377 0
1393 1392 -1377 0
-1394 1393 1378 0
-1394 -1393 -1378 0
1394 -1393 1378 0
1394 1393 -1378 0
-1395 1394 1379 0
-1395 -1394 -1379 0
1395 -1394 1379 0
1395 1394 -1379 0
-1396 1395 1380 0
-1396 -1395 -1380 0
1396 -1395 1380 0
1396 1395 -1380 0
-1397 1396 1381 0
-1397 -1396 -1381 0
1397 -1396 1381 0
1397 1396 -1381 0
-1398 1397 1382 0
-1398 -1397 -1382 0
1398 -1397 1382 0
1398 1397 -1382 0
-1399 1398 1383 0
-1399 -1398 -1383 0
1399 -1398 1383 0
1399 1398 -1383 0
-1400 1399 1384 0
-1400 -1399 -1384 0
1400 -1399 1384 0
1400 1399 -1384 0
-1401 1400 1385 0
-1401 -1400 -1385 0
1401 -1400 1385 0
1401 1400 -1385 0
-1402 1401 1386 0
-1402 -1401 -1386 0
1402 -1401 1386 0
1402 1401 -1386 0
-1402 0
-1403 1262 0
-1403 38 0
1403 -1262 -38 0
-1404 1264 0
-1404 38 0
1404 -1264 -38 0
-1405 1266 0
-1405 43 0
1405 -1266 -43 0
-1406 1268 0
-1406 43 0
1406 -1268 -43 0
-1407 1270 0
-1407 86 0
1407 -1270 -86 0
-1408 1272 0
-1408 86 0
1408 -1272 -86 0
-1409 1274 0
-1409 91 0
1409 -1274 -91 0
-1410 1276 0
-1410 91 0
1410 -1276 -91 0
-1411 1278 0
-1411 134 0
1411 -1278 -134 0
-1412 1280 0
-1412 134 0
1412 -1280 -134 0
-1413 1282 0
-1413 139 0
1413 -1282 -139 0
-1414 1284 0
-1414 182 0
1414 -1284 -182 0
-1415 1286 0
-1415 182 0
1415 -1286 -182 0
-1416 1403 1404 0
-1416 -1403 -1404 0
1416 -1403 1404 0
1416 1403 -1404 0
-1417 1416 1405 0
-1417 -1416 -1405 0
1417 -1416 1405 0
1417 1416 -1405 0
-1418 1417 1404 0
-1418 -1417 -1404 0
1418 -1417 1404 0
1418 1417 -1404 0
-1419 1418 1403 0
-1419 -1418 -1403 0
1419 -1418 1403 0
1419 1418 -1403 0
-1420 1419 1406 0
-1420 -1419 -1406 0
1420 -1419 1406 0
1420 1419 -1406 0
-1421 1420 1407 0
-1421 -1420 -1407 0
1421 -1420 1407 0
1421 1420 -1407 0
-1422 1421 1408 0
-1422 -1421 -1408 0
1422 -1421 1408 0
1422 1421 -1408 0
-1423 1422 1409 0
-1423 -1422 -1409 0
1423 -1422 1409 0
1423 1422 -1409 0
-1424 1423 1408 0
-1424 -1423 -1408 0
1424 -1423 1408 0
1424 1423 -1408 0
-1425 1424 1407 0
-1425 -1424 -1407 0
1425 -1424 1407 0
1425 1424 -1407 0
-1426 1425 1410 0
-1426 -1425 -1410 0
1426 -1425 1410 0
1426 1425 -1410 0
-1427 1426 1411 0
-1427 -1426 -1411 0
1427 -1426 1411 0
1427 1426 -1411 0
-1428 1427 1412 0
-1428 -1427 -1412 0
1428 -1427 1412 0
1428 1427 -1412 0
-1429 1428 1413 0
-1429 -1428 -1413 0
1429 -1428 1413 0
1429 1428 -1413 0
-1430 1429 1414 0
-1430 -1429 -1414 0
1430 -1429 1414 0
1430 1429 -1414 0
-1431 1430 1415 0
-1431 -1430 -1415 0
1431 -1430 1415 0
1431 1430 -1415 0
-1431 0
-1432 1262 0
-1432 39 0
1432 -1262 -39 0
-1433 1264 0
-1433 40 0
1433 -1264 -40 0
-1434 1266 0
-1434 44 0
1434 -1266 -44 0
-1435 1264 0
-1435 42 0
1435 -1264 -42 0
-1436 1262 0
-1436 46 0
1436 -1262 -46 0
-1437 1268 0
-1437 47 0
1437 -1268 -47 0
-1438 1270 0
-1438 87 0
1438 -1270 -87 0
-1439 1272 0
-1439 88 0
1439 -1272 -88 0
-1440 1274 0
-1440 92 0
1440 -1274 -92 0
-1441 1272 0
-1441 90 0
1441 -1272 -90 0
-1442 1270 0
-1442 94 0
1442 -1270 -94 0
-1443 1276 0
-1443 95 0
1443 -1276 -95 0
-1444 1278 0
-1444 135 0
1444 -1278 -135 0
-1445 1280 0
-1445 136 0
1445 -1280 -136 0
-1446 1282 0
-1446 140 0
1446 -1282 -140 0
-1447 1284 0
-1447 183 0
1447 -1284 -183 0
-1448 1286 0
-1448 186 0
1448 -1286 -186 0
-1449 1432 1433 0
-1449 -1432 -1433 0
1449 -1432 1433 0
1449 1432 -1433 0
-1450 1449 1434 0
-1450 -1449 -1434 0
1450 -1449 1434 0
1450 1449 -1434 0
-1451 1450 1435 0
-1451 -1450 -1435 0
1451 -1450 1435 0
1451 1450 -1435 0
-1452 1451 1436 0
-1452 -1451 -1436 0
1452 -1451 1436 0
1452 1451 -1436 0
-1453 1452 1437 0
-1453 -1452 -1437 0
1453 -1452 1437 0
1453 1452 -1437 0
-1454 1453 1438 0
-1454 -1453 -1438 0
1454 -1453 1438 0
1454 1453 -1438 0
-1455 1454 1439 0
-1455 -1454 -1439 0
1455 -1454 1439 0
1455 1454 -1439 0
-1456 1455 1440 0
-1456 -1455 -1440 0
1456 -1455 1440 0
1456 1455 -1440 0
-1457 1456 1441 0
-1457 -1456 -1441 0
1457 -1456 1441 0
1457 1456 -1441 0
-1458 1457 1442 0
-1458 -1457 -1442 0
1458 -1457 1442 0
1458 1457 -1442 0
-1459 1458 1443 0
-1459 -1458 -1443 0
1459 -1458 1443 0
1459 1458 -1443 0
-1460 1459 1444 0
-1460 -1459 -1444 0
1460 -1459 1444 0
1460 1459 -1444 0
-1461 1460 1445 0
-1461 -1460 -1445 0
1461 -1460 1445 0
1461 1460 -1445 0
-1462 1461 1446 0
-1462 -1461 -1446 0
1462 -1461 1446 0
1462 1461 -1446 0
-1463 1462 1447 0
-1463 -1462 -1447 0
1463 -1462 1447 0
1463 1462 -1447 0
-1464 1463 1448 0
-1464 -1463 -1448 0
1464 -1463 1448 0
1464 1463 -1448 0
-1464 0
-1465 1262 0
-1465 40 0
1465 -1262 -40 0
-1466 1264 0
-1466 39 0
1466 -1264 -39 0
-1467 1266 0
-1467 42 0
1467 -1266 -42 0
-1468 1264 0
-1468 46 0
1468 -1264 -46 0
-1469 1262 0
-1469 42 0
1469 -1262 -42 0
-1470 1268 0
-1470 39 0
1470 -1268 -39 0
-1471 1270 0
-1471 88 0
1471 -1270 -88 0
-1472 1272 0
-1472 87 0
1472 -1272 -87 0
-1473 1274 0
-1473 90 0
1473 -1274 -90 0
-1474 1272 0
-1474 94 0
1474 -1272 -94 0
-1475 1270 0
-1475 90 0
1475 -1270 -90 0
-1476 1276 0
-1476 87 0
1476 -1276 -87 0
-1477 1278 0
-1477 136 0
1477 -1278 -136 0
-1478 1280 0
-1478 135 0
1478 -1280 -135 0
-1479 1282 0
-1479 138 0
1479 -1282 -138 0
-1480 1284 0
-1480 184 0
1480 -1284 -184 0
-1481 1286 0
-1481 190 0
1481 -1286 -190 0
-1482 1465 1466 0
-1482 -1465 -1466 0
1482 -1465 1466 0
1482 1465 -1466 0
-1483 1482 1467 0
-1483 -1482 -1467 0
1483 -1482 1467 0
1483 1482 -1467 0
-1484 1483 1468 0
-1484 -1483 -1468 0
1484 -1483 1468 0
1484 1483 -1468 0
-1485 1484 1469 0
-1485 -1484 -1469 0
1485 -1484 1469 0
1485 1484 -1469 0
-1486 1485 1470 0
-1486 -1485 -1470 0
1486 -1485 1470 0
1486 1485 -1470 0
-1487 1486 1471 0
-1487 -1486 -1471 0
1487 -1486 1471 0
1487 1486 -1471 0
-1488 1487 1472 0
-1488 -1487 -1472 0
1488 -1487 1472 0
1488 1487 -1472 0
-1489 1488 1473 0
-1489 -1488 -1473 0
1489 -1488 1473 0
1489 1488 -1473 0
-1490 1489 1474 0
-1490 -1489 -1474 0
1490 -1489 1474 0
1490 1489 -1474 0
-1491 1490 1475 0
-1491 -1490 -1475 0
1491 -1490 1475 0
1491 1490 -1475 0
-1492 1491 1476 0
-1492 -1491 -1476 0
1492 -1491 1476 0
1492 1491 -1476 0
-1493 1492 1477 0
-1493 -1492 -1477 0
1493 -1492 1477 0
1493 1492 -1477 0
-1494 1493 1478 0
-1494 -1493 -1478 0
1494 -1493 1478 0
1494 1493 -1478 0
-1495 1494 1479 0
-1495 -1494 -1479 0
1495 -1494 1479 0
1495 1494 -1479 0
-1496 1495 1480 0
-1496 -1495 -1480 0
1496 -1495 1480 0
1496 1495 -1480 0
-1497 1496 1481 0
-1497 -1496 -1481 0
1497 -1496 1481 0
1497 1496 -1481 0
-1497 0
-1498 1262 0
-1498 43 0
1498 -1262 -43 0
-1499 1264 0
-1499 48 0
1499 -1264 -48 0
-1500 1266 0
-1500 48 0
1500 -1266 -48 0
-1501 1264 0
-1501 43 0
1501 -1264 -43 0
-1502 1262 0
-1502 48 0
1502 -1262 -48 0
-1503 1268 0
-1503 48 0
1503 -1268 -48 0
-1504 1270 0
-1504 91 0
1504 -1270 -91 0
-1505 1272 0
-1505 96 0
1505 -1272 -96 0
-1506 1274 0
-1506 96 0
1506 -1274 -96 0
-1507 1272 0
-1507 91 0
1507 -1272 -91 0
-1508 1270 0
-1508 96 0
1508 -1270 -96 0
-1509 1276 0
-1509 96 0
1509 -1276 -96 0
-1510 1278 0
-1510 139 0
1510 -1278 -139 0
-1511 1280 0
-1511 144 0
1511 -1280 -144 0
-1512 1282 0
-1512 144 0
1512 -1282 -144 0
-1513 1284 0
-1513 187 0
1513 -1284 -187 0
-1514 1286 0
-1514 187 0
1514 -1286 -187 0
-1515 1498 1499 0
-1515 -1498 -1499 0
1515 -1498 1499 0
1515 1498 -1499 0
-1516 1515 1500 0
-1516 -1515 -1500 0
1516 -1515 1500 0
1516 1515 -1500 0
-1517 1516 1501 0
-1517 -1516 -1501 0
1517 -1516 1501 0
1517 1516 -1501 0
-1518 1517 1502 0
-1518 -1517 -1502 0
1518 -1517 1502 0
1518 1517 -1502 0
-1519 1518 1503 0
-1519 -1518 -1503 0
1519 -1518 1503 0
1519 1518 -1503 0
-1520 1519 1504 0
-1520 -1519 -1504 0
1520 -1519 1504 0
1520 1519 -1504 0
-1521 1520 1505 0
-1521 -1520 -1505 0
1521 -1520 1505 0
1521 1520 -1505 0
-1522 1521 1506 0
-1522 -1521 -1506 0
1522 -1521 1506 0
1522 1521 -1506 0
-1523 1522 1507 0
-1523 -1522 -1507 0
1523 -1522 1507 0
1523 1522 -1507 0
-1524 1523 1508 0
-1524 -1523 -1508 0
1524 -1523 1508 0
1524 1523 -1508 0
-1525 1524 1509 0
-1525 -1524 -1509 0
1525 -1524 1509 0
1525 1524 -1509 0
-1526 1525 1510 0
-1526 -1525 -1510 0
1526 -1525 1510 0
1526 1525 -1510 0
-1527 1526 1511 0
-1527 -1526 -1511 0
1527 -1526 1511 0
1527 1526 -1511 0
-1528 1527 1512 0
-1528 -1527 -1512 0
1528 -1527 1512 0
1528 1527 -1512 0
-1529 1528 1513 0
-1529 -1528 -1513 0
1529 -1528 1513 0
1529 1528 -1513 0
-1530 1529 1514 0
-1530 -1529 -1514 0
1530 -1529 1514 0
1530 1529 -1514 0
-1530 0
-1531 1262 0
-1531 44 0
1531 -1262 -44 0
-1532 1264 0
-1532 47 0
1532 -1264 -47 0
-1533 1266 0
-1533 46 0
1533 -1266 -46 0
-1534 1268 0
-1534 40 0
1534 -1268 -40 0
-1535 1270 0
-1535 92 0
1535 -1270 -92 0
-1536 1272 0
-1536 95 0
1536 -1272 -95 0
-1537 1274 0
-1537 94 0
1537 -1274 -94 0
-1538 1276 0
-1538 88 0
1538 -1276 -88 0
-1539 1278 0
-1539 140 0
1539 -1278 -140 0
-1540 1280 0
-1540 143 0
1540 -1280 -143 0
-1541 1282 0
-1541 142 0
1541 -1282 -142 0
-1542 1284 0
-1542 188 0
1542 -1284 -188 0
-1543 1286 0
-1543 191 0
1543 -1286 -191 0
-1544 1531 1532 0
-1544 -1531 -1532 0
1544 -1531 1532 0
1544 1531 -1532 0
-1545 1544 1533 0
-1545 -1544 -1533 0
1545 -1544 1533 0
1545 1544 -1533 0
-1546 1545 1532 0
-1546 -1545 -1532 0
1546 -1545 1532 0
1546 1545 -1532 0
-1547 1546 1531 0
-1547 -1546 -1531 0
1547 -1546 1531 0
1547 1546 -1531 0
-1548 1547 1534 0
-1548 -1547 -1534 0
1548 -1547 1534 0
1548 1547 -1534 0
-1549 1548 1535 0
-1549 -1548 -1535 0
1549 -1548 1535 0
1549 1548 -1535 0
-1550 1549 1536 0
-1550 -1549 -1536 0
1550 -1549 1536 0
1550 1549 -1536 0
-1551 1550 1537 0
-1551 -1550 -1537 0
1551 -1550 1537 0
1551 1550 -1537 0
-1552 1551 1536 0
-1552 -1551 -1536 0
1552 -1551 1536 0
1552 1551 -1536 0
-1553 1552 1535 0
-1553 -1552 -1535 0
1553 -1552 1535 0
1553 1552 -1535 0
-1554 1553 1538 0
-1554 -1553 -1538 0
1554 -1553 1538 0
1554 1553 -1538 0
-1555 1554 1539 0
-1555 -1554 -1539 0
1555 -1554 1539 0
1555 1554 -1539 0
-1556 1555 1540 0
-1556 -1555 -1540 0
1556 -1555 1540 0
1556 1555 -1540 0
-1557 1556 1541 0
-1557 -1556 -1541 0
1557 -1556 1541 0
1557 1556 -1541 0
-1558 1557 1542 0
-1558 -1557 -1542 0
1558 -1557 1542 0
1558 1557 -1542 0
-1559 1558 1543 0
-1559 -1558 -1543 0
1559 -1558 1543 0
1559 1558 -1543 0
-1559 0
-1560 1262 0
-1560 47 0
1560 -1262 -47 0
-1561 1264 0
-1561 44 0
1561 -1264 -44 0
-1562 1266 0
-1562 40 0
1562 -1266 -40 0
-1563 1268 0
-1563 46 0
1563 -1268 -46 0
-1564 1270 0
-1564 95 0
1564 -1270 -95 0
-1565 1272 0
-1565 92 0
1565 -1272 -92 0
-1566 1274 0
-1566 88 0
1566 -1274 -88 0
-1567 1276 0
-1567 94 0
1567 -1276 -94 0
-1568 1278 0
-1568 143 0
1568 -1278 -143 0
-1569 1280 0
-1569 140 0
1569 -1280 -140 0
-1570 1282 0
-1570 136 0
1570 -1282 -136 0
-1571 1284 0
-1571 191 0
1571 -1284 -191 0
-1572 1286 0
-1572 188 0
1572 -1286 -188 0
-1573 1560 1561 0
-1573 -1560 -1561 0
1573 -1560 1561 0
1573 1560 -1561 0
-1574 1573 1562 0
-1574 -1573 -1562 0
1574 -1573 1562 0
1574 1573 -1562 0
-1575 1574 1561 0
-1575 -1574 -1561 0
1575 -1574 1561 0
1575 1574 -1561 0
-1576 1575 1560 0
-1576 -1575 -1560 0
1576 -1575 1560 0
1576 1575 -1560 0
-1577 1576 1563 0
-1577 -1576 -1563 0
1577 -1576 1563 0
1577 1576 -1563 0
-1578 1577 1564 0
-1578 -1577 -1564 0
1578 -1577 1564 0
1578 1577 -1564 0
-1579 1578 1565 0
-1579 -1578 -1565 0
1579 -1578 1565 0
1579 1578 -1565 0
-1580 1579 1566 0
-1580 -1579 -1566 0
1580 -1579 1566 0
1580 1579 -1566 0
-1581 1580 1565 0
-1581 -1580 -1565 0
1581 -1580 1565 0
1581 1580 -1565 0
-1582 1581 1564 0
-1582 -1581 -1564 0
1582 -1581 1564 0
1582 1581 -1564 0
-1583 1582 1567 0
-1583 -1582 -1567 0
1583 -1582 1567 0
1583 1582 -1567 0
-1584 1583 1568 0
-1584 -1583 -1568 0
1584 -1583 1568 0
1584 1583 -1568 0
-1585 1584 1569 0
-1585 -1584 -1569 0
1585 -1584 1569 0
1585 1584 -1569 0
-1586 1585 1570 0
-1586 -1585 -1570 0
1586 -1585 1570 0
1586 1585 -1570 0
-1587 1586 1571 0
-1587 -1586 -1571 0
1587 -1586 1571 0
1587 1586 -1571 0
-1588 1587 1572 0
-1588 -1587 -1572 0
1588 -1587 1572 0
1588 1587 -1572 0
-1588 0
-1589 1 0
-1589 22 0
1589 -1 -22 0
-1590 1589 0
-1590 33 0
1590 -1589 -33 0
-1591 2 0
-1591 18 0
1591 -2 -18 0
-1592 1591 0
-1592 33 0
1592 -1591 -33 0
-1593 2 0
-1593 27 0
1593 -2 -27 0
-1594 1593 0
-1594 33 0
1594 -1593 -33 0
-1595 17 0
-1595 6 0
1595 -17 -6 0
-1596 1595 0
-1596 33 0
1596 -1595 -33 0
-1597 21 0
-1597 5 0
1597 -21 -5 0
-1598 1597 0
-1598 33 0
1598 -1597 -33 0
-1599 21 0
-1599 11 0
1599 -21 -11 0
-1600 1599 0
-1600 33 0
1600 -1599 -33 0
-1601 49 0
-1601 70 0
1601 -49 -70 0
-1602 1601 0
-1602 81 0
1602 -1601 -81 0
-1603 50 0
-1603 66 0
1603 -50 -66 0
-1604 1603 0
-1604 81 0
1604 -1603 -81 0
-1605 50 0
-1605 75 0
1605 -50 -75 0
-1606 1605 0
-1606 81 0
1606 -1605 -81 0
-1607 65 0
-1607 54 0
1607 -65 -54 0
-1608 1607 0
-1608 81 0
1608 -1607 -81 0
-1609 69 0
-1609 53 0
1609 -69 -53 0
-1610 1609 0
-1610 81 0
1610 -1609 -81 0
-1611 69 0
-1611 59 0
1611 -69 -59 0
-1612 1611 0
-1612 81 0
1612 -1611 -81 0
-1613 97 0
-1613 118 0
1613 -97 -118 0
-1614 1613 0
-1614 129 0
1614 -1613 -129 0
-1615 98 0
-1615 114 0
1615 -98 -114 0
-1616 1615 0
-1616 129 0
1616 -1615 -129 0
-1617 98 0
-1617 123 0
1617 -98 -123 0
-1618 1617 0
-1618 129 0
1618 -1617 -129 0
-1619 145 0
-1619 166 0
1619 -145 -166 0
-1620 1619 0
-1620 177 0
1620 -1619 -177 0
-1621 161 0
-1621 150 0
1621 -161 -150 0
-1622 1621 0
-1622 177 0
1622 -1621 -177 0
-1623 1590 1592 0
-1623 -1590 -1592 0
1623 -1590 1592 0
1623 1590 -1592 0
-1624 1623 1594 0
-1624 -1623 -1594 0
1624 -1623 1594 0
1624 1623 -1594 0
-1625 1624 1596 0
-1625 -1624 -1596 0
1625 -1624 1596 0
1625 1624 -1596 0
-1626 1625 1598 0
-1626 -1625 -1598 0
1626 -1625 1598 0
1626 1625 -1598 0
-1627 1626 1600 0
-1627 -1626 -1600 0
1627 -1626 1600 0
1627 1626 -1600 0
-1628 1627 1602 0
-1628 -1627 -1602 0
1628 -1627 1602 0
1628 1627 -1602 0
-1629 1628 1604 0
-1629 -1628 -1604 0
1629 -1628 1604 0
1629 1628 -1604 0
-1630 1629 1606 0
-1630 -1629 -1606 0
1630 -1629 1606 0
1630 1629 -1606 0
-1631 1630 1608 0
-1631 -1630 -1608 0
1631 -1630 1608 0
1631 1630 -1608 0
-1632 1631 1610 0
-1632 -1631 -1610 0
1632 -1631 1610 0
1632 1631 -1610 0
-1633 1632 1612 0
-1633 -1632 -1612 0
1633 -1632 1612 0
1633 1632 -1612 0
-1634 1633 1614 0
-1634 -1633 -1614 0
1634 -1633 1614 0
1634 1633 -1614 0
-1635 1634 1616 0
-1635 -1634 -1616 0
1635 -1634 1616 0
1635 1634 -1616 0
-1636 1635 1618 0
-1636 -1635 -1618 0
1636 -1635 1618 0
1636 1635 -1618 0
-1637 1636 1620 0
-1637 -1636 -1620 0
1637 -1636 1620 0
1637 1636 -1620 0
-1638 1637 1622 0
-1638 -1637 -1622 0
1638 -1637 1622 0
1638 1637 -1622 0
-1638 0
-1639 1589 0
-1639 34 0
1639 -1589 -34 0
-1640 1591 0
-1640 34 0
1640 -1591 -34 0
-1641 1593 0
-1641 35 0
1641 -1593 -35 0
-1642 1595 0
-1642 37 0
1642 -1595 -37 0
-1643 1597 0
-1643 37 0
1643 -1597 -37 0
-1644 1599 0
-1644 41 0
1644 -1599 -41 0
-1645 1601 0
-1645 82 0
1645 -1601 -82 0
-1646 1603 0
-1646 82 0
1646 -1603 -82 0
-1647 1605 0
-1647 83 0
1647 -1605 -83 0
-1648 1607 0
-1648 85 0
1648 -1607 -85 0
-1649 1609 0
-1649 85 0
1649 -1609 -85 0
-1650 1611 0
-1650 89 0
1650 -1611 -89 0
-1651 1613 0
-1651 130 0
1651 -1613 -130 0
-1652 1615 0
-1652 130 0
1652 -1615 -130 0
-1653 1617 0
-1653 131 0
1653 -1617 -131 0
-1654 1619 0
-1654 178 0
1654 -1619 -178 0
-1655 1621 0
-1655 181 0
1655 -1621 -181 0
-1656 1639 1640 0
-1656 -1639 -1640 0
1656 -1639 1640 0
1656 1639 -1640 0
-1657 1656 1641 0
-1657 -1656 -1641 0
1657 -1656 1641 0
1657 1656 -1641 0
-1658 1657 1642 0
-1658 -1657 -1642 0
1658 -1657 1642 0
1658 1657 -1642 0
-1659 1658 1643 0
-1659 -1658 -1643 0
1659 -1658 1643 0
1659 1658 -1643 0
-1660 1659 1644 0
-1660 -1659 -1644 0
1660 -1659 1644 0
1660 1659 -1644 0
-1661 1660 1645 0
-1661 -1660 -1645 0
1661 -1660 1645 0
1661 1660 -1645 0
-1662 1661 1646 0
-1662 -1661 -1646 0
1662 -1661 1646 0
1662 1661 -1646 0
-1663 1662 1647 0
-1663 -1662 -1647 0
1663 -1662 1647 0
1663 1662 -1647 0
-1664 1663 1648 0
-1664 -1663 -1648 0
1664 -1663 1648 0
1664 1663 -1648 0
-1665 1664 1649 0
-1665 -1664 -1649 0
1665 -1664 1649 0
1665 1664 -1649 0
-1666 1665 1650 0
-1666 -1665 -1650 0
1666 -1665 1650 0
1666 1665 -1650 0
-1667 1666 1651 0
-1667 -1666 -1651 0
1667 -1666 1651 0
1667 1666 -1651 0
-1668 1667 1652 0
-1668 -1667 -1652 0
1668 -1667 1652 0
1668 1667 -1652 0
-1669 1668 1653 0
-1669 -1668 -1653 0
1669 -1668 1653 0
1669 1668 -1653 0
-1670 1669 1654 0
-1670 -1669 -1654 0
1670 -1669 1654 0
1670 1669 -1654 0
-1671 1670 1655 0
-1671 -1670 -1655 0
1671 -1670 1655 0
1671 1670 -1655 0
-1671 0
-1672 1589 0
-1672 35 0
1672 -1589 -35 0
-1673 1591 0
-1673 36 0
1673 -1591 -36 0
-1674 1593 0
-1674 36 0
1674 -1593 -36 0
-1675 1595 0
-1675 41 0
1675 -1595 -41 0
-1676 1597 0
-1676 45 0
1676 -1597 -45 0
-1677 1599 0
-1677 45 0
1677 -1599 -45 0
-1678 1601 0
-1678 83 0
1678 -1601 -83 0
-1679 1603 0
-1679 84 0
1679 -1603 -84 0
-1680 1605 0
-1680 84 0
1680 -1605 -84 0
-1681 1607 0
-1681 89 0
1681 -1607 -89 0
-1682 1609 0
-1682 93 0
1682 -1609 -93 0
-1683 1611 0
-1683 93 0
1683 -1611 -93 0
-1684 1613 0
-1684 131 0
1684 -1613 -131 0
-1685 1615 0
-1685 132 0
1685 -1615 -132 0
-1686 1617 0
-1686 132 0
1686 -1617 -132 0
-1687 1619 0
-1687 179 0
1687 -1619 -179 0
-1688 1621 0
-1688 185 0
1688 -1621 -185 0
-1689 1672 1673 0
-1689 -1672 -1673 0
1689 -1672 1673 0
1689 1672 -1673 0
-1690 1689 1674 0
-1690 -1689 -1674 0
1690 -1689 1674 0
1690 1689 -1674 0
-1691 1690 1675 0
-1691 -1690 -1675 0
1691 -1690 1675 0
1691 1690 -1675 0
-1692 1691 1676 0
-1692 -1691 -1676 0
1692 -1691 1676 0
1692 1691 -1676 0
-1693 1692 1677 0
-1693 -1692 -1677 0
1693 -1692 1677 0
1693 1692 -1677 0
-1694 1693 1678 0
-1694 -1693 -1678 0
1694 -1693 1678 0
1694 1693 -1678 0
-1695 1694 1679 0
-1695 -1694 -1679 0
1695 -1694 1679 0
1695 1694 -1679 0
-1696 1695 1680 0
-1696 -1695 -1680 0
1696 -1695 1680 0
1696 1695 -1680 0
-1697 1696 1681 0
-1697 -1696 -1681 0
1697 -1696 1681 0
1697 1696 -1681 0
-1698 1697 1682 0
-1698 -1697 -1682 0
1698 -1697 1682 0
1698 1697 -1682 0
-1699 1698 1683 0
-1699 -1698 -1683 0
1699 -1698 1683 0
1699 1698 -1683 0
-1700 1699 1684 0
-1700 -1699 -1684 0
1700 -1699 1684 0
1700 1699 -1684 0
-1701 1700 1685 0
-1701 -1700 -1685 0
1701 -1700 1685 0
1701 1700 -1685 0
-1702 1701 1686 0
-1702 -1701 -1686 0
1702 -1701 1686 0
1702 1701 -1686 0
-1703 1702 1687 0
-1703 -1702 -1687 0
1703 -1702 1687 0
1703 1702 -1687 0
-1704 1703 1688 0
-1704 -1703 -1688 0
1704 -1703 1688 0
1704 1703 -1688 0
-1704 0
-1705 1589 0
-1705 36 0
1705 -1589 -36 0
-1706 1591 0
-1706 35 0
1706 -1591 -35 0
-1707 1593 0
-1707 34 0
1707 -1593 -34 0
-1708 1595 0
-1708 45 0
1708 -1595 -45 0
-1709 1597 0
-1709 41 0
1709 -1597 -41 0
-1710 1599 0
-1710 37 0
1710 -1599 -37 0
-1711 1601 0
-1711 84 0
1711 -1601 -84 0
-1712 1603 0
-1712 83 0
1712 -1603 -83 0
-1713 1605 0
-1713 82 0
1713 -1605 -82 0
-1714 1607 0
-1714 93 0
1714 -1607 -93 0
-1715 1609 0
-1715 89 0
1715 -1609 -89 0
-1716 1611 0
-1716 85 0
1716 -1611 -85 0
-1717 1613 0
-1717 132 0
1717 -1613 -132 0
-1718 1615 0
-1718 131 0
1718 -1615 -131 0
-1719 1617 0
-1719 130 0
1719 -1617 -130 0
-1720 1619 0
-1720 180 0
1720 -1619 -180 0
-1721 1621 0
-1721 189 0
1721 -1621 -189 0
-1722 1705 1706 0
-1722 -1705 -1706 0
1722 -1705 1706 0
1722 1705 -1706 0
-1723 1722 1707 0
-1723 -1722 -1707 0
1723 -1722 1707 0
1723 1722 -1707 0
-1724 1723 1708 0
-1724 -1723 -1708 0
1724 -1723 1708 0
1724 1723 -1708 0
-1725 1724 1709 0
-1725 -1724 -1709 0
1725 -1724 1709 0
1725 1724 -1709 0
-1726 1725 1710 0
-1726 -1725 -1710 0
1726 -1725 1710 0
1726 1725 -1710 0
-1727 1726 1711 0
-1727 -1726 -1711 0
1727 -1726 1711 0
1727 1726 -1711 0
-1728 1727 1712 0
-1728 -1727 -1712 0
1728 -1727 1712 0
1728 1727 -1712 0
-1729 1728 1713 0
-1729 -1728 -1713 0
1729 -1728 1713 0
1729 1728 -1713 0
-1730 1729 1714 0
-1730 -1729 -1714 0
1730 -1729 1714 0
1730 1729 -1714 0
-1731 1730 1715 0
-1731 -1730 -1715 0
1731 -1730 1715 0
1731 1730 -1715 0
-1732 1731 1716 0
-1732 -1731 -1716 0
1732 -1731 1716 0
1732 1731 -1716 0
-1733 1732 1717 0
-1733 -1732 -1717 0
1733 -1732 1717 0
1733 1732 -1717 0
-1734 1733 1718 0
-1734 -1733 -1718 0
1734 -1733 1718 0
1734 1733 -1718 0
-1735 1734 1719 0
-1735 -1734 -1719 0
1735 -1734 1719 0
1735 1734 -1719 0
-1736 1735 1720 0
-1736 -1735 -1720 0
1736 -1735 1720 0
1736 1735 -1720 0
-1737 1736 1721 0
-1737 -1736 -1721 0
1737 -1736 1721 0
1737 1736 -1721 0
-1737 0
-1738 1589 0
-1738 37 0
1738 -1589 -37 0
-1739 1591 0
-1739 37 0
1739 -1591 -37 0
-1740 1593 0
-1740 41 0
1740 -1593 -41 0
-1741 1595 0
-1741 34 0
1741 -1595 -34 0
-1742 1597 0
-1742 34 0
1742 -1597 -34 0
-1743 1599 0
-1743 35 0
1743 -1599 -35 0
-1744 1601 0
-1744 85 0
1744 -1601 -85 0
-1745 1603 0
-1745 85 0
1745 -1603 -85 0
-1746 1605 0
-1746 89 0
1746 -1605 -89 0
-1747 1607 0
-1747 82 0
1747 -1607 -82 0
-1748 1609 0
-1748 82 0
1748 -1609 -82 0
-1749 1611 0
-1749 83 0
1749 -1611 -83 0
-1750 1613 0
-1750 133 0
1750 -1613 -133 0
-1751 1615 0
-1751 133 0
1751 -1615 -133 0
-1752 1617 0
-1752 137 0
1752 -1617 -137 0
-1753 1619 0
-1753 181 0
1753 -1619 -181 0
-1754 1621 0
-1754 178 0
1754 -1621 -178 0
-1755 1738 1739 0
-1755 -1738 -1739 0
1755 -1738 1739 0
1755 1738 -1739 0
-1756 1755 1740 0
-1756 -1755 -1740 0
1756 -1755 1740 0
1756 1755 -1740 0
-1757 1756 1741 0
-1757 -1756 -1741 0
1757 -1756 1741 0
1757 1756 -1741 0
-1758 1757 1742 0
-1758 -1757 -1742 0
1758 -1757 1742 0
1758 1757 -1742 0
-1759 1758 1743 0
-1759 -1758 -1743 0
1759 -1758 1743 0
1759 1758 -1743 0
-1760 1759 1744 0
-1760 -1759 -1744 0
1760 -1759 1744 0
1760 1759 -1744 0
-1761 1760 1745 0
-1761 -1760 -1745 0
1761 -1760 1745 0
1761 1760 -1745 0
-1762 1761 1746 0
-1762 -1761 -1746 0
1762 -1761 1746 0
1762 1761 -1746 0
-1763 1762 1747 0
-1763 -1762 -1747 0
1763 -1762 1747 0
1763 1762 -1747 0
-1764 1763 1748 0
-1764 -1763 -1748 0
1764 -1763 1748 0
1764 1763 -1748 0
-1765 1764 1749 0
-1765 -1764 -1749 0
1765 -1764 1749 0
1765 1764 -1749 0
-1766 1765 1750 0
-1766 -1765 -1750 0
1766 -1765 1750 0
1766 1765 -1750 0
-1767 1766 1751 0
-1767 -1766 -1751 0
1767 -1766 1751 0
1767 1766 -1751 0
-1768 1767 1752 0
-1768 -1767 -1752 0
1768 -1767 1752 0
1768 1767 -1752 0
-1769 1768 1753 0
-1769 -1768 -1753 0
1769 -1768 1753 0
1769 1768 -1753 0
-1770 1769 1754 0
-1770 -1769 -1754 0
1770 -1769 1754 0
1770 1769 -1754 0
-1770 0
-1771 1589 0
-1771 38 0
1771 -1589 -38 0
-1772 1591 0
-1772 38 0
1772 -1591 -38 0
-1773 1593 0
-1773 43 0
1773 -1593 -43 0
-1774 1595 0
-1774 38 0
1774 -1595 -38 0
-1775 1597 0
-1775 38 0
1775 -1597 -38 0
-1776 1599 0
-1776 43 0
1776 -1599 -43 0
-1777 1601 0
-1777 86 0
1777 -1601 -86 0
-1778 1603 0
-1778 86 0
1778 -1603 -86 0
-1779 1605 0
-1779 91 0
1779 -1605 -91 0
-1780 1607 0
-1780 86 0
1780 -1607 -86 0
-1781 1609 0
-1781 86 0
1781 -1609 -86 0
-1782 1611 0
-1782 91 0
1782 -1611 -91 0
-1783 1613 0
-1783 134 0
1783 -1613 -134 0
-1784 1615 0
-1784 134 0
1784 -1615 -134 0
-1785 1617 0
-1785 139 0
1785 -1617 -139 0
-1786 1619 0
-1786 182 0
1786 -1619 -182 0
-1787 1621 0
-1787 182 0
1787 -1621 -182 0
-1788 1771 1772 0
-1788 -1771 -1772 0
1788 -1771 1772 0
1788 1771 -1772 0
-1789 1788 1773 0
-1789 -1788 -1773 0
1789 -1788 1773 0
1789 1788 -1773 0
-1790 1789 1774 0
-1790 -1789 -1774 0
1790 -1789 1774 0
1790 1789 -1774 0
-1791 1790 1775 0
-1791 -1790 -1775 0
1791 -1790 1775 0
1791 1790 -1775 0
-1792 1791 1776 0
-1792 -1791 -1776 0
1792 -1791 1776 0
1792 1791 -1776 0
-1793 1792 1777 0
-1793 -1792 -1777 0
1793 -1792 1777 0
1793 1792 -1777 0
-1794 1793 1778 0
-1794 -1793 -1778 0
1794 -1793 1778 0
1794 1793 -1778 0
-1795 1794 1779 0
-1795 -1794 -1779 0
1795 -1794 1779 0
1795 1794 -1779 0
-1796 1795 1780 0
-1796 -1795 -1780 0
1796 -1795 1780 0
1796 1795 -1780 0
-1797 1796 1781 0
-1797 -1796 -1781 0
1797 -1796 1781 0
1797 1796 -1781 0
-1798 1797 1782 0
-1798 -1797 -1782 0
1798 -1797 1782 0
1798 1797 -1782 0
-1799 1798 1783 0
-1799 -1798 -1783 0
1799 -1798 1783 0
1799 1798 -1783 0
-1800 1799 1784 0
-1800 -1799 -1784 0
1800 -1799 1784 0
1800 1799 -1784 0
-1801 1800 1785 0
-1801 -1800 -1785 0
1801 -1800 1785 0
1801 1800 -1785 0
-1802 1801 1786 0
-1802 -1801 -1786 0
1802 -1801 1786 0
1802 1801 -1786 0
-1803 1802 1787 0
-1803 -1802 -1787 0
1803 -1802 1787 0
1803 1802 -1787 0
-1803 0
-1804 1589 0
-1804 39 0
1804 -1589 -39 0
-1805 1591 0
-1805 40 0
1805 -1591 -40 0
-1806 1593 0
-1806 44 0
1806 -1593 -44 0
-1807 1595 0
-1807 42 0
1807 -1595 -42 0
-1808 1597 0
-1808 46 0
1808 -1597 -46 0
-1809 1599 0
-1809 47 0
1809 -1599 -47 0
-1810 1601 0
-1810 87 0
1810 -1601 -87 0
-1811 1603 0
-1811 88 0
1811 -1603 -88 0
-1812 1605 0
-1812 92 0
1812 -1605 -92 0
-1813 1607 0
-1813 90 0
1813 -1607 -90 0
-1814 1609 0
-1814 94 0
1814 -1609 -94 0
-1815 1611 0
-1815 95 0
1815 -1611 -95 0
-1816 1613 0
-1816 135 0
1816 -1613 -135 0
-1817 1615 0
-1817 136 0
1817 -1615 -136 0
-1818 1617 0
-1818 140 0
1818 -1617 -140 0
-1819 1619 0
-1819 183 0
1819 -1619 -183 0
-1820 1621 0
-1820 186 0
1820 -1621 -186 0
-1821 1804 1805 0
-1821 -1804 -1805 0
1821 -1804 1805 0
1821 1804 -1805 0
-1822 1821 1806 0
-1822 -1821 -1806 0
1822 -1821 1806 0
1822 1821 -1806 0
-1823 1822 1807 0
-1823 -1822 -1807 0
1823 -1822 1807 0
1823 1822 -1807 0
-1824 1823 1808 0
-1824 -1823 -1808 0
1824 -1823 1808 0
1824 1823 -1808 0
-1825 1824 1809 0
-1825 -1824 -1809 0
1825 -1824 1809 0
1825 1824 -1809 0
-1826 1825 1810 0
-1826 -1825 -1810 0
1826 -1825 1810 0
1826 1825 -1810 0
-1827 1826 1811 0
-1827 -1826 -1811 0
1827 -1826 1811 0
1827 1826 -1811 0
-1828 1827 1812 0
-1828 -1827 -1812 0
1828 -1827 1812 0
1828 1827 -1812 0
-1829 1828 1813 0
-1829 -1828 -1813 0
1829 -1828 1813 0
1829 1828 -1813 0
-1830 1829 1814 0
-1830 -1829 -1814 0
1830 -1829 1814 0
1830 1829 -1814 0
-1831 1830 1815 0
-1831 -1830 -1815 0
1831 -1830 1815 0
1831 1830 -1815 0
-1832 1831 1816 0
-1832 -1831 -1816 0
1832 -1831 1816 0
1832 1831 -1816 0
-1833 1832 1817 0
-1833 -1832 -1817 0
1833 -1832 1817 0
1833 1832 -1817 0
-1834 1833 1818 0
-1834 -1833 -1818 0
1834 -1833 1818 0
1834 1833 -1818 0
-1835 1834 1819 0
-1835 -1834 -1819 0
1835 -1834 1819 0
1835 1834 -1819 0
-1836 1835 1820 0
-1836 -1835 -1820 0
1836 -1835 1820 0
1836 1835 -1820 0
-1836 0
-1837 1589 0
-1837 40 0
1837 -1589 -40 0
-1838 1591 0
-1838 39 0
1838 -1591 -39 0
-1839 1593 0
-1839 42 0
1839 -1593 -42 0
-1840 1595 0
-1840 46 0
1840 -1595 -46 0
-1841 1597 0
-1841 42 0
1841 -1597 -42 0
-1842 1599 0
-1842 39 0
1842 -1599 -39 0
-1843 1601 0
-1843 88 0
1843 -1601 -88 0
-1844 1603 0
-1844 87 0
1844 -1603 -87 0
-1845 1605 0
-1845 90 0
1845 -1605 -90 0
-1846 1607 0
-1846 94 0
1846 -1607 -94 0
-1847 1609 0
-1847 90 0
1847 -1609 -90 0
-1848 1611 0
-1848 87 0
1848 -1611 -87 0
-1849 1613 0
-1849 136 0
1849 -1613 -136 0
-1850 1615 0
-1850 135 0
1850 -1615 -135 0
-1851 1617 0
-1851 138 0
1851 -1617 -138 0
-1852 1619 0
-1852 184 0
1852 -1619 -184 0
-1853 1621 0
-1853 190 0
1853 -1621 -190 0
-1854 1837 1838 0
-1854 -1837 -1838 0
1854 -1837 1838 0
1854 1837 -1838 0
-1855 1854 1839 0
-1855 -1854 -1839 0
1855 -1854 1839 0
1855 1854 -1839 0
-1856 1855 1840 0
-1856 -1855 -1840 0
1856 -1855 1840 0
1856 1855 -1840 0
-1857 1856 1841 0
-1857 -1856 -1841 0
1857 -1856 1841 0
1857 1856 -1841 0
-1858 1857 1842 0
-1858 -1857 -1842 0
1858 -1857 1842 0
1858 1857 -1842 0
-1859 1858 1843 0
-1859 -1858 -1843 0
1859 -1858 1843 0
1859 1858 -1843 0
-1860 1859 1844 0
-1860 -1859 -1844 0
1860 -1859 1844 0
1860 1859 -1844 0
-1861 1860 1845 0
-1861 -1860 -1845 0
1861 -1860 1845 0
1861 1860 -1845 0
-1862 1861 1846 0
-1862 -1861 -1846 0
1862 -1861 1846 0
1862 1861 -1846 0
-1863 1862 1847 0
-1863 -1862 -1847 0
1863 -1862 1847 0
1863 1862 -1847 0
-1864 1863 1848 0
-1864 -1863 -1848 0
1864 -1863 1848 0
1864 1863 -1848 0
-1865 1864 1849 0
-1865 -1864 -1849 0
1865 -1864 1849 0
1865 1864 -1849 0
-1866 1865 1850 0
-1866 -1865 -1850 0
1866 -1865 1850 0
1866 1865 -1850 0
-1867 1866 1851 0
-1867 -1866 -1851 0
1867 -1866 1851 0
1867 1866 -1851 0
-1868 1867 1852 0
-1868 -1867 -1852 0
1868 -1867 1852 0
1868 1867 -1852 0
-1869 1868 1853 0
-1869 -1868 -1853 0
1869 -1868 1853 0
1869 1868 -1853 0
-1869 0
-1870 1589 0
-1870 41 0
1870 -1589 -41 0
-1871 1591 0
-1871 45 0
1871 -1591 -45 0
-1872 1593 0
-1872 45 0
1872 -1593 -45 0
-1873 1595 0
-1873 35 0
1873 -1595 -35 0
-1874 1597 0
-1874 36 0
1874 -1597 -36 0
-1875 1599 0
-1875 36 0
1875 -1599 -36 0
-1876 1601 0
-1876 89 0
1876 -1601 -89 0
-1877 1603 0
-1877 93 0
1877 -1603 -93 0
-1878 1605 0
-1878 93 0
1878 -1605 -93 0
-1879 1607 0
-1879 83 0
1879 -1607 -83 0
-1880 1609 0
-1880 84 0
1880 -1609 -84 0
-1881 1611 0
-1881 84 0
1881 -1611 -84 0
-1882 1613 0
-1882 137 0
1882 -1613 -137 0
-1883 1615 0
-1883 141 0
1883 -1615 -141 0
-1884 1617 0
-1884 141 0
1884 -1617 -141 0
-1885 1619 0
-1885 185 0
1885 -1619 -185 0
-1886 1621 0
-1886 179 0
1886 -1621 -179 0
-1887 1870 1871 0
-1887 -1870 -1871 0
1887 -1870 1871 0
1887 1870 -1871 0
-1888 1887 1872 0
-1888 -1887 -1872 0
1888 -1887 1872 0
1888 1887 -1872 0
-1889 1888 1873 0
-1889 -1888 -1873 0
1889 -1888 1873 0
1889 1888 -1873 0
-1890 1889 1874 0
-1890 -1889 -1874 0
1890 -1889 1874 0
1890 1889 -1874 0
-1891 1890 1875 0
-1891 -1890 -1875 0
1891 -1890 1875 0
1891 1890 -1875 0
-1892 1891 1876 0
-1892 -1891 -1876 0
1892 -1891 1876 0
1892 1891 -1876 0
-1893 1892 1877 0
-1893 -1892 -1877 0
1893 -1892 1877 0
1893 1892 -1877 0
-1894 1893 1878 0
-1894 -1893 -1878 0
1894 -1893 1878 0
1894 1893 -1878 0
-1895 1894 1879 0
-1895 -1894 -1879 0
1895 -1894 1879 0
1895 1894 -1879 0
-1896 1895 1880 0
-1896 -1895 -1880 0
1896 -1895 1880 0
1896 1895 -1880 0
-1897 1896 1881 0
-1897 -1896 -1881 0
1897 -1896 1881 0
1897 1896 -1881 0
-1898 1897 1882 0
-1898 -1897 -1882 0
1898 -1897 1882 0
1898 1897 -1882 0
-1899 1898 1883 0
-1899 -1898 -1883 0
1899 -1898 1883 0
1899 1898 -1883 0
-1900 1899 1884 0
-1900 -1899 -1884 0
1900 -1899 1884 0
1900 1899 -1884 0
-1901 1900 1885 0
-1901 -1900 -1885 0
1901 -1900 1885 0
1901 1900 -1885 0
-1902 1901 1886 0
-1902 -1901 -1886 0
1902 -1901 1886 0
1902 1901 -1886 0
-1902 0
-1903 1589 0
-1903 42 0
1903 -1589 -42 0
-1904 1591 0
-1904 46 0
1904 -1591 -46 0
-1905 1593 0
-1905 47 0
1905 -1593 -47 0
-1906 1595 0
-1906 39 0
1906 -1595 -39 0
-1907 1597 0
-1907 40 0
1907 -1597 -40 0
-1908 1599 0
-1908 44 0
1908 -1599 -44 0
-1909 1601 0
-1909 90 0
1909 -1601 -90 0
-1910 1603 0
-1910 94 0
1910 -1603 -94 0
-1911 1605 0
-1911 95 0
1911 -1605 -95 0
-1912 1607 0
-1912 87 0
1912 -1607 -87 0
-1913 1609 0
-1913 88 0
1913 -1609 -88 0
-1914 1611 0
-1914 92 0
1914 -1611 -92 0
-1915 1613 0
-1915 138 0
1915 -1613 -138 0
-1916 1615 0
-1916 142 0
1916 -1615 -142 0
-1917 1617 0
-1917 143 0
1917 -1617 -143 0
-1918 1619 0
-1918 186 0
1918 -1619 -186 0
-1919 1621 0
-1919 183 0
1919 -1621 -183 0
-1920 1903 1904 0
-1920 -1903 -1904 0
1920 -1903 1904 0
1920 1903 -1904 0
-1921 1920 1905 0
-1921 -1920 -1905 0
1921 -1920 1905 0
1921 1920 -1905 0
-1922 1921 1906 0
-1922 -1921 -1906 0
1922 -1921 1906 0
1922 1921 -1906 0
-1923 1922 1907 0
-1923 -1922 -1907 0
1923 -1922 1907 0
1923 1922 -1907 0
-1924 1923 1908 0
-1924 -1923 -1908 0
1924 -1923 1908 0
1924 1923 -1908 0
-1925 1924 1909 0
-1925 -1924 -1909 0
1925 -1924 1909 0
1925 1924 -1909 0
-1926 1925 1910 0
-1926 -1925 -1910 0
1926 -1925 1910 0
1926 1925 -1910 0
-1927 1926 1911 0
-1927 -1926 -1911 0
1927 -1926 1911 0
1927 1926 -1911 0
-1928 1927 1912 0
-1928 -1927 -1912 0
1928 -1927 1912 0
1928 1927 -1912 0
-1929 1928 1913 0
-1929 -1928 -1913 0
1929 -1928 1913 0
1929 1928 -1913 0
-1930 1929 1914 0
-1930 -1929 -1914 0
1930 -1929 1914 0
1930 1929 -1914 0
-1931 1930 1915 0
-1931 -1930 -1915 0
1931 -1930 1915 0
1931 1930 -1915 0
-1932 1931 1916 0
-1932 -1931 -1916 0
1932 -1931 1916 0
1932 1931 -1916 0
-1933 1932 1917 0
-1933 -1932 -1917 0
1933 -1932 1917 0
1933 1932 -1917 0
-1934 1933 1918 0
-1934 -1933 -1918 0
1934 -1933 1918 0
1934 1933 -1918 0
-1935 1934 1919 0
-1935 -1934 -1919 0
1935 -1934 1919 0
1935 1934 -1919 0
-1935 0
-1936 1589 0
-1936 43 0
1936 -1589 -43 0
-1937 1591 0
-1937 48 0
1937 -1591 -48 0
-1938 1593 0
-1938 48 0
1938 -1593 -48 0
-1939 1595 0
-1939 43 0
1939 -1595 -43 0
-1940 1597 0
-1940 48 0
1940 -1597 -48 0
-1941 1599 0
-1941 48 0
1941 -1599 -48 0
-1942 1601 0
-1942 91 0
1942 -1601 -91 0
-1943 1603 0
-1943 96 0
1943 -1603 -96 0
-1944 1605 0
-1944 96 0
1944 -1605 -96 0
-1945 1607 0
-1945 91 0
1945 -1607 -91 0
-1946 1609 0
-1946 96 0
1946 -1609 -96 0
-1947 1611 0
-1947 96 0
1947 -1611 -96 0
-1948 1613 0
-1948 139 0
1948 -1613 -139 0
-1949 1615 0
-1949 144 0
1949 -1615 -144 0
-1950 1617 0
-1950 144 0
1950 -1617 -144 0
-1951 1619 0
-1951 187 0
1951 -1619 -187 0
-1952 1621 0
-1952 187 0
1952 -1621 -187 0
-1953 1936 1937 0
-1953 -1936 -1937 0
1953 -1936 1937 0
1953 1936 -1937 0
-1954 1953 1938 0
-1954 -1953 -1938 0
1954 -1953 1938 0
1954 1953 -1938 0
-1955 1954 1939 0
-1955 -1954 -1939 0
1955 -1954 1939 0
1955 1954 -1939 0
-1956 1955 1940 0
-1956 -1955 -1940 0
1956 -1955 1940 0
1956 1955 -1940 0
-1957 1956 1941 0
-1957 -1956 -1941 0
1957 -1956 1941 0
1957 1956 -1941 0
-1958 1957 1942 0
-1958 -1957 -1942 0
1958 -1957 1942 0
1958 1957 -1942 0
-1959 1958 1943 0
-1959 -1958 -1943 0
1959 -1958 1943 0
1959 1958 -1943 0
-1960 1959 1944 0
-1960 -1959 -1944 0
1960 -1959 1944 0
1960 1959 -1944 0
-1961 1960 1945 0
-1961 -1960 -1945 0
1961 -1960 1945 0
1961 1960 -1945 0
-1962 1961 1946 0
-1962 -1961 -1946 0
1962 -1961 1946 0
1962 1961 -1946 0
-1963 1962 1947 0
-1963 -1962 -1947 0
1963 -1962 1947 0
1963 1962 -1947 0
-1964 1963 1948 0
-1964 -1963 -1948 0
1964 -1963 1948 0
1964 1963 -1948 0
-1965 1964 1949 0
-1965 -1964 -1949 0
1965 -1964 1949 0
1965 1964 -1949 0
-1966 1965 1950 0
-1966 -1965 -1950 0
1966 -1965 1950 0
1966 1965 -1950 0
-1967 1966 1951 0
-1967 -1966 -1951 0
1967 -1966 1951 0
1967 1966 -1951 0
-1968 1967 1952 0
-1968 -1967 -1952 0
1968 -1967 1952 0
1968 1967 -1952 0
-1968 0
-1969 1589 0
-1969 44 0
1969 -1589 -44 0
-1970 1591 0
-1970 47 0
1970 -1591 -47 0
-1971 1593 0
-1971 46 0
1971 -1593 -46 0
-1972 1595 0
-1972 47 0
1972 -1595 -47 0
-1973 1597 0
-1973 44 0
1973 -1597 -44 0
-1974 1599 0
-1974 40 0
1974 -1599 -40 0
-1975 1601 0
-1975 92 0
1975 -1601 -92 0
-1976 1603 0
-1976 95 0
1976 -1603 -95 0
-1977 1605 0
-1977 94 0
1977 -1605 -94 0
-1978 1607 0
-1978 95 0
1978 -1607 -95 0
-1979 1609 0
-1979 92 0
1979 -1609 -92 0
-1980 1611 0
-1980 88 0
1980 -1611 -88 0
-1981 1613 0
-1981 140 0
1981 -1613 -140 0
-1982 1615 0
-1982 143 0
1982 -1615 -143 0
-1983 1617 0
-1983 142 0
1983 -1617 -142 0
-1984 1619 0
-1984 188 0
1984 -1619 -188 0
-1985 1621 0
-1985 191 0
1985 -1621 -191 0
-1986 1969 1970 0
-1986 -1969 -1970 0
1986 -1969 1970 0
1986 1969 -1970 0
-1987 1986 1971 0
-1987 -1986 -1971 0
1987 -1986 1971 0
1987 1986 -1971 0
-1988 1987 1972 0
-1988 -1987 -1972 0
1988 -1987 1972 0
1988 1987 -1972 0
-1989 1988 1973 0
-1989 -1988 -1973 0
1989 -1988 1973 0
1989 1988 -1973 0
-1990 1989 1974 0
-1990 -1989 -1974 0
1990 -1989 1974 0
1990 1989 -1974 0
-1991 1990 1975 0
-1991 -1990 -1975 0
1991 -1990 1975 0
1991 1990 -1975 0
-1992 1991 1976 0
-1992 -1991 -1976 0
1992 -1991 1976 0
1992 1991 -1976 0
-1993 1992 1977 0
-1993 -1992 -1977 0
1993 -1992 1977 0
1993 1992 -1977 0
-1994 1993 1978 0
-1994 -1993 -1978 0
1994 -1993 1978 0
1994 1993 -1978 0
-1995 1994 1979 0
-1995 -1994 -1979 0
1995 -1994 1979 0
1995 1994 -1979 0
-1996 1995 1980 0
-1996 -1995 -1980 0
1996 -1995 1980 0
1996 1995 -1980 0
-1997 1996 1981 0
-1997 -1996 -1981 0
1997 -1996 1981 0
1997 1996 -1981 0
-1998 1997 1982 0
-1998 -1997 -1982 0
1998 -1997 1982 0
1998 1997 -1982 0
-1999 1998 1983 0
-1999 -1998 -1983 0
1999 -1998 1983 0
1999 1998 -1983 0
-2000 1999 1984 0
-2000 -1999 -1984 0
2000 -1999 1984 0
2000 1999 -1984 0
-2001 2000 1985 0
-2001 -2000 -1985 0
2001 -2000 1985 0
2001 2000 -1985 0
-2001 0
-2002 1589 0
-2002 45 0
2002 -1589 -45 0
-2003 1591 0
-2003 41 0
2003 -1591 -41 0
-2004 1593 0
-2004 37 0
2004 -1593 -37 0
-2005 1595 0
-2005 36 0
2005 -1595 -36 0
-2006 1597 0
-2006 35 0
2006 -1597 -35 0
-2007 1599 0
-2007 34 0
2007 -1599 -34 0
-2008 1601 0
-2008 93 0
2008 -1601 -93 0
-2009 1603 0
-2009 89 0
2009 -1603 -89 0
-2010 1605 0
-2010 85 0
2010 -1605 -85 0
-2011 1607 0
-2011 84 0
2011 -1607 -84 0
-2012 1609 0
-2012 83 0
2012 -1609 -83 0
-2013 1611 0
-2013 82 0
2013 -1611 -82 0
-2014 1613 0
-2014 141 0
2014 -1613 -141 0
-2015 1615 0
-2015 137 0
2015 -1615 -137 0
-2016 1617 0
-2016 133 0
2016 -1617 -133 0
-2017 1619 0
-2017 189 0
2017 -1619 -189 0
-2018 1621 0
-2018 180 0
2018 -1621 -180 0
-2019 2002 2003 0
-2019 -2002 -2003 0
2019 -2002 2003 0
2019 2002 -2003 0
-2020 2019 2004 0
-2020 -2019 -2004 0
2020 -2019 2004 0
2020 2019 -2004 0
-2021 2020 2005 0
-2021 -2020 -2005 0
2021 -2020 2005 0
2021 2020 -2005 0
-2022 2021 2006 0
-2022 -2021 -2006 0
2022 -2021 2006 0
2022 2021 -2006 0
-2023 2022 2007 0
-2023 -2022 -2007 0
2023 -2022 2007 0
2023 2022 -2007 0
-2024 2023 2008 0
-2024 -2023 -2008 0
2024 -2023 2008 0
2024 2023 -2008 0
-2025 2024 2009 0
-2025 -2024 -2009 0
2025 -2024 2009 0
2025 2024 -2009 0
-2026 2025 2010 0
-2026 -2025 -2010 0
2026 -2025 2010 0
2026 2025 -2010 0
-2027 2026 2011 0
-2027 -2026 -2011 0
2027 -2026 2011 0
2027 2026 -2011 0
-2028 2027 2012 0
-2028 -2027 -2012 0
2028 -2027 2012 0
2028 2027 -2012 0
-2029 2028 2013 0
-2029 -2028 -2013 0
2029 -2028 2013 0
2029 2028 -2013 0
-2030 2029 2014 0
-2030 -2029 -2014 0
2030 -2029 2014 0
2030 2029 -2014 0
-2031 2030 2015 0
-2031 -2030 -2015 0
2031 -2030 2015 0
2031 2030 -2015 0
-2032 2031 2016 0
-2032 -2031 -2016 0
2032 -2031 2016 0
2032 2031 -2016 0
-2033 2032 2017 0
-2033 -2032 -2017 0
2033 -2032 2017 0
2033 2032 -2017 0
-2034 2033 2018 0
-2034 -2033 -2018 0
2034 -2033 2018 0
2034 2033 -2018 0
-2034 0
-2035 1589 0
-2035 46 0
2035 -1589 -46 0
-2036 1591 0
-2036 42 0
2036 -1591 -42 0
-2037 1593 0
-2037 39 0
2037 -1593 -39 0
-2038 1595 0
-2038 40 0
2038 -1595 -40 0
-2039 1597 0
-2039 39 0
2039 -1597 -39 0
-2040 1599 0
-2040 42 0
2040 -1599 -42 0
-2041 1601 0
-2041 94 0
2041 -1601 -94 0
-2042 1603 0
-2042 90 0
2042 -1603 -90 0
-2043 1605 0
-2043 87 0
2043 -1605 -87 0
-2044 1607 0
-2044 88 0
2044 -1607 -88 0
-2045 1609 0
-2045 87 0
2045 -1609 -87 0
-2046 1611 0
-2046 90 0
2046 -1611 -90 0
-2047 1613 0
-2047 142 0
2047 -1613 -142 0
-2048 1615 0
-2048 138 0
2048 -1615 -138 0
-2049 1617 0
-2049 135 0
2049 -1617 -135 0
-2050 1619 0
-2050 190 0
2050 -1619 -190 0
-2051 1621 0
-2051 184 0
2051 -1621 -184 0
-2052 2035 2036 0
-2052 -2035 -2036 0
2052 -2035 2036 0
2052 2035 -2036 0
-2053 2052 2037 0
-2053 -2052 -2037 0
2053 -2052 2037 0
2053 2052 -2037 0
-2054 2053 2038 0
-2054 -2053 -2038 0
2054 -2053 2038 0
2054 2053 -2038 0
-2055 2054 2039 0
-2055 -2054 -2039 0
2055 -2054 2039 0
2055 2054 -2039 0
-2056 2055 2040 0
-2056 -2055 -2040 0
2056 -2055 2040 0
2056 2055 -2040 0
-2057 2056 2041 0
-2057 -2056 -2041 0
2057 -2056 2041 0
2057 2056 -2041 0
-2058 2057 2042 0
-2058 -2057 -2042 0
2058 -2057 2042 0
2058 2057 -2042 0
-2059 2058 2043 0
-2059 -2058 -2043 0
2059 -2058 2043 0
2059 2058 -2043 0
-2060 2059 2044 0
-2060 -2059 -2044 0
2060 -2059 2044 0
2060 2059 -2044 0
-2061 2060 2045 0
-2061 -2060 -2045 0
2061 -2060 2045 0
2061 2060 -2045 0
-2062 2061 2046 0
-2062 -2061 -2046 0
2062 -2061 2046 0
2062 2061 -2046 0
-2063 2062 2047 0
-2063 -2062 -2047 0
2063 -2062 2047 0
2063 2062 -2047 0
-2064 2063 2048 0
-2064 -2063 -2048 0
2064 -2063 2048 0
2064 2063 -2048 0
-2065 2064 2049 0
-2065 -2064 -2049 0
2065 -2064 2049 0
2065 2064 -2049 0
-2066 2065 2050 0
-2066 -2065 -2050 0
2066 -2065 2050 0
2066 2065 -2050 0
-2067 2066 2051 0
-2067 -2066 -2051 0
2067 -2066 2051 0
2067 2066 -2051 0
-2067 0
-2068 1589 0
-2068 47 0
2068 -1589 -47 0
-2069 1591 0
-2069 44 0
2069 -1591 -44 0
-2070 1593 0
-2070 40 0
2070 -1593 -40 0
-2071 1595 0
-2071 44 0
2071 -1595 -44 0
-2072 1597 0
-2072 47 0
2072 -1597 -47 0
-2073 1599 0
-2073 46 0
2073 -1599 -46 0
-2074 1601 0
-2074 95 0
2074 -1601 -95 0
-2075 1603 0
-2075 92 0
2075 -1603 -92 0
-2076 1605 0
-2076 88 0
2076 -1605 -88 0
-2077 1607 0
-2077 92 0
2077 -1607 -92 0
-2078 1609 0
-2078 95 0
2078 -1609 -95 0
-2079 1611 0
-2079 94 0
2079 -1611 -94 0
-2080 1613 0
-2080 143 0
2080 -1613 -143 0
-2081 1615 0
-2081 140 0
2081 -1615 -140 0
-2082 1617 0
-2082 136 0
2082 -1617 -136 0
-2083 1619 0
-2083 191 0
2083 -1619 -191 0
-2084 1621 0
-2084 188 0
2084 -1621 -188 0
-2085 2068 2069 0
-2085 -2068 -2069 0
2085 -2068 2069 0
2085 2068 -2069 0
-2086 2085 2070 0
-2086 -2085 -2070 0
2086 -2085 2070 0
2086 2085 -2070 0
-2087 2086 2071 0
-2087 -2086 -2071 0
2087 -2086 2071 0
2087 2086 -2071 0
-2088 2087 2072 0
-2088 -2087 -2072 0
2088 -2087 2072 0
2088 2087 -2072 0
-2089 2088 2073 0
-2089 -2088 -2073 0
2089 -2088 2073 0
2089 2088 -2073 0
-2090 2089 2074 0
-2090 -2089 -2074 0
2090 -2089 2074 0
2090 2089 -2074 0
-2091 2090 2075 0
-2091 -2090 -2075 0
2091 -2090 2075 0
2091 2090 -2075 0
-2092 2091 2076 0
-2092 -2091 -2076 0
2092 -2091 2076 0
2092 2091 -2076 0
-2093 2092 2077 0
-2093 -2092 -2077 0
2093 -2092 2077 0
2093 2092 -2077 0
-2094 2093 2078 0
-2094 -2093 -2078 0
2094 -2093 2078 0
2094 2093 -2078 0
-2095 2094 2079 0
-2095 -2094 -2079 0
2095 -2094 2079 0
2095 2094 -2079 0
-2096 2095 2080 0
-2096 -2095 -2080 0
2096 -2095 2080 0
2096 2095 -2080 0
-2097 2096 2081 0
-2097 -2096 -2081 0
2097 -2096 2081 0
2097 2096 -2081 0
-2098 2097 2082 0
-2098 -2097 -2082 0
2098 -2097 2082 0
2098 2097 -2082 0
-2099 2098 2083 0
-2099 -2098 -2083 0
2099 -2098 2083 0
2099 2098 -2083 0
-2100 2099 2084 0
-2100 -2099 -2084 0
2100 -2099 2084 0
2100 2099 -2084 0
-2100 0
-2101 1589 0
-2101 48 0
2101 -1589 -48 0
-2102 1591 0
-2102 43 0
2102 -1591 -43 0
-2103 1593 0
-2103 38 0
2103 -1593 -38 0
-2104 1595 0
-2104 48 0
2104 -1595 -48 0
-2105 1597 0
-2105 43 0
2105 -1597 -43 0
-2106 1599 0
-2106 38 0
2106 -1599 -38 0
-2107 1601 0
-2107 96 0
2107 -1601 -96 0
-2108 1603 0
-2108 91 0
2108 -1603 -91 0
-2109 1605 0
-2109 86 0
2109 -1605 -86 0
-2110 1607 0
-2110 96 0
2110 -1607 -96 0
-2111 1609 0
-2111 91 0
2111 -1609 -91 0
-2112 1611 0
-2112 86 0
2112 -1611 -86 0
-2113 1613 0
-2113 144 0
2113 -1613 -144 0
-2114 1615 0
-2114 139 0
2114 -1615 -139 0
-2115 1617 0
-2115 134 0
2115 -1617 -134 0
-2116 1619 0
-2116 192 0
2116 -1619 -192 0
-2117 1621 0
-2117 192 0
2117 -1621 -192 0
-2118 2101 2102 0
-2118 -2101 -2102 0
2118 -2101 2102 0
2118 2101 -2102 0
-2119 2118 2103 0
-2119 -2118 -2103 0
2119 -2118 2103 0
2119 2118 -2103 0
-2120 2119 2104 0
-2120 -2119 -2104 0
2120 -2119 2104 0
2120 2119 -2104 0
-2121 2120 2105 0
-2121 -2120 -2105 0
2121 -2120 2105 0
2121 2120 -2105 0
-2122 2121 2106 0
-2122 -2121 -2106 0
2122 -2121 2106 0
2122 2121 -2106 0
-2123 2122 2107 0
-2123 -2122 -2107 0
2123 -2122 2107 0
2123 2122 -2107 0
-2124 2123 2108 0
-2124 -2123 -2108 0
2124 -2123 2108 0
2124 2123 -2108 0
-2125 2124 2109 0
-2125 -2124 -2109 0
2125 -2124 2109 0
2125 2124 -2109 0
-2126 2125 2110 0
-2126 -2125 -2110 0
2126 -2125 2110 0
2126 2125 -2110 0
-2127 2126 2111 0
-2127 -2126 -2111 0
2127 -2126 2111 0
2127 2126 -2111 0
-2128 2127 2112 0
-2128 -2127 -2112 0
2128 -2127 2112 0
2128 2127 -2112 0
-2129 2128 2113 0
-2129 -2128 -2113 0
2129 -2128 2113 0
2129 2128 -2113 0
-2130 2129 2114 0
-2130 -2129 -2114 0
2130 -2129 2114 0
2130 2129 -2114 0
-2131 2130 2115 0
-2131 -2130 -2115 0
2131 -2130 2115 0
2131 2130 -2115 0
-2132 2131 2116 0
-2132 -2131 -2116 0
2132 -2131 2116 0
2132 2131 -2116 0
-2133 2132 2117 0
-2133 -2132 -2117 0
2133 -2132 2117 0
2133 2132 -2117 0
-2133 0
-2134 1 0
-2134 23 0
2134 -1 -23 0
-2135 2134 0
-2135 33 0
2135 -2134 -33 0
-2136 2 0
-2136 20 0
2136 -2 -20 0
-2137 2136 0
-2137 33 0
2137 -2136 -33 0
-2138 2 0
-2138 28 0
2138 -2 -28 0
-2139 2138 0
-2139 33 0
2139 -2138 -33 0
-2140 17 0
-2140 10 0
2140 -17 -10 0
-2141 2140 0
-2141 33 0
2141 -2140 -33 0
-2142 21 0
-2142 13 0
2142 -21 -13 0
-2143 2142 0
-2143 33 0
2143 -2142 -33 0
-2144 21 0
-2144 15 0
2144 -21 -15 0
-2145 2144 0
-2145 33 0
2145 -2144 -33 0
-2146 49 0
-2146 71 0
2146 -49 -71 0
-2147 2146 0
-2147 81 0
2147 -2146 -81 0
-2148 50 0
-2148 68 0
2148 -50 -68 0
-2149 2148 0
-2149 81 0
2149 -2148 -81 0
-2150 50 0
-2150 76 0
2150 -50 -76 0
-2151 2150 0
-2151 81 0
2151 -2150 -81 0
-2152 65 0
-2152 58 0
2152 -65 -58 0
-2153 2152 0
-2153 81 0
2153 -2152 -81 0
-2154 69 0
-2154 61 0
2154 -69 -61 0
-2155 2154 0
-2155 81 0
2155 -2154 -81 0
-2156 69 0
-2156 63 0
2156 -69 -63 0
-2157 2156 0
-2157 81 0
2157 -2156 -81 0
-2158 97 0
-2158 119 0
2158 -97 -119 0
-2159 2158 0
-2159 129 0
2159 -2158 -129 0
-2160 98 0
-2160 116 0
2160 -98 -116 0
-2161 2160 0
-2161 129 0
2161 -2160 -129 0
-2162 98 0
-2162 124 0
2162 -98 -124 0
-2163 2162 0
-2163 129 0
2163 -2162 -129 0
-2164 145 0
-2164 167 0
2164 -145 -167 0
-2165 2164 0
-2165 177 0
2165 -2164 -177 0
-2166 161 0
-2166 154 0
2166 -161 -154 0
-2167 2166 0
-2167 177 0
2167 -2166 -177 0
-2168 2135 2137 0
-2168 -2135 -2137 0
2168 -2135 2137 0
2168 2135 -2137 0
-2169 2168 2139 0
-2169 -2168 -2139 0
2169 -2168 2139 0
2169 2168 -2139 0
-2170 2169 2141 0
-2170 -2169 -2141 0
2170 -2169 2141 0
2170 2169 -2141 0
-2171 2170 2143 0
-2171 -2170 -2143 0
2171 -2170 2143 0
2171 2170 -2143 0
-2172 2171 2145 0
-2172 -2171 -2145 0
2172 -2171 2145 0
2172 2171 -2145 0
-2173 2172 2147 0
-2173 -2172 -2147 0
2173 -2172 2147 0
2173 2172 -2147 0
-2174 2173 2149 0
-2174 -2173 -2149 0
2174 -2173 2149 0
2174 2173 -2149 0
-2175 2174 2151 0
-2175 -2174 -2151 0
2175 -2174 2151 0
2175 2174 -2151 0
-2176 2175 2153 0
-2176 -2175 -2153 0
2176 -2175 2153 0
2176 2175 -2153 0
-2177 2176 2155 0
-2177 -2176 -2155 0
2177 -2176 2155 0
2177 2176 -2155 0
-2178 2177 2157 0
-2178 -2177 -2157 0
2178 -2177 2157 0
2178 2177 -2157 0
-2179 2178 2159 0
-2179 -2178 -2159 0
2179 -2178 2159 0
2179 2178 -2159 0
-2180 2179 2161 0
-2180 -2179 -2161 0
2180 -2179 2161 0
2180 2179 -2161 0
-2181 2180 2163 0
-2181 -2180 -2163 0
2181 -2180 2163 0
2181 2180 -2163 0
-2182 2181 2165 0
-2182 -2181 -2165 0
2182 -2181 2165 0
2182 2181 -2165 0
-2183 2182 2167 0
-2183 -2182 -2167 0
2183 -2182 2167 0
2183 2182 -2167 0
-2183 0
-2184 2134 0
-2184 34 0
2184 -2134 -34 0
-2185 2136 0
-2185 34 0
2185 -2136 -34 0
-2186 2138 0
-2186 35 0
2186 -2138 -35 0
-2187 2140 0
-2187 37 0
2187 -2140 -37 0
-2188 2142 0
-2188 37 0
2188 -2142 -37 0
-2189 2144 0
-2189 41 0
2189 -2144 -41 0
-2190 2146 0
-2190 82 0
2190 -2146 -82 0
-2191 2148 0
-2191 82 0
2191 -2148 -82 0
-2192 2150 0
-2192 83 0
2192 -2150 -83 0
-2193 2152 0
-2193 85 0
2193 -2152 -85 0
-2194 2154 0
-2194 85 0
2194 -2154 -85 0
-2195 2156 0
-2195 89 0
2195 -2156 -89 0
-2196 2158 0
-2196 130 0
2196 -2158 -130 0
-2197 2160 0
-2197 130 0
2197 -2160 -130 0
-2198 2162 0
-2198 131 0
2198 -2162 -131 0
-2199 2164 0
-2199 178 0
2199 -2164 -178 0
-2200 2166 0
-2200 181 0
2200 -2166 -181 0
-2201 2184 2185 0
-2201 -2184 -2185 0
2201 -2184 2185 0
2201 2184 -2185 0
-2202 2201 2186 0
-2202 -2201 -2186 0
2202 -2201 2186 0
2202 2201 -2186 0
-2203 2202 2187 0
-2203 -2202 -2187 0
2203 -2202 2187 0
2203 2202 -2187 0
-2204 2203 2188 0
-2204 -2203 -2188 0
2204 -2203 2188 0
2204 2203 -2188 0
-2205 2204 2189 0
-2205 -2204 -2189 0
2205 -2204 2189 0
2205 2204 -2189 0
-2206 2205 2190 0
-2206 -2205 -2190 0
2206 -2205 2190 0
2206 2205 -2190 0
-2207 2206 2191 0
-2207 -2206 -2191 0
2207 -2206 2191 0
2207 2206 -2191 0
-2208 2207 2192 0
-2208 -2207 -2192 0
2208 -2207 2192 0
2208 2207 -2192 0
-2209 2208 2193 0
-2209 -2208 -2193 0
2209 -2208 2193 0
2209 2208 -2193 0
-2210 2209 2194 0
-2210 -2209 -2194 0
2210 -2209 2194 0
2210 2209 -2194 0
-2211 2210 2195 0
-2211 -2210 -2195 0
2211 -2210 2195 0
2211 2210 -2195 0
-2212 2211 2196 0
-2212 -2211 -2196 0
2212 -2211 2196 0
2212 2211 -2196 0
-2213 2212 2197 0
-2213 -2212 -2197 0
2213 -2212 2197 0
2213 2212 -2197 0
-2214 2213 2198 0
-2214 -2213 -2198 0
2214 -2213 2198 0
2214 2213 -2198 0
-2215 2214 2199 0
-2215 -2214 -2199 0
2215 -2214 2199 0
2215 2214 -2199 0
-2216 2215 2200 0
-2216 -2215 -2200 0
2216 -2215 2200 0
2216 2215 -2200 0
-2216 0
-2217 2134 0
-2217 35 0
2217 -2134 -35 0
-2218 2136 0
-2218 36 0
2218 -2136 -36 0
-2219 2138 0
-2219 36 0
2219 -2138 -36 0
-2220 2140 0
-2220 41 0
2220 -2140 -41 0
-2221 2142 0
-2221 45 0
2221 -2142 -45 0
-2222 2144 0
-2222 45 0
2222 -2144 -45 0
-2223 2146 0
-2223 83 0
2223 -2146 -83 0
-2224 2148 0
-2224 84 0
2224 -2148 -84 0
-2225 2150 0
-2225 84 0
2225 -2150 -84 0
-2226 2152 0
-2226 89 0
2226 -2152 -89 0
-2227 2154 0
-2227 93 0
2227 -2154 -93 0
-2228 2156 0
-2228 93 0
2228 -2156 -93 0
-2229 2158 0
-2229 131 0
2229 -2158 -131 0
-2230 2160 0
-2230 132 0
2230 -2160 -132 0
-2231 2162 0
-2231 132 0
2231 -2162 -132 0
-2232 2164 0
-2232 179 0
2232 -2164 -179 0
-2233 2166 0
-2233 185 0
2233 -2166 -185 0
-2234 2217 2218 0
-2234 -2217 -2218 0
2234 -2217 2218 0
2234 2217 -2218 0
-2235 2234 2219 0
-2235 -2234 -2219 0
2235 -2234 2219 0
2235 2234 -2219 0
-2236 2235 2220 0
-2236 -2235 -2220 0
2236 -2235 2220 0
2236 2235 -2220 0
-2237 2236 2221 0
-2237 -2236 -2221 0
2237 -2236 2221 0
2237 2236 -2221 0
-2238 2237 2222 0
-2238 -2237 -2222 0
2238 -2237 2222 0
2238 2237 -2222 0
-2239 2238 2223 0
-2239 -2238 -2223 0
2239 -2238 2223 0
2239 2238 -2223 0
-2240 2239 2224 0
-2240 -2239 -2224 0
2240 -2239 2224 0
2240 2239 -2224 0
-2241 2240 2225 0
-2241 -2240 -2225 0
2241 -2240 2225 0
2241 2240 -2225 0
-2242 2241 2226 0
-2242 -2241 -2226 0
2242 -2241 2226 0
2242 2241 -2226 0
-2243 2242 2227 0
-2243 -2242 -2227 0
2243 -2242 2227 0
2243 2242 -2227 0
-2244 2243 2228 0
-2244 -2243 -2228 0
2244 -2243 2228 0
2244 2243 -2228 0
-2245 2244 2229 0
-2245 -2244 -2229 0
2245 -2244 2229 0
2245 2244 -2229 0
-2246 2245 2230 0
-2246 -2245 -2230 0
2246 -2245 2230 0
2246 2245 -2230 0
-2247 2246 2231 0
-2247 -2246 -2231 0
2247 -2246 2231 0
2247 2246 -2231 0
-2248 2247 2232 0
-2248 -2247 -2232 0
2248 -2247 2232 0
2248 2247 -2232 0
-2249 2248 2233 0
-2249 -2248 -2233 0
2249 -2248 2233 0
2249 2248 -2233 0
-2249 0
-2250 2134 0
-2250 36 0
2250 -2134 -36 0
-2251 2136 0
-2251 35 0
2251 -2136 -35 0
-2252 2138 0
-2252 34 0
2252 -2138 -34 0
-2253 2140 0
-2253 45 0
2253 -2140 -45 0
-2254 2142 0
-2254 41 0
2254 -2142 -41 0
-2255 2144 0
-2255 37 0
2255 -2144 -37 0
-2256 2146 0
-2256 84 0
2256 -2146 -84 0
-2257 2148 0
-2257 83 0
2257 -2148 -83 0
-2258 2150 0
-2258 82 0
2258 -2150 -82 0
-2259 2152 0
-2259 93 0
2259 -2152 -93 0
-2260 2154 0
-2260 89 0
2260 -2154 -89 0
-2261 2156 0
-2261 85 0
2261 -2156 -85 0
-2262 2158 0
-2262 132 0
2262 -2158 -132 0
-2263 2160 0
-2263 131 0
2263 -2160 -131 0
-2264 2162 0
-2264 130 0
2264 -2162 -130 0
-2265 2164 0
-2265 180 0
2265 -2164 -180 0
-2266 2166 0
-2266 189 0
2266 -2166 -189 0
-2267 2250 2251 0
-2267 -2250 -2251 0
2267 -2250 2251 0
2267 2250 -2251 0
-2268 2267 2252 0
-2268 -2267 -2252 0
2268 -2267 2252 0
2268 2267 -2252 0
-2269 2268 2253 0
-2269 -2268 -2253 0
2269 -2268 2253 0
2269 2268 -2253 0
-2270 2269 2254 0
-2270 -2269 -2254 0
2270 -2269 2254 0
2270 2269 -2254 0
-2271 2270 2255 0
-2271 -2270 -2255 0
2271 -2270 2255 0
2271 2270 -2255 0
-2272 2271 2256 0
-2272 -2271 -2256 0
2272 -2271 2256 0
2272 2271 -2256 0
-2273 2272 2257 0
-2273 -2272 -2257 0
2273 -2272 2257 0
2273 2272 -2257 0
-2274 2273 2258 0
-2274 -2273 -2258 0
2274 -2273 2258 0
2274 2273 -2258 0
-2275 2274 2259 0
-2275 -2274 -2259 0
2275 -2274 2259 0
2275 2274 -2259 0
-2276 2275 2260 0
-2276 -2275 -2260 0
2276 -2275 2260 0
2276 2275 -2260 0
-2277 2276 2261 0
-2277 -2276 -2261 0
2277 -2276 2261 0
2277 2276 -2261 0
-2278 2277 2262 0
-2278 -2277 -2262 0
2278 -2277 2262 0
2278 2277 -2262 0
-2279 2278 2263 0
-2279 -2278 -2263 0
2279 -2278 2263 0
2279 2278 -2263 0
-2280 2279 2264 0
-2280 -2279 -2264 0
2280 -2279 2264 0
2280 2279 -2264 0
-2281 2280 2265 0
-2281 -2280 -2265 0
2281 -2280 2265 0
2281 2280 -2265 0
-2282 2281 2266 0
-2282 -2281 -2266 0
2282 -2281 2266 0
2282 2281 -2266 0
-2282 0
-2283 2134 0
-2283 37 0
2283 -2134 -37 0
-2284 2136 0
-2284 37 0
2284 -2136 -37 0
-2285 2138 0
-2285 41 0
2285 -2138 -41 0
-2286 2140 0
-2286 34 0
2286 -2140 -34 0
-2287 2142 0
-2287 34 0
2287 -2142 -34 0
-2288 2144 0
-2288 35 0
2288 -2144 -35 0
-2289 2146 0
-2289 85 0
2289 -2146 -85 0
-2290 2148 0
-2290 85 0
2290 -2148 -85 0
-2291 2150 0
-2291 89 0
2291 -2150 -89 0
-2292 2152 0
-2292 82 0
2292 -2152 -82 0
-2293 2154 0
-2293 82 0
2293 -2154 -82 0
-2294 2156 0
-2294 83 0
2294 -2156 -83 0
-2295 2158 0
-2295 133 0
2295 -2158 -133 0
-2296 2160 0
-2296 133 0
2296 -2160 -133 0
-2297 2162 0
-2297 137 0
2297 -2162 -137 0
-2298 2164 0
-2298 181 0
2298 -2164 -181 0
-2299 2166 0
-2299 178 0
2299 -2166 -178 0
-2300 2283 2284 0
-2300 -2283 -2284 0
2300 -2283 2284 0
2300 2283 -2284 0
-2301 2300 2285 0
-2301 -2300 -2285 0
2301 -2300 2285 0
2301 2300 -2285 0
-2302 2301 2286 0
-2302 -2301 -2286 0
2302 -2301 2286 0
2302 2301 -2286 0
-2303 2302 2287 0
-2303 -2302 -2287 0
2303 -2302 2287 0
2303 2302 -2287 0
-2304 2303 2288 0
-2304 -2303 -2288 0
2304 -2303 2288 0
2304 2303 -2288 0
-2305 2304 2289 0
-2305 -2304 -2289 0
2305 -2304 2289 0
2305 2304 -2289 0
-2306 2305 2290 0
-2306 -2305 -2290 0
2306 -2305 2290 0
2306 2305 -2290 0
-2307 2306 2291 0
-2307 -2306 -2291 0
2307 -2306 2291 0
2307 2306 -2291 0
-2308 2307 2292 0
-2308 -2307 -2292 0
2308 -2307 2292 0
2308 2307 -2292 0
-2309 2308 2293 0
-2309 -2308 -2293 0
2309 -2308 2293 0
2309 2308 -2293 0
-2310 2309 2294 0
-2310 -2309 -2294 0
2310 -2309 2294 0
2310 2309 -2294 0
-2311 2310 2295 0
-2311 -2310 -2295 0
2311 -2310 2295 0
2311 2310 -2295 0
-2312 2311 2296 0
-2312 -2311 -2296 0
2312 -2311 2296 0
2312 2311 -2296 0
-2313 2312 2297 0
-2313 -2312 -2297 0
2313 -2312 2297 0
2313 2312 -2297 0
-2314 2313 2298 0
-2314 -2313 -2298 0
2314 -2313 2298 0
2314 2313 -2298 0
-2315 2314 2299 0
-2315 -2314 -2299 0
2315 -2314 2299 0
2315 2314 -2299 0
-2315 0
-2316 2134 0
-2316 38 0
2316 -2134 -38 0
-2317 2136 0
-2317 38 0
2317 -2136 -38 0
-2318 2138 0
-2318 43 0
2318 -2138 -43 0
-2319 2140 0
-2319 38 0
2319 -2140 -38 0
-2320 2142 0
-2320 38 0
2320 -2142 -38 0
-2321 2144 0
-2321 43 0
2321 -2144 -43 0
-2322 2146 0
-2322 86 0
2322 -2146 -86 0
-2323 2148 0
-2323 86 0
2323 -2148 -86 0
-2324 2150 0
-2324 91 0
2324 -2150 -91 0
-2325 2152 0
-2325 86 0
2325 -2152 -86 0
-2326 2154 0
-2326 86 0
2326 -2154 -86 0
-2327 2156 0
-2327 91 0
2327 -2156 -91 0
-2328 2158 0
-2328 134 0
2328 -2158 -134 0
-2329 2160 0
-2329 134 0
2329 -2160 -134 0
-2330 2162 0
-2330 139 0
2330 -2162 -139 0
-2331 2164 0
-2331 182 0
2331 -2164 -182 0
-2332 2166 0
-2332 182 0
2332 -2166 -182 0
-2333 2316 2317 0
-2333 -2316 -2317 0
2333 -2316 2317 0
2333 2316 -2317 0
-2334 2333 2318 0
-2334 -2333 -2318 0
2334 -2333 2318 0
2334 2333 -2318 0
-2335 2334 2319 0
-2335 -2334 -2319 0
2335 -2334 2319 0
2335 2334 -2319 0
-2336 2335 2320 0
-2336 -2335 -2320 0
2336 -2335 2320 0
2336 2335 -2320 0
-2337 2336 2321 0
-2337 -2336 -2321 0
2337 -2336 2321 0
2337 2336 -2321 0
-2338 2337 2322 0
-2338 -2337 -2322 0
2338 -2337 2322 0
2338 2337 -2322 0
-2339 2338 2323 0
-2339 -2338 -2323 0
2339 -2338 2323 0
2339 2338 -2323 0
-2340 2339 2324 0
-2340 -2339 -2324 0
2340 -2339 2324 0
2340 2339 -2324 0
-2341 2340 2325 0
-2341 -2340 -2325 0
2341 -2340 2325 0
2341 2340 -2325 0
-2342 2341 2326 0
-2342 -2341 -2326 0
2342 -2341 2326 0
2342 2341 -2326 0
-2343 2342 2327 0
-2343 -2342 -2327 0
2343 -2342 2327 0
2343 2342 -2327 0
-2344 2343 2328 0
-2344 -2343 -2328 0
2344 -2343 2328 0
2344 2343 -2328 0
-2345 2344 2329 0
-2345 -2344 -2329 0
2345 -2344 2329 0
2345 2344 -2329 0
-2346 2345 2330 0
-2346 -2345 -2330 0
2346 -2345 2330 0
2346 2345 -2330 0
-2347 2346 2331 0
-2347 -2346 -2331 0
2347 -2346 2331 0
2347 2346 -2331 0
-2348 2347 2332 0
-2348 -2347 -2332 0
2348 -2347 2332 0
2348 2347 -2332 0
-2348 0
-2349 2134 0
-2349 39 0
2349 -2134 -39 0
-2350 2136 0
-2350 40 0
2350 -2136 -40 0
-2351 2138 0
-2351 44 0
2351 -2138 -44 0
-2352 2140 0
-2352 42 0
2352 -2140 -42 0
-2353 2142 0
-2353 46 0
2353 -2142 -46 0
-2354 2144 0
-2354 47 0
2354 -2144 -47 0
-2355 2146 0
-2355 87 0
2355 -2146 -87 0
-2356 2148 0
-2356 88 0
2356 -2148 -88 0
-2357 2150 0
-2357 92 0
2357 -2150 -92 0
-2358 2152 0
-2358 90 0
2358 -2152 -90 0
-2359 2154 0
-2359 94 0
2359 -2154 -94 0
-2360 2156 0
-2360 95 0
2360 -2156 -95 0
-2361 2158 0
-2361 135 0
2361 -2158 -135 0
-2362 2160 0
-2362 136 0
2362 -2160 -136 0
-2363 2162 0
-2363 140 0
2363 -2162 -140 0
-2364 2164 0
-2364 183 0
2364 -2164 -183 0
-2365 2166 0
-2365 186 0
2365 -2166 -186 0
-2366 2349 2350 0
-2366 -2349 -2350 0
2366 -2349 2350 0
2366 2349 -2350 0
-2367 2366 2351 0
-2367 -2366 -2351 0
2367 -2366 2351 0
2367 2366 -2351 0
-2368 2367 2352 0
-2368 -2367 -2352 0
2368 -2367 2352 0
2368 2367 -2352 0
-2369 2368 2353 0
-2369 -2368 -2353 0
2369 -2368 2353 0
2369 2368 -2353 0
-2370 2369 2354 0
-2370 -2369 -2354 0
2370 -2369 2354 0
2370 2369 -2354 0
-2371 2370 2355 0
-2371 -2370 -2355 0
2371 -2370 2355 0
2371 2370 -2355 0
-2372 2371 2356 0
-2372 -2371 -2356 0
2372 -2371 2356 0
2372 2371 -2356 0
-2373 2372 2357 0
-2373 -2372 -2357 0
2373 -2372 2357 0
2373 2372 -2357 0
-2374 2373 2358 0
-2374 -2373 -2358 0
2374 -2373 2358 0
2374 2373 -2358 0
-2375 2374 2359 0
-2375 -2374 -2359 0
2375 -2374 2359 0
2375 2374 -2359 0
-2376 2375 2360 0
-2376 -2375 -2360 0
2376 -2375 2360 0
2376 2375 -2360 0
-2377 2376 2361 0
-2377 -2376 -2361 0
2377 -2376 2361 0
2377 2376 -2361 0
-2378 2377 2362 0
-2378 -2377 -2362 0
2378 -2377 2362 0
2378 2377 -2362 0
-2379 2378 2363 0
-2379 -2378 -2363 0
2379 -2378 2363 0
2379 2378 -2363 0
-2380 2379 2364 0
-2380 -2379 -2364 0
2380 -2379 2364 0
2380 2379 -2364 0
-2381 2380 2365 0
-2381 -2380 -2365 0
2381 -2380 2365 0
2381 2380 -2365 0
-2381 0
-2382 2134 0
-2382 40 0
2382 -2134 -40 0
-2383 2136 0
-2383 39 0
2383 -2136 -39 0
-2384 2138 0
-2384 42 0
2384 -2138 -42 0
-2385 2140 0
-2385 46 0
2385 -2140 -46 0
-2386 2142 0
-2386 42 0
2386 -2142 -42 0
-2387 2144 0
-2387 39 0
2387 -2144 -39 0
-2388 2146 0
-2388 88 0
2388 -2146 -88 0
-2389 2148 0
-2389 87 0
2389 -2148 -87 0
-2390 2150 0
-2390 90 0
2390 -2150 -90 0
-2391 2152 0
-2391 94 0
2391 -2152 -94 0
-2392 2154 0
-2392 90 0
2392 -2154 -90 0
-2393 2156 0
-2393 87 0
2393 -2156 -87 0
-2394 2158 0
-2394 136 0
2394 -2158 -136 0
-2395 2160 0
-2395 135 0
2395 -2160 -135 0
-2396 2162 0
-2396 138 0
2396 -2162 -138 0
-2397 2164 0
-2397 184 0
2397 -2164 -184 0
-2398 2166 0
-2398 190 0
2398 -2166 -190 0
-2399 2382 2383 0
-2399 -2382 -2383 0
2399 -2382 2383 0
2399 2382 -2383 0
-2400 2399 2384 0
-2400 -2399 -2384 0
2400 -2399 2384 0
2400 2399 -2384 0
-2401 2400 2385 0
-2401 -2400 -2385 0
2401 -2400 2385 0
2401 2400 -2385 0
-2402 2401 2386 0
-2402 -2401 -2386 0
2402 -2401 2386 0
2402 2401 -2386 0
-2403 2402 2387 0
-2403 -2402 -2387 0
2403 -2402 2387 0
2403 2402 -2387 0
-2404 2403 2388 0
-2404 -2403 -2388 0
2404 -2403 2388 0
2404 2403 -2388 0
-2405 2404 2389 0
-2405 -2404 -2389 0
2405 -2404 2389 0
2405 2404 -2389 0
-2406 2405 2390 0
-2406 -2405 -2390 0
2406 -2405 2390 0
2406 2405 -2390 0
-2407 2406 2391 0
-2407 -2406 -2391 0
2407 -2406 2391 0
2407 2406 -2391 0
-2408 2407 2392 0
-2408 -2407 -2392 0
2408 -2407 2392 0
2408 2407 -2392 0
-2409 2408 2393 0
-2409 -2408 -2393 0
2409 -2408 2393 0
2409 2408 -2393 0
-2410 2409 2394 0
-2410 -2409 -2394 0
2410 -2409 2394 0
2410 2409 -2394 0
-2411 2410 2395 0
-2411 -2410 -2395 0
2411 -2410 2395 0
2411 2410 -2395 0
-2412 2411 2396 0
-2412 -2411 -2396 0
2412 -2411 2396 0
2412 2411 -2396 0
-2413 2412 2397 0
-2413 -2412 -2397 0
2413 -2412 2397 0
2413 2412 -2397 0
-2414 2413 2398 0
-2414 -2413 -2398 0
2414 -2413 2398 0
2414 2413 -2398 0
-2414 0
-2415 2134 0
-2415 41 0
2415 -2134 -41 0
-2416 2136 0
-2416 45 0
2416 -2136 -45 0
-2417 2138 0
-2417 45 0
2417 -2138 -45 0
-2418 2140 0
-2418 35 0
2418 -2140 -35 0
-2419 2142 0
-2419 36 0
2419 -2142 -36 0
-2420 2144 0
-2420 36 0
2420 -2144 -36 0
-2421 2146 0
-2421 89 0
2421 -2146 -89 0
-2422 2148 0
-2422 93 0
2422 -2148 -93 0
-2423 2150 0
-2423 93 0
2423 -2150 -93 0
-2424 2152 0
-2424 83 0
2424 -2152 -83 0
-2425 2154 0
-2425 84 0
2425 -2154 -84 0
-2426 2156 0
-2426 84 0
2426 -2156 -84 0
-2427 2158 0
-2427 137 0
2427 -2158 -137 0
-2428 2160 0
-2428 141 0
2428 -2160 -141 0
-2429 2162 0
-2429 141 0
2429 -2162 -141 0
-2430 2164 0
-2430 185 0
2430 -2164 -185 0
-2431 2166 0
-2431 179 0
2431 -2166 -179 0
-2432 2415 2416 0
-2432 -2415 -2416 0
2432 -2415 2416 0
2432 2415 -2416 0
-2433 2432 2417 0
-2433 -2432 -2417 0
2433 -2432 2417 0
2433 2432 -2417 0
-2434 2433 2418 0
-2434 -2433 -2418 0
2434 -2433 2418 0
2434 2433 -2418 0
-2435 2434 2419 0
-2435 -2434 -2419 0
2435 -2434 2419 0
2435 2434 -2419 0
-2436 2435 2420 0
-2436 -2435 -2420 0
2436 -2435 2420 0
2436 2435 -2420 0
-2437 2436 2421 0
-2437 -2436 -2421 0
2437 -2436 2421 0
2437 2436 -2421 0
-2438 2437 2422 0
-2438 -2437 -2422 0
2438 -2437 2422 0
2438 2437 -2422 0
-2439 2438 2423 0
-2439 -2438 -2423 0
2439 -2438 2423 0
2439 2438 -2423 0
-2440 2439 2424 0
-2440 -2439 -2424 0
2440 -2439 2424 0
2440 2439 -2424 0
-2441 2440 2425 0
-2441 -2440 -2425 0
2441 -2440 2425 0
2441 2440 -2425 0
-2442 2441 2426 0
-2442 -2441 -2426 0
2442 -2441 2426 0
2442 2441 -2426 0
-2443 2442 2427 0
-2443 -2442 -2427 0
2443 -2442 2427 0
2443 2442 -2427 0
-2444 2443 2428 0
-2444 -2443 -2428 0
2444 -2443 2428 0
2444 2443 -2428 0
-2445 2444 2429 0
-2445 -2444 -2429 0
2445 -2444 2429 0
2445 2444 -2429 0
-2446 2445 2430 0
-2446 -2445 -2430 0
2446 -2445 2430 0
2446 2445 -2430 0
-2447 2446 2431 0
-2447 -2446 -2431 0
2447 -2446 2431 0
2447 2446 -2431 0
-2447 0
-2448 2134 0
-2448 42 0
2448 -2134 -42 0
-2449 2136 0
-2449 46 0
2449 -2136 -46 0
-2450 2138 0
-2450 47 0
2450 -2138 -47 0
-2451 2140 0
-2451 39 0
2451 -2140 -39 0
-2452 2142 0
-2452 40 0
2452 -2142 -40 0
-2453 2144 0
-2453 44 0
2453 -2144 -44 0
-2454 2146 0
-2454 90 0
2454 -2146 -90 0
-2455 2148 0
-2455 94 0
2455 -2148 -94 0
-2456 2150 0
-2456 95 0
2456 -2150 -95 0
-2457 2152 0
-2457 87 0
2457 -2152 -87 0
-2458 2154 0
-2458 88 0
2458 -2154 -88 0
-2459 2156 0
-2459 92 0
2459 -2156 -92 0
-2460 2158 0
-2460 138 0
2460 -2158 -138 0
-2461 2160 0
-2461 142 0
2461 -2160 -142 0
-2462 2162 0
-2462 143 0
2462 -2162 -143 0
-2463 2164 0
-2463 186 0
2463 -2164 -186 0
-2464 2166 0
-2464 183 0
2464 -2166 -183 0
-2465 2448 2449 0
-2465 -2448 -2449 0
2465 -2448 2449 0
2465 2448 -2449 0
-2466 2465 2450 0
-2466 -2465 -2450 0
2466 -2465 2450 0
2466 2465 -2450 0
-2467 2466 2451 0
-2467 -2466 -2451 0
2467 -2466 2451 0
2467 2466 -2451 0
-2468 2467 2452 0
-2468 -2467 -2452 0
2468 -2467 2452 0
2468 2467 -2452 0
-2469 2468 2453 0
-2469 -2468 -2453 0
2469 -2468 2453 0
2469 2468 -2453 0
-2470 2469 2454 0
-2470 -2469 -2454 0
2470 -2469 2454 0
2470 2469 -2454 0
-2471 2470 2455 0
-2471 -2470 -2455 0
2471 -2470 2455 0
2471 2470 -2455 0
-2472 2471 2456 0
-2472 -2471 -2456 0
2472 -2471 2456 0
2472 2471 -2456 0
-2473 2472 2457 0
-2473 -2472 -2457 0
2473 -2472 2457 0
2473 2472 -2457 0
-2474 2473 2458 0
-2474 -2473 -2458 0
2474 -2473 2458 0
2474 2473 -2458 0
-2475 2474 2459 0
-2475 -2474 -2459 0
2475 -2474 2459 0
2475 2474 -2459 0
-2476 2475 2460 0
-2476 -2475 -2460 0
2476 -2475 2460 0
2476 2475 -2460 0
-2477 2476 2461 0
-2477 -2476 -2461 0
2477 -2476 2461 0
2477 2476 -2461 0
-2478 2477 2462 0
-2478 -2477 -2462 0
2478 -2477 2462 0
2478 2477 -2462 0
-2479 2478 2463 0
-2479 -2478 -2463 0
2479 -2478 2463 0
2479 2478 -2463 0
-2480 2479 2464 0
-2480 -2479 -2464 0
2480 -2479 2464 0
2480 2479 -2464 0
-2480 0
-2481 2134 0
-2481 43 0
2481 -2134 -43 0
-2482 2136 0
-2482 48 0
2482 -2136 -48 0
-2483 2138 0
-2483 48 0
2483 -2138 -48 0
-2484 2140 0
-2484 43 0
2484 -2140 -43 0
-2485 2142 0
-2485 48 0
2485 -2142 -48 0
-2486 2144 0
-2486 48 0
2486 -2144 -48 0
-2487 2146 0
-2487 91 0
2487 -2146 -91 0
-2488 2148 0
-2488 96 0
2488 -2148 -96 0
-2489 2150 0
-2489 96 0
2489 -2150 -96 0
-2490 2152 0
-2490 91 0
2490 -2152 -91 0
-2491 2154 0
-2491 96 0
2491 -2154 -96 0
-2492 2156 0
-2492 96 0
2492 -2156 -96 0
-2493 2158 0
-2493 139 0
2493 -2158 -139 0
-2494 2160 0
-2494 144 0
2494 -2160 -144 0
-2495 2162 0
-2495 144 0
2495 -2162 -144 0
-2496 2164 0
-2496 187 0
2496 -2164 -187 0
-2497 2166 0
-2497 187 0
2497 -2166 -187 0
-2498 2481 2482 0
-2498 -2481 -2482 0
2498 -2481 2482 0
2498 2481 -2482 0
-2499 2498 2483 0
-2499 -2498 -2483 0
2499 -2498 2483 0
2499 2498 -2483 0
-2500 2499 2484 0
-2500 -2499 -2484 0
2500 -2499 2484 0
2500 2499 -2484 0
-2501 2500 2485 0
-2501 -2500 -2485 0
2501 -2500 2485 0
2501 2500 -2485 0
-2502 2501 2486 0
-2502 -2501 -2486 0
2502 -2501 2486 0
2502 2501 -2486 0
-2503 2502 2487 0
-2503 -2502 -2487 0
2503 -2502 2487 0
2503 2502 -2487 0
-2504 2503 2488 0
-2504 -2503 -2488 0
2504 -2503 2488 0
2504 2503 -2488 0
-2505 2504 2489 0
-2505 -2504 -2489 0
2505 -2504 2489 0
2505 2504 -2489 0
-2506 2505 2490 0
-2506 -2505 -2490 0
2506 -2505 2490 0
2506 2505 -2490 0
-2507 2506 2491 0
-2507 -2506 -2491 0
2507 -2506 2491 0
2507 2506 -2491 0
-2508 2507 2492 0
-2508 -2507 -2492 0
2508 -2507 2492 0
2508 2507 -2492 0
-2509 2508 2493 0
-2509 -2508 -2493 0
2509 -2508 2493 0
2509 2508 -2493 0
-2510 2509 2494 0
-2510 -2509 -2494 0
2510 -2509 2494 0
2510 2509 -2494 0
-2511 2510 2495 0
-2511 -2510 -2495 0
2511 -2510 2495 0
2511 2510 -2495 0
-2512 2511 2496 0
-2512 -2511 -2496 0
2512 -2511 2496 0
2512 2511 -2496 0
-2513 2512 2497 0
-2513 -2512 -2497 0
2513 -2512 2497 0
2513 2512 -2497 0
-2513 0
-2514 2134 0
-2514 44 0
2514 -2134 -44 0
-2515 2136 0
-2515 47 0
2515 -2136 -47 0
-2516 2138 0
-2516 46 0
2516 -2138 -46 0
-2517 2140 0
-2517 47 0
2517 -2140 -47 0
-2518 2142 0
-2518 44 0
2518 -2142 -44 0
-2519 2144 0
-2519 40 0
2519 -2144 -40 0
-2520 2146 0
-2520 92 0
2520 -2146 -92 0
-2521 2148 0
-2521 95 0
2521 -2148 -95 0
-2522 2150 0
-2522 94 0
2522 -2150 -94 0
-2523 2152 0
-2523 95 0
2523 -2152 -95 0
-2524 2154 0
-2524 92 0
2524 -2154 -92 0
-2525 2156 0
-2525 88 0
2525 -2156 -88 0
-2526 2158 0
-2526 140 0
2526 -2158 -140 0
-2527 2160 0
-2527 143 0
2527 -2160 -143 0
-2528 2162 0
-2528 142 0
2528 -2162 -142 0
-2529 2164 0
-2529 188 0
2529 -2164 -188 0
-2530 2166 0
-2530 191 0
2530 -2166 -191 0
-2531 2514 2515 0
-2531 -2514 -2515 0
2531 -2514 2515 0
2531 2514 -2515 0
-2532 2531 2516 0
-2532 -2531 -2516 0
2532 -2531 2516 0
2532 2531 -2516 0
-2533 2532 2517 0
-2533 -2532 -2517 0
2533 -2532 2517 0
2533 2532 -2517 0
-2534 2533 2518 0
-2534 -2533 -2518 0
2534 -2533 2518 0
2534 2533 -2518 0
-2535 2534 2519 0
-2535 -2534 -2519 0
2535 -2534 2519 0
2535 2534 -2519 0
-2536 2535 2520 0
-2536 -2535 -2520 0
2536 -2535 2520 0
2536 2535 -2520 0
-2537 2536 2521 0
-2537 -2536 -2521 0
2537 -2536 2521 0
2537 2536 -2521 0
-2538 2537 2522 0
-2538 -2537 -2522 0
2538 -2537 2522 0
2538 2537 -2522 0
-2539 2538 2523 0
-2539 -2538 -2523 0
2539 -2538 2523 0
2539 2538 -2523 0
-2540 2539 2524 0
-2540 -2539 -2524 0
2540 -2539 2524 0
2540 2539 -2524 0
-2541 2540 2525 0
-2541 -2540 -2525 0
2541 -2540 2525 0
2541 2540 -2525 0
-2542 2541 2526 0
-2542 -2541 -2526 0
2542 -2541 2526 0
2542 2541 -2526 0
-2543 2542 2527 0
-2543 -2542 -2527 0
2543 -2542 2527 0
2543 2542 -2527 0
-2544 2543 2528 0
-2544 -2543 -2528 0
2544 -2543 2528 0
2544 2543 -2528 0
-2545 2544 2529 0
-2545 -2544 -2529 0
2545 -2544 2529 0
2545 2544 -2529 0
-2546 2545 2530 0
-2546 -2545 -2530 0
2546 -2545 2530 0
2546 2545 -2530 0
-2546 0
-2547 2134 0
-2547 45 0
2547 -2134 -45 0
-2548 2136 0
-2548 41 0
2548 -2136 -41 0
-2549 2138 0
-2549 37 0
2549 -2138 -37 0
-2550 2140 0
-2550 36 0
2550 -2140 -36 0
-2551 2142 0
-2551 35 0
2551 -2142 -35 0
-2552 2144 0
-2552 34 0
2552 -2144 -34 0
-2553 2146 0
-2553 93 0
2553 -2146 -93 0
-2554 2148 0
-2554 89 0
2554 -2148 -89 0
-2555 2150 0
-2555 85 0
2555 -2150 -85 0
-2556 2152 0
-2556 84 0
2556 -2152 -84 0
-2557 2154 0
-2557 83 0
2557 -2154 -83 0
-2558 2156 0
-2558 82 0
2558 -2156 -82 0
-2559 2158 0
-2559 141 0
2559 -2158 -141 0
-2560 2160 0
-2560 137 0
2560 -2160 -137 0
-2561 2162 0
-2561 133 0
2561 -2162 -133 0
-2562 2164 0
-2562 189 0
2562 -2164 -189 0
-2563 2166 0
-2563 180 0
2563 -2166 -180 0
-2564 2547 2548 0
-2564 -2547 -2548 0
2564 -2547 2548 0
2564 2547 -2548 0
-2565 2564 2549 0
-2565 -2564 -2549 0
2565 -2564 2549 0
2565 2564 -2549 0
-2566 2565 2550 0
-2566 -2565 -2550 0
2566 -2565 2550 0
2566 2565 -2550 0
-2567 2566 2551 0
-2567 -2566 -2551 0
2567 -2566 2551 0
2567 2566 -2551 0
-2568 2567 2552 0
-2568 -2567 -2552 0
2568 -2567 2552 0
2568 2567 -2552 0
-2569 2568 2553 0
-2569 -2568 -2553 0
2569 -2568 2553 0
2569 2568 -2553 0
-2570 2569 2554 0
-2570 -2569 -2554 0
2570 -2569 2554 0
2570 2569 -2554 0
-2571 2570 2555 0
-2571 -2570 -2555 0
2571 -2570 2555 0
2571 2570 -2555 0
-2572 2571 2556 0
-2572 -2571 -2556 0
2572 -2571 2556 0
2572 2571 -2556 0
-2573 2572 2557 0
-2573 -2572 -2557 0
2573 -2572 2557 0
2573 2572 -2557 0
-2574 2573 2558 0
-2574 -2573 -2558 0
2574 -2573 2558 0
2574 2573 -2558 0
-2575 2574 2559 0
-2575 -2574 -2559 0
2575 -2574 2559 0
2575 2574 -2559 0
-2576 2575 2560 0
-2576 -2575 -2560 0
2576 -2575 2560 0
2576 2575 -2560 0
-2577 2576 2561 0
-2577 -2576 -2561 0
2577 -2576 2561 0
2577 2576 -2561 0
-2578 2577 2562 0
-2578 -2577 -2562 0
2578 -2577 2562 0
2578 2577 -2562 0
-2579 2578 2563 0
-2579 -2578 -2563 0
2579 -2578 2563 0
2579 2578 -2563 0
-2579 0
-2580 2134 0
-2580 46 0
2580 -2134 -46 0
-2581 2136 0
-2581 42 0
2581 -2136 -42 0
-2582 2138 0
-2582 39 0
2582 -2138 -39 0
-2583 2140 0
-2583 40 0
2583 -2140 -40 0
-2584 2142 0
-2584 39 0
2584 -2142 -39 0
-2585 2144 0
-2585 42 0
2585 -2144 -42 0
-2586 2146 0
-2586 94 0
2586 -2146 -94 0
-2587 2148 0
-2587 90 0
2587 -2148 -90 0
-2588 2150 0
-2588 87 0
2588 -2150 -87 0
-2589 2152 0
-2589 88 0
2589 -2152 -88 0
-2590 2154 0
-2590 87 0
2590 -2154 -87 0
-2591 2156 0
-2591 90 0
2591 -2156 -90 0
-2592 2158 0
-2592 142 0
2592 -2158 -142 0
-2593 2160 0
-2593 138 0
2593 -2160 -138 0
-2594 2162 0
-2594 135 0
2594 -2162 -135 0
-2595 2164 0
-2595 190 0
2595 -2164 -190 0
-2596 2166 0
-2596 184 0
2596 -2166 -184 0
-2597 2580 2581 0
-2597 -2580 -2581 0
2597 -2580 2581 0
2597 2580 -2581 0
-2598 2597 2582 0
-2598 -2597 -2582 0
2598 -2597 2582 0
2598 2597 -2582 0
-2599 2598 2583 0
-2599 -2598 -2583 0
2599 -2598 2583 0
2599 2598 -2583 0
-2600 2599 2584 0
-2600 -2599 -2584 0
2600 -2599 2584 0
2600 2599 -2584 0
-2601 2600 2585 0
-2601 -2600 -2585 0
2601 -2600 2585 0
2601 2600 -2585 0
-2602 2601 2586 0
-2602 -2601 -2586 0
2602 -2601 2586 0
2602 2601 -2586 0
-2603 2602 2587 0
-2603 -2602 -2587 0
2603 -2602 2587 0
2603 2602 -2587 0
-2604 2603 2588 0
-2604 -2603 -2588 0
2604 -2603 2588 0
2604 2603 -2588 0
-2605 2604 2589 0
-2605 -2604 -2589 0
2605 -2604 2589 0
2605 2604 -2589 0
-2606 2605 2590 0
-2606 -2605 -2590 0
2606 -2605 2590 0
2606 2605 -2590 0
-2607 2606 2591 0
-2607 -2606 -2591 0
2607 -2606 2591 0
2607 2606 -2591 0
-2608 2607 2592 0
-2608 -2607 -2592 0
2608 -2607 2592 0
2608 2607 -2592 0
-2609 2608 2593 0
-2609 -2608 -2593 0
2609 -2608 2593 0
2609 2608 -2593 0
-2610 2609 2594 0
-2610 -2609 -2594 0
2610 -2609 2594 0
2610 2609 -2594 0
-2611 2610 2595 0
-2611 -2610 -2595 0
2611 -2610 2595 0
2611 2610 -2595 0
-2612 2611 2596 0
-2612 -2611 -2596 0
2612 -2611 2596 0
2612 2611 -2596 0
-2612 0
-2613 2134 0
-2613 47 0
2613 -2134 -47 0
-2614 2136 0
-2614 44 0
2614 -2136 -44 0
-2615 2138 0
-2615 40 0
2615 -2138 -40 0
-2616 2140 0
-2616 44 0
2616 -2140 -44 0
-2617 2142 0
-2617 47 0
2617 -2142 -47 0
-2618 2144 0
-2618 46 0
2618 -2144 -46 0
-2619 2146 0
-2619 95 0
2619 -2146 -95 0
-2620 2148 0
-2620 92 0
2620 -2148 -92 0
-2621 2150 0
-2621 88 0
2621 -2150 -88 0
-2622 2152 0
-2622 92 0
2622 -2152 -92 0
-2623 2154 0
-2623 95 0
2623 -2154 -95 0
-2624 2156 0
-2624 94 0
2624 -2156 -94 0
-2625 2158 0
-2625 143 0
2625 -2158 -143 0
-2626 2160 0
-2626 140 0
2626 -2160 -140 0
-2627 2162 0
-2627 136 0
2627 -2162 -136 0
-2628 2164 0
-2628 191 0
2628 -2164 -191 0
-2629 2166 0
-2629 188 0
2629 -2166 -188 0
-2630 2613 2614 0
-2630 -2613 -2614 0
2630 -2613 2614 0
2630 2613 -2614 0
-2631 2630 2615 0
-2631 -2630 -2615 0
2631 -2630 2615 0
2631 2630 -2615 0
-2632 2631 2616 0
-2632 -2631 -2616 0
2632 -2631 2616 0
2632 2631 -2616 0
-2633 2632 2617 0
-2633 -2632 -2617 0
2633 -2632 2617 0
2633 2632 -2617 0
-2634 2633 2618 0
-2634 -2633 -2618 0
2634 -2633 2618 0
2634 2633 -2618 0
-2635 2634 2619 0
-2635 -2634 -2619 0
2635 -2634 2619 0
2635 2634 -2619 0
-2636 2635 2620 0
-2636 -2635 -2620 0
2636 -2635 2620 0
2636 2635 -2620 0
-2637 2636 2621 0
-2637 -2636 -2621 0
2637 -2636 2621 0
2637 2636 -2621 0
-2638 2637 2622 0
-2638 -2637 -2622 0
2638 -2637 2622 0
2638 2637 -2622 0
-2639 2638 2623 0
-2639 -2638 -2623 0
2639 -2638 2623 0
2639 2638 -2623 0
-2640 2639 2624 0
-2640 -2639 -2624 0
2640 -2639 2624 0
2640 2639 -2624 0
-2641 2640 2625 0
-2641 -2640 -2625 0
2641 -2640 2625 0
2641 2640 -2625 0
-2642 2641 2626 0
-2642 -2641 -2626 0
2642 -2641 2626 0
2642 2641 -2626 0
-2643 2642 2627 0
-2643 -2642 -2627 0
2643 -2642 2627 0
2643 2642 -2627 0
-2644 2643 2628 0
-2644 -2643 -2628 0
2644 -2643 2628 0
2644 2643 -2628 0
-2645 2644 2629 0
-2645 -2644 -2629 0
2645 -2644 2629 0
2645 2644 -2629 0
-2645 0
-2646 2134 0
-2646 48 0
2646 -2134 -48 0
-2647 2136 0
-2647 43 0
2647 -2136 -43 0
-2648 2138 0
-2648 38 0
2648 -2138 -38 0
-2649 2140 0
-2649 48 0
2649 -2140 -48 0
-2650 2142 0
-2650 43 0
2650 -2142 -43 0
-2651 2144 0
-2651 38 0
2651 -2144 -38 0
-2652 2146 0
-2652 96 0
2652 -2146 -96 0
-2653 2148 0
-2653 91 0
2653 -2148 -91 0
-2654 2150 0
-2654 86 0
2654 -2150 -86 0
-2655 2152 0
-2655 96 0
2655 -2152 -96 0
-2656 2154 0
-2656 91 0
2656 -2154 -91 0
-2657 2156 0
-2657 86 0
2657 -2156 -86 0
-2658 2158 0
-2658 144 0
2658 -2158 -144 0
-2659 2160 0
-2659 139 0
2659 -2160 -139 0
-2660 2162 0
-2660 134 0
2660 -2162 -134 0
-2661 2164 0
-2661 192 0
2661 -2164 -192 0
-2662 2166 0
-2662 192 0
2662 -2166 -192 0
-2663 2646 2647 0
-2663 -2646 -2647 0
2663 -2646 2647 0
2663 2646 -2647 0
-2664 2663 2648 0
-2664 -2663 -2648 0
2664 -2663 2648 0
2664 2663 -2648 0
-2665 2664 2649 0
-2665 -2664 -2649 0
2665 -2664 2649 0
2665 2664 -2649 0
-2666 2665 2650 0
-2666 -2665 -2650 0
2666 -2665 2650 0
2666 2665 -2650 0
-2667 2666 2651 0
-2667 -2666 -2651 0
2667 -2666 2651 0
2667 2666 -2651 0
-2668 2667 2652 0
-2668 -2667 -2652 0
2668 -2667 2652 0
2668 2667 -2652 0
-2669 2668 2653 0
-2669 -2668 -2653 0
2669 -2668 2653 0
2669 2668 -2653 0
-2670 2669 2654 0
-2670 -2669 -2654 0
2670 -2669 2654 0
2670 2669 -2654 0
-2671 2670 2655 0
-2671 -2670 -2655 0
2671 -2670 2655 0
2671 2670 -2655 0
-2672 2671 2656 0
-2672 -2671 -2656 0
2672 -2671 2656 0
2672 2671 -2656 0
-2673 2672 2657 0
-2673 -2672 -2657 0
2673 -2672 2657 0
2673 2672 -2657 0
-2674 2673 2658 0
-2674 -2673 -2658 0
2674 -2673 2658 0
2674 2673 -2658 0
-2675 2674 2659 0
-2675 -2674 -2659 0
2675 -2674 2659 0
2675 2674 -2659 0
-2676 2675 2660 0
-2676 -2675 -2660 0
2676 -2675 2660 0
2676 2675 -2660 0
-2677 2676 2661 0
-2677 -2676 -2661 0
2677 -2676 2661 0
2677 2676 -2661 0
-2678 2677 2662 0
-2678 -2677 -2662 0
2678 -2677 2662 0
2678 2677 -2662 0
-2678 0
-2679 1 0
-2679 24 0
2679 -1 -24 0
-2680 2679 0
-2680 33 0
2680 -2679 -33 0
-2681 2 0
-2681 19 0
2681 -2 -19 0
-2682 2681 0
-2682 33 0
2682 -2681 -33 0
-2683 2 0
-2683 26 0
2683 -2 -26 0
-2684 2683 0
-2684 33 0
2684 -2683 -33 0
-2685 17 0
-2685 14 0
2685 -17 -14 0
-2686 2685 0
-2686 33 0
2686 -2685 -33 0
-2687 21 0
-2687 9 0
2687 -21 -9 0
-2688 2687 0
-2688 33 0
2688 -2687 -33 0
-2689 21 0
-2689 7 0
2689 -21 -7 0
-2690 2689 0
-2690 33 0
2690 -2689 -33 0
-2691 49 0
-2691 72 0
2691 -49 -72 0
-2692 2691 0
-2692 81 0
2692 -2691 -81 0
-2693 50 0
-2693 67 0
2693 -50 -67 0
-2694 2693 0
-2694 81 0
2694 -2693 -81 0
-2695 50 0
-2695 74 0
2695 -50 -74 0
-2696 2695 0
-2696 81 0
2696 -2695 -81 0
-2697 65 0
-2697 62 0
2697 -65 -62 0
-2698 2697 0
-2698 81 0
2698 -2697 -81 0
-2699 69 0
-2699 57 0
2699 -69 -57 0
-2700 2699 0
-2700 81 0
2700 -2699 -81 0
-2701 69 0
-2701 55 0
2701 -69 -55 0
-2702 2701 0
-2702 81 0
2702 -2701 -81 0
-2703 97 0
-2703 120 0
2703 -97 -120 0
-2704 2703 0
-2704 129 0
2704 -2703 -129 0
-2705 98 0
-2705 115 0
2705 -98 -115 0
-2706 2705 0
-2706 129 0
2706 -2705 -129 0
-2707 98 0
-2707 122 0
2707 -98 -122 0
-2708 2707 0
-2708 129 0
2708 -2707 -129 0
-2709 145 0
-2709 168 0
2709 -145 -168 0
-2710 2709 0
-2710 177 0
2710 -2709 -177 0
-2711 161 0
-2711 158 0
2711 -161 -158 0
-2712 2711 0
-2712 177 0
2712 -2711 -177 0
-2713 2680 2682 0
-2713 -2680 -2682 0
2713 -2680 2682 0
2713 2680 -2682 0
-2714 2713 2684 0
-2714 -2713 -2684 0
2714 -2713 2684 0
2714 2713 -2684 0
-2715 2714 2686 0
-2715 -2714 -2686 0
2715 -2714 2686 0
2715 2714 -2686 0
-2716 2715 2688 0
-2716 -2715 -2688 0
2716 -2715 2688 0
2716 2715 -2688 0
-2717 2716 2690 0
-2717 -2716 -2690 0
2717 -2716 2690 0
2717 2716 -2690 0
-2718 2717 2692 0
-2718 -2717 -2692 0
2718 -2717 2692 0
2718 2717 -2692 0
-2719 2718 2694 0
-2719 -2718 -2694 0
2719 -2718 2694 0
2719 2718 -2694 0
-2720 2719 2696 0
-2720 -2719 -2696 0
2720 -2719 2696 0
2720 2719 -2696 0
-2721 2720 2698 0
-2721 -2720 -2698 0
2721 -2720 2698 0
2721 2720 -2698 0
-2722 2721 2700 0
-2722 -2721 -2700 0
2722 -2721 2700 0
2722 2721 -2700 0
-2723 2722 2702 0
-2723 -2722 -2702 0
2723 -2722 2702 0
2723 2722 -2702 0
-2724 2723 2704 0
-2724 -2723 -2704 0
2724 -2723 2704 0
2724 2723 -2704 0
-2725 2724 2706 0
-2725 -2724 -2706 0
2725 -2724 2706 0
2725 2724 -2706 0
-2726 2725 2708 0
-2726 -2725 -2708 0
2726 -2725 2708 0
2726 2725 -2708 0
-2727 2726 2710 0
-2727 -2726 -2710 0
2727 -2726 2710 0
2727 2726 -2710 0
-2728 2727 2712 0
-2728 -2727 -2712 0
2728 -2727 2712 0
2728 2727 -2712 0
-2728 0
-2729 2679 0
-2729 34 0
2729 -2679 -34 0
-2730 2681 0
-2730 34 0
2730 -2681 -34 0
-2731 2683 0
-2731 35 0
2731 -2683 -35 0
-2732 2685 0
-2732 37 0
2732 -2685 -37 0
-2733 2687 0
-2733 37 0
2733 -2687 -37 0
-2734 2689 0
-2734 41 0
2734 -2689 -41 0
-2735 2691 0
-2735 82 0
2735 -2691 -82 0
-2736 2693 0
-2736 82 0
2736 -2693 -82 0
-2737 2695 0
-2737 83 0
2737 -2695 -83 0
-2738 2697 0
-2738 85 0
2738 -2697 -85 0
-2739 2699 0
-2739 85 0
2739 -2699 -85 0
-2740 2701 0
-2740 89 0
2740 -2701 -89 0
-2741 2703 0
-2741 130 0
2741 -2703 -130 0
-2742 2705 0
-2742 130 0
2742 -2705 -130 0
-2743 2707 0
-2743 131 0
2743 -2707 -131 0
-2744 2709 0
-2744 178 0
2744 -2709 -178 0
-2745 2711 0
-2745 181 0
2745 -2711 -181 0
-2746 2729 2730 0
-2746 -2729 -2730 0
2746 -2729 2730 0
2746 2729 -2730 0
-2747 2746 2731 0
-2747 -2746 -2731 0
2747 -2746 2731 0
2747 2746 -2731 0
-2748 2747 2732 0
-2748 -2747 -2732 0
2748 -2747 2732 0
2748 2747 -2732 0
-2749 2748 2733 0
-2749 -2748 -2733 0
2749 -2748 2733 0
2749 2748 -2733 0
-2750 2749 2734 0
-2750 -2749 -2734 0
2750 -2749 2734 0
2750 2749 -2734 0
-2751 2750 2735 0
-2751 -2750 -2735 0
2751 -2750 2735 0
2751 2750 -2735 0
-2752 2751 2736 0
-2752 -2751 -2736 0
2752 -2751 2736 0
2752 2751 -2736 0
-2753 2752 2737 0
-2753 -2752 -2737 0
2753 -2752 2737 0
2753 2752 -2737 0
-2754 2753 2738 0
-2754 -2753 -2738 0
2754 -2753 2738 0
2754 2753 -2738 0
-2755 2754 2739 0
-2755 -2754 -2739 0
2755 -2754 2739 0
2755 2754 -2739 0
-2756 2755 2740 0
-2756 -2755 -2740 0
2756 -2755 2740 0
2756 2755 -2740 0
-2757 2756 2741 0
-2757 -2756 -2741 0
2757 -2756 2741 0
2757 2756 -2741 0
-2758 2757 2742 0
-2758 -2757 -2742 0
2758 -2757 2742 0
2758 2757 -2742 0
-2759 2758 2743 0
-2759 -2758 -2743 0
2759 -2758 2743 0
2759 2758 -2743 0
-2760 2759 2744 0
-2760 -2759 -2744 0
2760 -2759 2744 0
2760 2759 -2744 0
-2761 2760 2745 0
-2761 -2760 -2745 0
2761 -2760 2745 0
2761 2760 -2745 0
-2761 0
-2762 2679 0
-2762 35 0
2762 -2679 -35 0
-2763 2681 0
-2763 36 0
2763 -2681 -36 0
-2764 2683 0
-2764 36 0
2764 -2683 -36 0
-2765 2685 0
-2765 41 0
2765 -2685 -41 0
-2766 2687 0
-2766 45 0
2766 -2687 -45 0
-2767 2689 0
-2767 45 0
2767 -2689 -45 0
-2768 2691 0
-2768 83 0
2768 -2691 -83 0
-2769 2693 0
-2769 84 0
2769 -2693 -84 0
-2770 2695 0
-2770 84 0
2770 -2695 -84 0
-2771 2697 0
-2771 89 0
2771 -2697 -89 0
-2772 2699 0
-2772 93 0
2772 -2699 -93 0
-2773 2701 0
-2773 93 0
2773 -2701 -93 0
-2774 2703 0
-2774 131 0
2774 -2703 -131 0
-2775 2705 0
-2775 132 0
2775 -2705 -132 0
-2776 2707 0
-2776 132 0
2776 -2707 -132 0
-2777 2709 0
-2777 179 0
2777 -2709 -179 0
-2778 2711 0
-2778 185 0
2778 -2711 -185 0
-2779 2762 2763 0
-2779 -2762 -2763 0
2779 -2762 2763 0
2779 2762 -2763 0
-2780 2779 2764 0
-2780 -2779 -2764 0
2780 -2779 2764 0
2780 2779 -2764 0
-2781 2780 2765 0
-2781 -2780 -2765 0
2781 -2780 2765 0
2781 2780 -2765 0
-2782 2781 2766 0
-2782 -2781 -2766 0
2782 -2781 2766 0
2782 2781 -2766 0
-2783 2782 2767 0
-2783 -2782 -2767 0
2783 -2782 2767 0
2783 2782 -2767 0
-2784 2783 2768 0
-2784 -2783 -2768 0
2784 -2783 2768 0
2784 2783 -2768 0
-2785 2784 2769 0
-2785 -2784 -2769 0
2785 -2784 2769 0
2785 2784 -2769 0
-2786 2785 2770 0
-2786 -2785 -2770 0
2786 -2785 2770 0
2786 2785 -2770 0
-2787 2786 2771 0
-2787 -2786 -2771 0
2787 -2786 2771 0
2787 2786 -2771 0
-2788 2787 2772 0
-2788 -2787 -2772 0
2788 -2787 2772 0
2788 2787 -2772 0
-2789 2788 2773 0
-2789 -2788 -2773 0
2789 -2788 2773 0
2789 2788 -2773 0
-2790 2789 2774 0
-2790 -2789 -2774 0
2790 -2789 2774 0
2790 2789 -2774 0
-2791 2790 2775 0
-2791 -2790 -2775 0
2791 -2790 2775 0
2791 2790 -2775 0
-2792 2791 2776 0
-2792 -2791 -2776 0
2792 -2791 2776 0
2792 2791 -2776 0
-2793 2792 2777 0
-2793 -2792 -2777 0
2793 -2792 2777 0
2793 2792 -2777 0
-2794 2793 2778 0
-2794 -2793 -2778 0
2794 -2793 2778 0
2794 2793 -2778 0
2794 0
-2795 2679 0
-2795 36 0
2795 -2679 -36 0
-2796 2681 0
-2796 35 0
2796 -2681 -35 0
-2797 2683 0
-2797 34 0
2797 -2683 -34 0
-2798 2685 0
-2798 45 0
2798 -2685 -45 0
-2799 2687 0
-2799 41 0
2799 -2687 -41 0
-2800 2689 0
-2800 37 0
2800 -2689 -37 0
-2801 2691 0
-2801 84 0
2801 -2691 -84 0
-2802 2693 0
-2802 83 0
2802 -2693 -83 0
-2803 2695 0
-2803 82 0
2803 -2695 -82 0
-2804 2697 0
-2804 93 0
2804 -2697 -93 0
-2805 2699 0
-2805 89 0
2805 -2699 -89 0
-2806 2701 0
-2806 85 0
2806 -2701 -85 0
-2807 2703 0
-2807 132 0
2807 -2703 -132 0
-2808 2705 0
-2808 131 0
2808 -2705 -131 0
-2809 2707 0
-2809 130 0
2809 -2707 -130 0
-2810 2709 0
-2810 180 0
2810 -2709 -180 0
-2811 2711 0
-2811 189 0
2811 -2711 -189 0
-2812 2795 2796 0
-2812 -2795 -2796 0
2812 -2795 2796 0
2812 2795 -2796 0
-2813 2812 2797 0
-2813 -2812 -2797 0
2813 -2812 2797 0
2813 2812 -2797 0
-2814 2813 2798 0
-2814 -2813 -2798 0
2814 -2813 2798 0
2814 2813 -2798 0
-2815 2814 2799 0
-2815 -2814 -2799 0
2815 -2814 2799 0
2815 2814 -2799 0
-2816 2815 2800 0
-2816 -2815 -2800 0
2816 -2815 2800 0
2816 2815 -2800 0
-2817 2816 2801 0
-2817 -2816 -2801 0
2817 -2816 2801 0
2817 2816 -2801 0
-2818 2817 2802 0
-2818 -2817 -2802 0
2818 -2817 2802 0
2818 2817 -2802 0
-2819 2818 2803 0
-2819 -2818 -2803 0
2819 -2818 2803 0
2819 2818 -2803 0
-2820 2819 2804 0
-2820 -2819 -2804 0
2820 -2819 2804 0
2820 2819 -2804 0
-2821 2820 2805 0
-2821 -2820 -2805 0
2821 -2820 2805 0
2821 2820 -2805 0
-2822 2821 2806 0
-2822 -2821 -2806 0
2822 -2821 2806 0
2822 2821 -2806 0
-2823 2822 2807 0
-2823 -2822 -2807 0
2823 -2822 2807 0
2823 2822 -2807 0
-2824 2823 2808 0
-2824 -2823 -2808 0
2824 -2823 2808 0
2824 2823 -2808 0
-2825 2824 2809 0
-2825 -2824 -2809 0
2825 -2824 2809 0
2825 2824 -2809 0
-2826 2825 2810 0
-2826 -2825 -2810 0
2826 -2825 2810 0
2826 2825 -2810 0
-2827 2826 2811 0
-2827 -2826 -2811 0
2827 -2826 2811 0
2827 2826 -2811 0
-2827 0
-2828 2679 0
-2828 37 0
2828 -2679 -37 0
-2829 2681 0
-2829 37 0
2829 -2681 -37 0
-2830 2683 0
-2830 41 0
2830 -2683 -41 0
-2831 2685 0
-2831 34 0
2831 -2685 -34 0
-2832 2687 0
-2832 34 0
2832 -2687 -34 0
-2833 2689 0
-2833 35 0
2833 -2689 -35 0
-2834 2691 0
-2834 85 0
2834 -2691 -85 0
-2835 2693 0
-2835 85 0
2835 -2693 -85 0
-2836 2695 0
-2836 89 0
2836 -2695 -89 0
-2837 2697 0
-2837 82 0
2837 -2697 -82 0
-2838 2699 0
-2838 82 0
2838 -2699 -82 0
-2839 2701 0
-2839 83 0
2839 -2701 -83 0
-2840 2703 0
-2840 133 0
2840 -2703 -133 0
-2841 2705 0
-2841 133 0
2841 -2705 -133 0
-2842 2707 0
-2842 137 0
2842 -2707 -137 0
-2843 2709 0
-2843 181 0
2843 -2709 -181 0
-2844 2711 0
-2844 178 0
2844 -2711 -178 0
-2845 2828 2829 0
-2845 -2828 -2829 0
2845 -2828 2829 0
2845 2828 -2829 0
-2846 2845 2830 0
-2846 -2845 -2830 0
2846 -2845 2830 0
2846 2845 -2830 0
-2847 2846 2831 0
-2847 -2846 -2831 0
2847 -2846 2831 0
2847 2846 -2831 0
-2848 2847 2832 0
-2848 -2847 -2832 0
2848 -2847 2832 0
2848 2847 -2832 0
-2849 2848 2833 0
-2849 -2848 -2833 0
2849 -2848 2833 0
2849 2848 -2833 0
-2850 2849 2834 0
-2850 -2849 -2834 0
2850 -2849 2834 0
2850 2849 -2834 0
-2851 2850 2835 0
-2851 -2850 -2835 0
2851 -2850 2835 0
2851 2850 -2835 0
-2852 2851 2836 0
-2852 -2851 -2836 0
2852 -2851 2836 0
2852 2851 -2836 0
-2853 2852 2837 0
-2853 -2852 -2837 0
2853 -2852 2837 0
2853 2852 -2837 0
-2854 2853 2838 0
-2854 -2853 -2838 0
2854 -2853 2838 0
2854 2853 -2838 0
-2855 2854 2839 0
-2855 -2854 -2839 0
2855 -2854 2839 0
2855 2854 -2839 0
-2856 2855 2840 0
-2856 -2855 -2840 0
2856 -2855 2840 0
2856 2855 -2840 0
-2857 2856 2841 0
-2857 -2856 -2841 0
2857 -2856 2841 0
2857 2856 -2841 0
-2858 2857 2842 0
-2858 -2857 -2842 0
2858 -2857 2842 0
2858 2857 -2842 0
-2859 2858 2843 0
-2859 -2858 -2843 0
2859 -2858 2843 0
2859 2858 -2843 0
-2860 2859 2844 0
-2860 -2859 -2844 0
2860 -2859 2844 0
2860 2859 -2844 0
-2860 0
-2861 2679 0
-2861 38 0
2861 -2679 -38 0
-2862 2681 0
-2862 38 0
2862 -2681 -38 0
-2863 2683 0
-2863 43 0
2863 -2683 -43 0
-2864 2685 0
-2864 38 0
2864 -2685 -38 0
-2865 2687 0
-2865 38 0
2865 -2687 -38 0
-2866 2689 0
-2866 43 0
2866 -2689 -43 0
-2867 2691 0
-2867 86 0
2867 -2691 -86 0
-2868 2693 0
-2868 86 0
2868 -2693 -86 0
-2869 2695 0
-2869 91 0
2869 -2695 -91 0
-2870 2697 0
-2870 86 0
2870 -2697 -86 0
-2871 2699 0
-2871 86 0
2871 -2699 -86 0
-2872 2701 0
-2872 91 0
2872 -2701 -91 0
-2873 2703 0
-2873 134 0
2873 -2703 -134 0
-2874 2705 0
-2874 134 0
2874 -2705 -134 0
-2875 2707 0
-2875 139 0
2875 -2707 -139 0
-2876 2709 0
-2876 182 0
2876 -2709 -182 0
-2877 2711 0
-2877 182 0
2877 -2711 -182 0
-2878 2861 2862 0
-2878 -2861 -2862 0
2878 -2861 2862 0
2878 2861 -2862 0
-2879 2878 2863 0
-2879 -2878 -2863 0
2879 -2878 2863 0
2879 2878 -2863 0
-2880 2879 2864 0
-2880 -2879 -2864 0
2880 -2879 2864 0
2880 2879 -2864 0
-2881 2880 2865 0
-2881 -2880 -2865 0
2881 -2880 2865 0
2881 2880 -2865 0
-2882 2881 2866 0
-2882 -2881 -2866 0
2882 -2881 2866 0
2882 2881 -2866 0
-2883 2882 2867 0
-2883 -2882 -2867 0
2883 -2882 2867 0
2883 2882 -2867 0
-2884 2883 2868 0
-2884 -2883 -2868 0
2884 -2883 2868 0
2884 2883 -2868 0
-2885 2884 2869 0
-2885 -2884 -2869 0
2885 -2884 2869 0
2885 2884 -2869 0
-2886 2885 2870 0
-2886 -2885 -2870 0
2886 -2885 2870 0
2886 2885 -2870 0
-2887 2886 2871 0
-2887 -2886 -2871 0
2887 -2886 2871 0
2887 2886 -2871 0
-2888 2887 2872 0
-2888 -2887 -2872 0
2888 -2887 2872 0
2888 2887 -2872 0
-2889 2888 2873 0
-2889 -2888 -2873 0
2889 -2888 2873 0
2889 2888 -2873 0
-2890 2889 2874 0
-2890 -2889 -2874 0
2890 -2889 2874 0
2890 2889 -2874 0
-2891 2890 2875 0
-2891 -2890 -2875 0
2891 -2890 2875 0
2891 2890 -2875 0
-2892 2891 2876 0
-2892 -2891 -2876 0
2892 -2891 2876 0
2892 2891 -2876 0
-2893 2892 2877 0
-2893 -2892 -2877 0
2893 -2892 2877 0
2893 2892 -2877 0
-2893 0
-2894 2679 0
-2894 39 0
2894 -2679 -39 0
-2895 2681 0
-2895 40 0
2895 -2681 -40 0
-2896 2683 0
-2896 44 0
2896 -2683 -44 0
-2897 2685 0
-2897 42 0
2897 -2685 -42 0
-2898 2687 0
-2898 46 0
2898 -2687 -46 0
-2899 2689 0
-2899 47 0
2899 -2689 -47 0
-2900 2691 0
-2900 87 0
2900 -2691 -87 0
-2901 2693 0
-2901 88 0
2901 -2693 -88 0
-2902 2695 0
-2902 92 0
2902 -2695 -92 0
-2903 2697 0
-2903 90 0
2903 -2697 -90 0
-2904 2699 0
-2904 94 0
2904 -2699 -94 0
-2905 2701 0
-2905 95 0
2905 -2701 -95 0
-2906 2703 0
-2906 135 0
2906 -2703 -135 0
-2907 2705 0
-2907 136 0
2907 -2705 -136 0
-2908 2707 0
-2908 140 0
2908 -2707 -140 0
-2909 2709 0
-2909 183 0
2909 -2709 -183 0
-2910 2711 0
-2910 186 0
2910 -2711 -186 0
-2911 2894 2895 0
-2911 -2894 -2895 0
2911 -2894 2895 0
2911 2894 -2895 0
-2912 2911 2896 0
-2912 -2911 -2896 0
2912 -2911 2896 0
2912 2911 -2896 0
-2913 2912 2897 0
-2913 -2912 -2897 0
2913 -2912 2897 0
2913 2912 -2897 0
-2914 2913 2898 0
-2914 -2913 -2898 0
2914 -2913 2898 0
2914 2913 -2898 0
-2915 2914 2899 0
-2915 -2914 -2899 0
2915 -2914 2899 0
2915 2914 -2899 0
-2916 2915 2900 0
-2916 -2915 -2900 0
2916 -2915 2900 0
2916 2915 -2900 0
-2917 2916 2901 0
-2917 -2916 -2901 0
2917 -2916 2901 0
2917 2916 -2901 0
-2918 2917 2902 0
-2918 -2917 -2902 0
2918 -2917 2902 0
2918 2917 -2902 0
-2919 2918 2903 0
-2919 -2918 -2903 0
2919 -2918 2903 0
2919 2918 -2903 0
-2920 2919 2904 0
-2920 -2919 -2904 0
2920 -2919 2904 0
2920 2919 -2904 0
-2921 2920 2905 0
-2921 -2920 -2905 0
2921 -2920 2905 0
2921 2920 -2905 0
-2922 2921 2906 0
-2922 -2921 -2906 0
2922 -2921 2906 0
2922 2921 -2906 0
-2923 2922 2907 0
-2923 -2922 -2907 0
2923 -2922 2907 0
2923 2922 -2907 0
-2924 2923 2908 0
-2924 -2923 -2908 0
2924 -2923 2908 0
2924 2923 -2908 0
-2925 2924 2909 0
-2925 -2924 -2909 0
2925 -2924 2909 0
2925 2924 -2909 0
-2926 2925 2910 0
-2926 -2925 -2910 0
2926 -2925 2910 0
2926 2925 -2910 0
-2926 0
-2927 2679 0
-2927 40 0
2927 -2679 -40 0
-2928 2681 0
-2928 39 0
2928 -2681 -39 0
-2929 2683 0
-2929 42 0
2929 -2683 -42 0
-2930 2685 0
-2930 46 0
2930 -2685 -46 0
-2931 2687 0
-2931 42 0
2931 -2687 -42 0
-2932 2689 0
-2932 39 0
2932 -2689 -39 0
-2933 2691 0
-2933 88 0
2933 -2691 -88 0
-2934 2693 0
-2934 87 0
2934 -2693 -87 0
-2935 2695 0
-2935 90 0
2935 -2695 -90 0
-2936 2697 0
-2936 94 0
2936 -2697 -94 0
-2937 2699 0
-2937 90 0
2937 -2699 -90 0
-2938 2701 0
-2938 87 0
2938 -2701 -87 0
-2939 2703 0
-2939 136 0
2939 -2703 -136 0
-2940 2705 0
-2940 135 0
2940 -2705 -135 0
-2941 2707 0
-2941 138 0
2941 -2707 -138 0
-2942 2709 0
-2942 184 0
2942 -2709 -184 0
-2943 2711 0
-2943 190 0
2943 -2711 -190 0
-2944 2927 2928 0
-2944 -2927 -2928 0
2944 -2927 2928 0
2944 2927 -2928 0
-2945 2944 2929 0
-2945 -2944 -2929 0
2945 -2944 2929 0
2945 2944 -2929 0
-2946 2945 2930 0
-2946 -2945 -2930 0
2946 -2945 2930 0
2946 2945 -2930 0
-2947 2946 2931 0
-2947 -2946 -2931 0
2947 -2946 2931 0
2947 2946 -2931 0
-2948 2947 2932 0
-2948 -2947 -2932 0
2948 -2947 2932 0
2948 2947 -2932 0
-2949 2948 2933 0
-2949 -2948 -2933 0
2949 -2948 2933 0
2949 2948 -2933 0
-2950 2949 2934 0
-2950 -2949 -2934 0
2950 -2949 2934 0
2950 2949 -2934 0
-2951 2950 2935 0
-2951 -2950 -2935 0
2951 -2950 2935 0
2951 2950 -2935 0
-2952 2951 2936 0
-2952 -2951 -2936 0
2952 -2951 2936 0
2952 2951 -2936 0
-2953 2952 2937 0
-2953 -2952 -2937 0
2953 -2952 2937 0
2953 2952 -2937 0
-2954 2953 2938 0
-2954 -2953 -2938 0
2954 -2953 2938 0
2954 2953 -2938 0
-2955 2954 2939 0
-2955 -2954 -2939 0
2955 -2954 2939 0
2955 2954 -2939 0
-2956 2955 2940 0
-2956 -2955 -2940 0
2956 -2955 2940 0
2956 2955 -2940 0
-2957 2956 2941 0
-2957 -2956 -2941 0
2957 -2956 2941 0
2957 2956 -2941 0
-2958 2957 2942 0
-2958 -2957 -2942 0
2958 -2957 2942 0
2958 2957 -2942 0
-2959 2958 2943 0
-2959 -2958 -2943 0
2959 -2958 2943 0
2959 2958 -2943 0
-2959 0
-2960 2679 0
-2960 41 0
2960 -2679 -41 0
-2961 2681 0
-2961 45 0
2961 -2681 -45 0
-2962 2683 0
-2962 45 0
2962 -2683 -45 0
-2963 2685 0
-2963 35 0
2963 -2685 -35 0
-2964 2687 0
-2964 36 0
2964 -2687 -36 0
-2965 2689 0
-2965 36 0
2965 -2689 -36 0
-2966 2691 0
-2966 89 0
2966 -2691 -89 0
-2967 2693 0
-2967 93 0
2967 -2693 -93 0
-2968 2695 0
-2968 93 0
2968 -2695 -93 0
-2969 2697 0
-2969 83 0
2969 -2697 -83 0
-2970 2699 0
-2970 84 0
2970 -2699 -84 0
-2971 2701 0
-2971 84 0
2971 -2701 -84 0
-2972 2703 0
-2972 137 0
2972 -2703 -137 0
-2973 2705 0
-2973 141 0
2973 -2705 -141 0
-2974 2707 0
-2974 141 0
2974 -2707 -141 0
-2975 2709 0
-2975 185 0
2975 -2709 -185 0
-2976 2711 0
-2976 179 0
2976 -2711 -179 0
-2977 2960 2961 0
-2977 -2960 -2961 0
2977 -2960 2961 0
2977 2960 -2961 0
-2978 2977 2962 0
-2978 -2977 -2962 0
2978 -2977 2962 0
2978 2977 -2962 0
-2979 2978 2963 0
-2979 -2978 -2963 0
2979 -2978 2963 0
2979 2978 -2963 0
-2980 2979 2964 0
-2980 -2979 -2964 0
2980 -2979 2964 0
2980 2979 -2964 0
-2981 2980 2965 0
-2981 -2980 -2965 0
2981 -2980 2965 0
2981 2980 -2965 0
-2982 2981 2966 0
-2982 -2981 -2966 0
2982 -2981 2966 0
2982 2981 -2966 0
-2983 2982 2967 0
-2983 -2982 -2967 0
2983 -2982 2967 0
2983 2982 -2967 0
-2984 2983 2968 0
-2984 -2983 -2968 0
2984 -2983 2968 0
2984 2983 -2968 0
-2985 2984 2969 0
-2985 -2984 -2969 0
2985 -2984 2969 0
2985 2984 -2969 0
-2986 2985 2970 0
-2986 -2985 -2970 0
2986 -2985 2970 0
2986 2985 -2970 0
-2987 2986 2971 0
-2987 -2986 -2971 0
2987 -2986 2971 0
2987 2986 -2971 0
-2988 2987 2972 0
-2988 -2987 -2972 0
2988 -2987 2972 0
2988 2987 -2972 0
-2989 2988 2973 0
-2989 -2988 -2973 0
2989 -2988 2973 0
2989 2988 -2973 0
-2990 2989 2974 0
-2990 -2989 -2974 0
2990 -2989 2974 0
2990 2989 -2974 0
-2991 2990 2975 0
-2991 -2990 -2975 0
2991 -2990 2975 0
2991 2990 -2975 0
-2992 2991 2976 0
-2992 -2991 -2976 0
2992 -2991 2976 0
2992 2991 -2976 0
-2992 0
-2993 2679 0
-2993 42 0
2993 -2679 -42 0
-2994 2681 0
-2994 46 0
2994 -2681 -46 0
-2995 2683 0
-2995 47 0
2995 -2683 -47 0
-2996 2685 0
-2996 39 0
2996 -2685 -39 0
-2997 2687 0
-2997 40 0
2997 -2687 -40 0
-2998 2689 0
-2998 44 0
2998 -2689 -44 0
-2999 2691 0
-2999 90 0
2999 -2691 -90 0
-3000 2693 0
-3000 94 0
3000 -2693 -94 0
-3001 2695 0
-3001 95 0
3001 -2695 -95 0
-3002 2697 0
-3002 87 0
3002 -2697 -87 0
-3003 2699 0
-3003 88 0
3003 -2699 -88 0
-3004 2701 0
-3004 92 0
3004 -2701 -92 0
-3005 2703 0
-3005 138 0
3005 -2703 -138 0
-3006 2705 0
-3006 142 0
3006 -2705 -142 0
-3007 2707 0
-3007 143 0
3007 -2707 -143 0
-3008 2709 0
-3008 186 0
3008 -2709 -186 0
-3009 2711 0
-3009 183 0
3009 -2711 -183 0
-3010 2993 2994 0
-3010 -2993 -2994 0
3010 -2993 2994 0
3010 2993 -2994 0
-3011 3010 2995 0
-3011 -3010 -2995 0
3011 -3010 2995 0
3011 3010 -2995 0
-3012 3011 2996 0
-3012 -3011 -2996 0
3012 -3011 2996 0
3012 3011 -2996 0
-3013 3012 2997 0
-3013 -3012 -2997 0
3013 -3012 2997 0
3013 3012 -2997 0
-3014 3013 2998 0
-3014 -3013 -2998 0
3014 -3013 2998 0
3014 3013 -2998 0
-3015 3014 2999 0
-3015 -3014 -2999 0
3015 -3014 2999 0
3015 3014 -2999 0
-3016 3015 3000 0
-3016 -3015 -3000 0
3016 -3015 3000 0
3016 3015 -3000 0
-3017 3016 3001 0
-3017 -3016 -3001 0
3017 -3016 3001 0
3017 3016 -3001 0
-3018 3017 3002 0
-3018 -3017 -3002 0
3018 -3017 3002 0
3018 3017 -3002 0
-3019 3018 3003 0
-3019 -3018 -3003 0
3019 -3018 3003 0
3019 3018 -3003 0
-3020 3019 3004 0
-3020 -3019 -3004 0
3020 -3019 3004 0
3020 3019 -3004 0
-3021 3020 3005 0
-3021 -3020 -3005 0
3021 -3020 3005 0
3021 3020 -3005 0
-3022 3021 3006 0
-3022 -3021 -3006 0
3022 -3021 3006 0
3022 3021 -3006 0
-3023 3022 3007 0
-3023 -3022 -3007 0
3023 -3022 3007 0
3023 3022 -3007 0
-3024 3023 3008 0
-3024 -3023 -3008 0
3024 -3023 3008 0
3024 3023 -3008 0
-3025 3024 3009 0
-3025 -3024 -3009 0
3025 -3024 3009 0
3025 3024 -3009 0
-3025 0
-3026 2679 0
-3026 43 0
3026 -2679 -43 0
-3027 2681 0
-3027 48 0
3027 -2681 -48 0
-3028 2683 0
-3028 48 0
3028 -2683 -48 0
-3029 2685 0
-3029 43 0
3029 -2685 -43 0
-3030 2687 0
-3030 48 0
3030 -2687 -48 0
-3031 2689 0
-3031 48 0
3031 -2689 -48 0
-3032 2691 0
-3032 91 0
3032 -2691 -91 0
-3033 2693 0
-3033 96 0
3033 -2693 -96 0
-3034 2695 0
-3034 96 0
3034 -2695 -96 0
-3035 2697 0
-3035 91 0
3035 -2697 -91 0
-3036 2699 0
-3036 96 0
3036 -2699 -96 0
-3037 2701 0
-3037 96 0
3037 -2701 -96 0
-3038 2703 0
-3038 139 0
3038 -2703 -139 0
-3039 2705 0
-3039 144 0
3039 -2705 -144 0
-3040 2707 0
-3040 144 0
3040 -2707 -144 0
-3041 2709 0
-3041 187 0
3041 -2709 -187 0
-3042 2711 0
-3042 187 0
3042 -2711 -187 0
-3043 3026 3027 0
-3043 -3026 -3027 0
3043 -3026 3027 0
3043 3026 -3027 0
-3044 3043 3028 0
-3044 -3043 -3028 0
3044 -3043 3028 0
3044 3043 -3028 0
-3045 3044 3029 0
-3045 -3044 -3029 0
3045 -3044 3029 0
3045 3044 -3029 0
-3046 3045 3030 0
-3046 -3045 -3030 0
3046 -3045 3030 0
3046 3045 -3030 0
-3047 3046 3031 0
-3047 -3046 -3031 0
3047 -3046 3031 0
3047 3046 -3031 0
-3048 3047 3032 0
-3048 -3047 -3032 0
3048 -3047 3032 0
3048 3047 -3032 0
-3049 3048 3033 0
-3049 -3048 -3033 0
3049 -3048 3033 0
3049 3048 -3033 0
-3050 3049 3034 0
-3050 -3049 -3034 0
3050 -3049 3034 0
3050 3049 -3034 0
-3051 3050 3035 0
-3051 -3050 -3035 0
3051 -3050 3035 0
3051 3050 -3035 0
-3052 3051 3036 0
-3052 -3051 -3036 0
3052 -3051 3036 0
3052 3051 -3036 0
-3053 3052 3037 0
-3053 -3052 -3037 0
3053 -3052 3037 0
3053 3052 -3037 0
-3054 3053 3038 0
-3054 -3053 -3038 0
3054 -3053 3038 0
3054 3053 -3038 0
-3055 3054 3039 0
-3055 -3054 -3039 0
3055 -3054 3039 0
3055 3054 -3039 0
-3056 3055 3040 0
-3056 -3055 -3040 0
3056 -3055 3040 0
3056 3055 -3040 0
-3057 3056 3041 0
-3057 -3056 -3041 0
3057 -3056 3041 0
3057 3056 -3041 0
-3058 3057 3042 0
-3058 -3057 -3042 0
3058 -3057 3042 0
3058 3057 -3042 0
-3058 0
-3059 2679 0
-3059 44 0
3059 -2679 -44 0
-3060 2681 0
-3060 47 0
3060 -2681 -47 0
-3061 2683 0
-3061 46 0
3061 -2683 -46 0
-3062 2685 0
-3062 47 0
3062 -2685 -47 0
-3063 2687 0
-3063 44 0
3063 -2687 -44 0
-3064 2689 0
-3064 40 0
3064 -2689 -40 0
-3065 2691 0
-3065 92 0
3065 -2691 -92 0
-3066 2693 0
-3066 95 0
3066 -2693 -95 0
-3067 2695 0
-3067 94 0
3067 -2695 -94 0
-3068 2697 0
-3068 95 0
3068 -2697 -95 0
-3069 2699 0
-3069 92 0
3069 -2699 -92 0
-3070 2701 0
-3070 88 0
3070 -2701 -88 0
-3071 2703 0
-3071 140 0
3071 -2703 -140 0
-3072 2705 0
-3072 143 0
3072 -2705 -143 0
-3073 2707 0
-3073 142 0
3073 -2707 -142 0
-3074 2709 0
-3074 188 0
3074 -2709 -188 0
-3075 2711 0
-3075 191 0
3075 -2711 -191 0
-3076 3059 3060 0
-3076 -3059 -3060 0
3076 -3059 3060 0
3076 3059 -3060 0
-3077 3076 3061 0
-3077 -3076 -3061 0
3077 -3076 3061 0
3077 3076 -3061 0
-3078 3077 3062 0
-3078 -3077 -3062 0
3078 -3077 3062 0
3078 3077 -3062 0
-3079 3078 3063 0
-3079 -3078 -3063 0
3079 -3078 3063 0
3079 3078 -3063 0
-3080 3079 3064 0
-3080 -3079 -3064 0
3080 -3079 3064 0
3080 3079 -3064 0
-3081 3080 3065 0
-3081 -3080 -3065 0
3081 -3080 3065 0
3081 3080 -3065 0
-3082 3081 3066 0
-3082 -3081 -3066 0
3082 -3081 3066 0
3082 3081 -3066 0
-3083 3082 3067 0
-3083 -3082 -3067 0
3083 -3082 3067 0
3083 3082 -3067 0
-3084 3083 3068 0
-3084 -3083 -3068 0
3084 -3083 3068 0
3084 3083 -3068 0
-3085 3084 3069 0
-3085 -3084 -3069 0
3085 -3084 3069 0
3085 3084 -3069 0
-3086 3085 3070 0
-3086 -3085 -3070 0
3086 -3085 3070 0
3086 3085 -3070 0
-3087 3086 3071 0
-3087 -3086 -3071 0
3087 -3086 3071 0
3087 3086 -3071 0
-3088 3087 3072 0
-3088 -3087 -3072 0
3088 -3087 3072 0
3088 3087 -3072 0
-3089 3088 3073 0
-3089 -3088 -3073 0
3089 -3088 3073 0
3089 3088 -3073 0
-3090 3089 3074 0
-3090 -3089 -3074 0
3090 -3089 3074 0
3090 3089 -3074 0
-3091 3090 3075 0
-3091 -3090 -3075 0
3091 -3090 3075 0
3091 3090 -3075 0
-3091 0
-3092 2679 0
-3092 45 0
3092 -2679 -45 0
-3093 2681 0
-3093 41 0
3093 -2681 -41 0
-3094 2683 0
-3094 37 0
3094 -2683 -37 0
-3095 2685 0
-3095 36 0
3095 -2685 -36 0
-3096 2687 0
-3096 35 0
3096 -2687 -35 0
-3097 2689 0
-3097 34 0
3097 -2689 -34 0
-3098 2691 0
-3098 93 0
3098 -2691 -93 0
-3099 2693 0
-3099 89 0
3099 -2693 -89 0
-3100 2695 0
-3100 85 0
3100 -2695 -85 0
-3101 2697 0
-3101 84 0
3101 -2697 -84 0
-3102 2699 0
-3102 83 0
3102 -2699 -83 0
-3103 2701 0
-3103 82 0
3103 -2701 -82 0
-3104 2703 0
-3104 141 0
3104 -2703 -141 0
-3105 2705 0
-3105 137 0
3105 -2705 -137 0
-3106 2707 0
-3106 133 0
3106 -2707 -133 0
-3107 2709 0
-3107 189 0
3107 -2709 -189 0
-3108 2711 0
-3108 180 0
3108 -2711 -180 0
-3109 3092 3093 0
-3109 -3092 -3093 0
3109 -3092 3093 0
3109 3092 -3093 0
-3110 3109 3094 0
-3110 -3109 -3094 0
3110 -3109 3094 0
3110 3109 -3094 0
-3111 3110 3095 0
-3111 -3110 -3095 0
3111 -3110 3095 0
3111 3110 -3095 0
-3112 3111 3096 0
-3112 -3111 -3096 0
3112 -3111 3096 0
3112 3111 -3096 0
-3113 3112 3097 0
-3113 -3112 -3097 0
3113 -3112 3097 0
3113 3112 -3097 0
-3114 3113 3098 0
-3114 -3113 -3098 0
3114 -3113 3098 0
3114 3113 -3098 0
-3115 3114 3099 0
-3115 -3114 -3099 0
3115 -3114 3099 0
3115 3114 -3099 0
-3116 3115 3100 0
-3116 -3115 -3100 0
3116 -3115 3100 0
3116 3115 -3100 0
-3117 3116 3101 0
-3117 -3116 -3101 0
3117 -3116 3101 0
3117 3116 -3101 0
-3118 3117 3102 0
-3118 -3117 -3102 0
3118 -3117 3102 0
3118 3117 -3102 0
-3119 3118 3103 0
-3119 -3118 -3103 0
3119 -3118 3103 0
3119 3118 -3103 0
-3120 3119 3104 0
-3120 -3119 -3104 0
3120 -3119 3104 0
3120 3119 -3104 0
-3121 3120 3105 0
-3121 -3120 -3105 0
3121 -3120 3105 0
3121 3120 -3105 0
-3122 3121 3106 0
-3122 -3121 -3106 0
3122 -3121 3106 0
3122 3121 -3106 0
-3123 3122 3107 0
-3123 -3122 -3107 0
3123 -3122 3107 0
3123 3122 -3107 0
-3124 3123 3108 0
-3124 -3123 -3108 0
3124 -3123 3108 0
3124 3123 -3108 0
3124 0
-3125 2679 0
-3125 46 0
3125 -2679 -46 0
-3126 2681 0
-3126 42 0
3126 -2681 -42 0
-3127 2683 0
-3127 39 0
3127 -2683 -39 0
-3128 2685 0
-3128 40 0
3128 -2685 -40 0
-3129 2687 0
-3129 39 0
3129 -2687 -39 0
-3130 2689 0
-3130 42 0
3130 -2689 -42 0
-3131 2691 0
-3131 94 0
3131 -2691 -94 0
-3132 2693 0
-3132 90 0
3132 -2693 -90 0
-3133 2695 0
-3133 87 0
3133 -2695 -87 0
-3134 2697 0
-3134 88 0
3134 -2697 -88 0
-3135 2699 0
-3135 87 0
3135 -2699 -87 0
-3136 2701 0
-3136 90 0
3136 -2701 -90 0
-3137 2703 0
-3137 142 0
3137 -2703 -142 0
-3138 2705 0
-3138 138 0
3138 -2705 -138 0
-3139 2707 0
-3139 135 0
3139 -2707 -135 0
-3140 2709 0
-3140 190 0
3140 -2709 -190 0
-3141 2711 0
-3141 184 0
3141 -2711 -184 0
-3142 3125 3126 0
-3142 -3125 -3126 0
3142 -3125 3126 0
3142 3125 -3126 0
-3143 3142 3127 0
-3143 -3142 -3127 0
3143 -3142 3127 0
3143 3142 -3127 0
-3144 3143 3128 0
-3144 -3143 -3128 0
3144 -3143 3128 0
3144 3143 -3128 0
-3145 3144 3129 0
-3145 -3144 -3129 0
3145 -3144 3129 0
3145 3144 -3129 0
-3146 3145 3130 0
-3146 -3145 -3130 0
3146 -3145 3130 0
3146 3145 -3130 0
-3147 3146 3131 0
-3147 -3146 -3131 0
3147 -3146 3131 0
3147 3146 -3131 0
-3148 3147 3132 0
-3148 -3147 -3132 0
3148 -3147 3132 0
3148 3147 -3132 0
-3149 3148 3133 0
-3149 -3148 -3133 0
3149 -3148 3133 0
3149 3148 -3133 0
-3150 3149 3134 0
-3150 -3149 -3134 0
3150 -3149 3134 0
3150 3149 -3134 0
-3151 3150 3135 0
-3151 -3150 -3135 0
3151 -3150 3135 0
3151 3150 -3135 0
-3152 3151 3136 0
-3152 -3151 -3136 0
3152 -3151 3136 0
3152 3151 -3136 0
-3153 3152 3137 0
-3153 -3152 -3137 0
3153 -3152 3137 0
3153 3152 -3137 0
-3154 3153 3138 0
-3154 -3153 -3138 0
3154 -3153 3138 0
3154 3153 -3138 0
-3155 3154 3139 0
-3155 -3154 -3139 0
3155 -3154 3139 0
3155 3154 -3139 0
-3156 3155 3140 0
-3156 -3155 -3140 0
3156 -3155 3140 0
3156 3155 -3140 0
-3157 3156 3141 0
-3157 -3156 -3141 0
3157 -3156 3141 0
3157 3156 -3141 0
-3157 0
-3158 2679 0
-3158 47 0
3158 -2679 -47 0
-3159 2681 0
-3159 44 0
3159 -2681 -44 0
-3160 2683 0
-3160 40 0
3160 -2683 -40 0
-3161 2685 0
-3161 44 0
3161 -2685 -44 0
-3162 2687 0
-3162 47 0
3162 -2687 -47 0
-3163 2689 0
-3163 46 0
3163 -2689 -46 0
-3164 2691 0
-3164 95 0
3164 -2691 -95 0
-3165 2693 0
-3165 92 0
3165 -2693 -92 0
-3166 2695 0
-3166 88 0
3166 -2695 -88 0
-3167 2697 0
-3167 92 0
3167 -2697 -92 0
-3168 2699 0
-3168 95 0
3168 -2699 -95 0
-3169 2701 0
-3169 94 0
3169 -2701 -94 0
-3170 2703 0
-3170 143 0
3170 -2703 -143 0
-3171 2705 0
-3171 140 0
3171 -2705 -140 0
-3172 2707 0
-3172 136 0
3172 -2707 -136 0
-3173 2709 0
-3173 191 0
3173 -2709 -191 0
-3174 2711 0
-3174 188 0
3174 -2711 -188 0
-3175 3158 3159 0
-3175 -3158 -3159 0
3175 -3158 3159 0
3175 3158 -3159 0
-3176 3175 3160 0
-3176 -3175 -3160 0
3176 -3175 3160 0
3176 3175 -3160 0
-3177 3176 3161 0
-3177 -3176 -3161 0
3177 -3176 3161 0
3177 3176 -3161 0
-3178 3177 3162 0
-3178 -3177 -3162 0
3178 -3177 3162 0
3178 3177 -3162 0
-3179 3178 3163 0
-3179 -3178 -3163 0
3179 -3178 3163 0
3179 3178 -3163 0
-3180 3179 3164 0
-3180 -3179 -3164 0
3180 -3179 3164 0
3180 3179 -3164 0
-3181 3180 3165 0
-3181 -3180 -3165 0
3181 -3180 3165 0
3181 3180 -3165 0
-3182 3181 3166 0
-3182 -3181 -3166 0
3182 -3181 3166 0
3182 3181 -3166 0
-3183 3182 3167 0
-3183 -3182 -3167 0
3183 -3182 3167 0
3183 3182 -3167 0
-3184 3183 3168 0
-3184 -3183 -3168 0
3184 -3183 3168 0
3184 3183 -3168 0
-3185 3184 3169 0
-3185 -3184 -3169 0
3185 -3184 3169 0
3185 3184 -3169 0
-3186 3185 3170 0
-3186 -3185 -3170 0
3186 -3185 3170 0
3186 3185 -3170 0
-3187 3186 3171 0
-3187 -3186 -3171 0
3187 -3186 3171 0
3187 3186 -3171 0
-3188 3187 3172 0
-3188 -3187 -3172 0
3188 -3187 3172 0
3188 3187 -3172 0
-3189 3188 3173 0
-3189 -3188 -3173 0
3189 -3188 3173 0
3189 3188 -3173 0
-3190 3189 3174 0
-3190 -3189 -3174 0
3190 -3189 3174 0
3190 3189 -3174 0
-3190 0
-3191 2679 0
-3191 48 0
3191 -2679 -48 0
-3192 2681 0
-3192 43 0
3192 -2681 -43 0
-3193 2683 0
-3193 38 0
3193 -2683 -38 0
-3194 2685 0
-3194 48 0
3194 -2685 -48 0
-3195 2687 0
-3195 43 0
3195 -2687 -43 0
-3196 2689 0
-3196 38 0
3196 -2689 -38 0
-3197 2691 0
-3197 96 0
3197 -2691 -96 0
-3198 2693 0
-3198 91 0
3198 -2693 -91 0
-3199 2695 0
-3199 86 0
3199 -2695 -86 0
-3200 2697 0
-3200 96 0
3200 -2697 -96 0
-3201 2699 0
-3201 91 0
3201 -2699 -91 0
-3202 2701 0
-3202 86 0
3202 -2701 -86 0
-3203 2703 0
-3203 144 0
3203 -2703 -144 0
-3204 2705 0
-3204 139 0
3204 -2705 -139 0
-3205 2707 0
-3205 134 0
3205 -2707 -134 0
-3206 2709 0
-3206 192 0
3206 -2709 -192 0
-3207 2711 0
-3207 192 0
3207 -2711 -192 0
-3208 3191 3192 0
-3208 -3191 -3192 0
3208 -3191 3192 0
3208 3191 -3192 0
-3209 3208 3193 0
-3209 -3208 -3193 0
3209 -3208 3193 0
3209 3208 -3193 0
-3210 3209 3194 0
-3210 -3209 -3194 0
3210 -3209 3194 0
3210 3209 -3194 0
-3211 3210 3195 0
-3211 -3210 -3195 0
3211 -3210 3195 0
3211 3210 -3195 0
-3212 3211 3196 0
-3212 -3211 -3196 0
3212 -3211 3196 0
3212 3211 -3196 0
-3213 3212 3197 0
-3213 -3212 -3197 0
3213 -3212 3197 0
3213 3212 -3197 0
-3214 3213 3198 0
-3214 -3213 -3198 0
3214 -3213 3198 0
3214 3213 -3198 0
-3215 3214 3199 0
-3215 -3214 -3199 0
3215 -3214 3199 0
3215 3214 -3199 0
-3216 3215 3200 0
-3216 -3215 -3200 0
3216 -3215 3200 0
3216 3215 -3200 0
-3217 3216 3201 0
-3217 -3216 -3201 0
3217 -3216 3201 0
3217 3216 -3201 0
-3218 3217 3202 0
-3218 -3217 -3202 0
3218 -3217 3202 0
3218 3217 -3202 0
-3219 3218 3203 0
-3219 -3218 -3203 0
3219 -3218 3203 0
3219 3218 -3203 0
-3220 3219 3204 0
-3220 -3219 -3204 0
3220 -3219 3204 0
3220 3219 -3204 0
-3221 3220 3205 0
-3221 -3220 -3205 0
3221 -3220 3205 0
3221 3220 -3205 0
-3222 3221 3206 0
-3222 -3221 -3206 0
3222 -3221 3206 0
3222 3221 -3206 0
-3223 3222 3207 0
-3223 -3222 -3207 0
3223 -3222 3207 0
3223 3222 -3207 0
-3223 0
-3224 1 0
-3224 29 0
3224 -1 -29 0
-3225 3224 0
-3225 33 0
3225 -3224 -33 0
-3226 2 0
-3226 29 0
3226 -2 -29 0
-3227 3226 0
-3227 33 0
3227 -3226 -33 0
-3228 17 0
-3228 4 0
3228 -17 -4 0
-3229 3228 0
-3229 33 0
3229 -3228 -33 0
-3230 21 0
-3230 4 0
3230 -21 -4 0
-3231 3230 0
-3231 33 0
3231 -3230 -33 0
-3232 49 0
-3232 77 0
3232 -49 -77 0
-3233 3232 0
-3233 81 0
3233 -3232 -81 0
-3234 50 0
-3234 77 0
3234 -50 -77 0
-3235 3234 0
-3235 81 0
3235 -3234 -81 0
-3236 65 0
-3236 52 0
3236 -65 -52 0
-3237 3236 0
-3237 81 0
3237 -3236 -81 0
-3238 69 0
-3238 52 0
3238 -69 -52 0
-3239 3238 0
-3239 81 0
3239 -3238 -81 0
-3240 97 0
-3240 125 0
3240 -97 -125 0
-3241 3240 0
-3241 129 0
3241 -3240 -129 0
-3242 98 0
-3242 125 0
3242 -98 -125 0
-3243 3242 0
-3243 129 0
3243 -3242 -129 0
-3244 145 0
-3244 173 0
3244 -145 -173 0
-3245 3244 0
-3245 177 0
3245 -3244 -177 0
-3246 161 0
-3246 148 0
3246 -161 -148 0
-3247 3246 0
-3247 177 0
3247 -3246 -177 0
-3248 3225 3227 0
-3248 -3225 -3227 0
3248 -3225 3227 0
3248 3225 -3227 0
-3249 3248 3227 0
-3249 -3248 -3227 0
3249 -3248 3227 0
3249 3248 -3227 0
-3250 3249 3229 0
-3250 -3249 -3229 0
3250 -3249 3229 0
3250 3249 -3229 0
-3251 3250 3231 0
-3251 -3250 -3231 0
3251 -3250 3231 0
3251 3250 -3231 0
-3252 3251 3231 0
-3252 -3251 -3231 0
3252 -3251 3231 0
3252 3251 -3231 0
-3253 3252 3233 0
-3253 -3252 -3233 0
3253 -3252 3233 0
3253 3252 -3233 0
-3254 3253 3235 0
-3254 -3253 -3235 0
3254 -3253 3235 0
3254 3253 -3235 0
-3255 3254 3235 0
-3255 -3254 -3235 0
3255 -3254 3235 0
3255 3254 -3235 0
-3256 3255 3237 0
-3256 -3255 -3237 0
3256 -3255 3237 0
3256 3255 -3237 0
-3257 3256 3239 0
-3257 -3256 -3239 0
3257 -3256 3239 0
3257 3256 -3239 0
-3258 3257 3239 0
-3258 -3257 -3239 0
3258 -3257 3239 0
3258 3257 -3239 0
-3259 3258 3241 0
-3259 -3258 -3241 0
3259 -3258 3241 0
3259 3258 -3241 0
-3260 3259 3243 0
-3260 -3259 -3243 0
3260 -3259 3243 0
3260 3259 -3243 0
-3261 3260 3243 0
-3261 -3260 -3243 0
3261 -3260 3243 0
3261 3260 -3243 0
-3262 3261 3245 0
-3262 -3261 -3245 0
3262 -3261 3245 0
3262 3261 -3245 0
-3263 3262 3247 0
-3263 -3262 -3247 0
3263 -3262 3247 0
3263 3262 -3247 0
-3263 0
-3264 3224 0
-3264 34 0
3264 -3224 -34 0
-3265 3226 0
-3265 34 0
3265 -3226 -34 0
-3266 3226 0
-3266 35 0
3266 -3226 -35 0
-3267 3228 0
-3267 37 0
3267 -3228 -37 0
-3268 3230 0
-3268 37 0
3268 -3230 -37 0
-3269 3230 0
-3269 41 0
3269 -3230 -41 0
-3270 3232 0
-3270 82 0
3270 -3232 -82 0
-3271 3234 0
-3271 82 0
3271 -3234 -82 0
-3272 3234 0
-3272 83 0
3272 -3234 -83 0
-3273 3236 0
-3273 85 0
3273 -3236 -85 0
-3274 3238 0
-3274 85 0
3274 -3238 -85 0
-3275 3238 0
-3275 89 0
3275 -3238 -89 0
-3276 3240 0
-3276 130 0
3276 -3240 -130 0
-3277 3242 0
-3277 130 0
3277 -3242 -130 0
-3278 3242 0
-3278 131 0
3278 -3242 -131 0
-3279 3244 0
-3279 178 0
3279 -3244 -178 0
-3280 3246 0
-3280 181 0
3280 -3246 -181 0
-3281 3264 3265 0
-3281 -3264 -3265 0
3281 -3264 3265 0
3281 3264 -3265 0
-3282 3281 3266 0
-3282 -3281 -3266 0
3282 -3281 3266 0
3282 3281 -3266 0
-3283 3282 3267 0
-3283 -3282 -3267 0
3283 -3282 3267 0
3283 3282 -3267 0
-3284 3283 3268 0
-3284 -3283 -3268 0
3284 -3283 3268 0
3284 3283 -3268 0
-3285 3284 3269 0
-3285 -3284 -3269 0
3285 -3284 3269 0
3285 3284 -3269 0
-3286 3285 3270 0
-3286 -3285 -3270 0
3286 -3285 3270 0
3286 3285 -3270 0
-3287 3286 3271 0
-3287 -3286 -3271 0
3287 -3286 3271 0
3287 3286 -3271 0
-3288 3287 3272 0
-3288 -3287 -3272 0
3288 -3287 3272 0
3288 3287 -3272 0
-3289 3288 3273 0
-3289 -3288 -3273 0
3289 -3288 3273 0
3289 3288 -3273 0
-3290 3289 3274 0
-3290 -3289 -3274 0
3290 -3289 3274 0
3290 3289 -3274 0
-3291 3290 3275 0
-3291 -3290 -3275 0
3291 -3290 3275 0
3291 3290 -3275 0
-3292 3291 3276 0
-3292 -3291 -3276 0
3292 -3291 3276 0
3292 3291 -3276 0
-3293 3292 3277 0
-3293 -3292 -3277 0
3293 -3292 3277 0
3293 3292 -3277 0
-3294 3293 3278 0
-3294 -3293 -3278 0
3294 -3293 3278 0
3294 3293 -3278 0
-3295 3294 3279 0
-3295 -3294 -3279 0
3295 -3294 3279 0
3295 3294 -3279 0
-3296 3295 3280 0
-3296 -3295 -3280 0
3296 -3295 3280 0
3296 3295 -3280 0
-3296 0
-3297 3224 0
-3297 35 0
3297 -3224 -35 0
-3298 3226 0
-3298 36 0
3298 -3226 -36 0
-3299 3228 0
-3299 41 0
3299 -3228 -41 0
-3300 3230 0
-3300 45 0
3300 -3230 -45 0
-3301 3232 0
-3301 83 0
3301 -3232 -83 0
-3302 3234 0
-3302 84 0
3302 -3234 -84 0
-3303 3236 0
-3303 89 0
3303 -3236 -89 0
-3304 3238 0
-3304 93 0
3304 -3238 -93 0
-3305 3240 0
-3305 131 0
3305 -3240 -131 0
-3306 3242 0
-3306 132 0
3306 -3242 -132 0
-3307 3244 0
-3307 179 0
3307 -3244 -179 0
-3308 3246 0
-3308 185 0
3308 -3246 -185 0
-3309 3297 3298 0
-3309 -3297 -3298 0
3309 -3297 3298 0
3309 3297 -3298 0
-3310 3309 3298 0
-3310 -3309 -3298 0
3310 -3309 3298 0
3310 3309 -3298 0
-3311 3310 3299 0
-3311 -3310 -3299 0
3311 -3310 3299 0
3311 3310 -3299 0
-3312 3311 3300 0
-3312 -3311 -3300 0
3312 -3311 3300 0
3312 3311 -3300 0
-3313 3312 3300 0
-3313 -3312 -3300 0
3313 -3312 3300 0
3313 3312 -3300 0
-3314 3313 3301 0
-3314 -3313 -3301 0
3314 -3313 3301 0
3314 3313 -3301 0
-3315 3314 3302 0
-3315 -3314 -3302 0
3315 -3314 3302 0
3315 3314 -3302 0
-3316 3315 3302 0
-3316 -3315 -3302 0
3316 -3315 3302 0
3316 3315 -3302 0
-3317 3316 3303 0
-3317 -3316 -3303 0
3317 -3316 3303 0
3317 3316 -3303 0
-3318 3317 3304 0
-3318 -3317 -3304 0
3318 -3317 3304 0
3318 3317 -3304 0
-3319 3318 3304 0
-3319 -3318 -3304 0
3319 -3318 3304 0
3319 3318 -3304 0
-3320 3319 3305 0
-3320 -3319 -3305 0
3320 -3319 3305 0
3320 3319 -3305 0
-3321 3320 3306 0
-3321 -3320 -3306 0
3321 -3320 3306 0
3321 3320 -3306 0
-3322 3321 3306 0
-3322 -3321 -3306 0
3322 -3321 3306 0
3322 3321 -3306 0
-3323 3322 3307 0
-3323 -3322 -3307 0
3323 -3322 3307 0
3323 3322 -3307 0
-3324 3323 3308 0
-3324 -3323 -3308 0
3324 -3323 3308 0
3324 3323 -3308 0
-3324 0
-3325 3224 0
-3325 37 0
3325 -3224 -37 0
-3326 3226 0
-3326 37 0
3326 -3226 -37 0
-3327 3226 0
-3327 41 0
3327 -3226 -41 0
-3328 3228 0
-3328 34 0
3328 -3228 -34 0
-3329 3230 0
-3329 34 0
3329 -3230 -34 0
-3330 3230 0
-3330 35 0
3330 -3230 -35 0
-3331 3232 0
-3331 85 0
3331 -3232 -85 0
-3332 3234 0
-3332 85 0
3332 -3234 -85 0
-3333 3234 0
-3333 89 0
3333 -3234 -89 0
-3334 3236 0
-3334 82 0
3334 -3236 -82 0
-3335 3238 0
-3335 82 0
3335 -3238 -82 0
-3336 3238 0
-3336 83 0
3336 -3238 -83 0
-3337 3240 0
-3337 133 0
3337 -3240 -133 0
-3338 3242 0
-3338 133 0
3338 -3242 -133 0
-3339 3242 0
-3339 137 0
3339 -3242 -137 0
-3340 3244 0
-3340 181 0
3340 -3244 -181 0
-3341 3246 0
-3341 178 0
3341 -3246 -178 0
-3342 3325 3326 0
-3342 -3325 -3326 0
3342 -3325 3326 0
3342 3325 -3326 0
-3343 3342 3327 0
-3343 -3342 -3327 0
3343 -3342 3327 0
3343 3342 -3327 0
-3344 3343 3328 0
-3344 -3343 -3328 0
3344 -3343 3328 0
3344 3343 -3328 0
-3345 3344 3329 0
-3345 -3344 -3329 0
3345 -3344 3329 0
3345 3344 -3329 0
-3346 3345 3330 0
-3346 -3345 -3330 0
3346 -3345 3330 0
3346 3345 -3330 0
-3347 3346 3331 0
-3347 -3346 -3331 0
3347 -3346 3331 0
3347 3346 -3331 0
-3348 3347 3332 0
-3348 -3347 -3332 0
3348 -3347 3332 0
3348 3347 -3332 0
-3349 3348 3333 0
-3349 -3348 -3333 0
3349 -3348 3333 0
3349 3348 -3333 0
-3350 3349 3334 0
-3350 -3349 -3334 0
3350 -3349 3334 0
3350 3349 -3334 0
-3351 3350 3335 0
-3351 -3350 -3335 0
3351 -3350 3335 0
3351 3350 -3335 0
-3352 3351 3336 0
-3352 -3351 -3336 0
3352 -3351 3336 0
3352 3351 -3336 0
-3353 3352 3337 0
-3353 -3352 -3337 0
3353 -3352 3337 0
3353 3352 -3337 0
-3354 3353 3338 0
-3354 -3353 -3338 0
3354 -3353 3338 0
3354 3353 -3338 0
-3355 3354 3339 0
-3355 -3354 -3339 0
3355 -3354 3339 0
3355 3354 -3339 0
-3356 3355 3340 0
-3356 -3355 -3340 0
3356 -3355 3340 0
3356 3355 -3340 0
-3357 3356 3341 0
-3357 -3356 -3341 0
3357 -3356 3341 0
3357 3356 -3341 0
-3357 0
-3358 3224 0
-3358 38 0
3358 -3224 -38 0
-3359 3226 0
-3359 38 0
3359 -3226 -38 0
-3360 3226 0
-3360 43 0
3360 -3226 -43 0
-3361 3228 0
-3361 38 0
3361 -3228 -38 0
-3362 3230 0
-3362 38 0
3362 -3230 -38 0
-3363 3230 0
-3363 43 0
3363 -3230 -43 0
-3364 3232 0
-3364 86 0
3364 -3232 -86 0
-3365 3234 0
-3365 86 0
3365 -3234 -86 0
-3366 3234 0
-3366 91 0
3366 -3234 -91 0
-3367 3236 0
-3367 86 0
3367 -3236 -86 0
-3368 3238 0
-3368 86 0
3368 -3238 -86 0
-3369 3238 0
-3369 91 0
3369 -3238 -91 0
-3370 3240 0
-3370 134 0
3370 -3240 -134 0
-3371 3242 0
-3371 134 0
3371 -3242 -134 0
-3372 3242 0
-3372 139 0
3372 -3242 -139 0
-3373 3244 0
-3373 182 0
3373 -3244 -182 0
-3374 3246 0
-3374 182 0
3374 -3246 -182 0
-3375 3358 3359 0
-3375 -3358 -3359 0
3375 -3358 3359 0
3375 3358 -3359 0
-3376 3375 3360 0
-3376 -3375 -3360 0
3376 -3375 3360 0
3376 3375 -3360 0
-3377 3376 3361 0
-3377 -3376 -3361 0
3377 -3376 3361 0
3377 3376 -3361 0
-3378 3377 3362 0
-3378 -3377 -3362 0
3378 -3377 3362 0
3378 3377 -3362 0
-3379 3378 3363 0
-3379 -3378 -3363 0
3379 -3378 3363 0
3379 3378 -3363 0
-3380 3379 3364 0
-3380 -3379 -3364 0
3380 -3379 3364 0
3380 3379 -3364 0
-3381 3380 3365 0
-3381 -3380 -3365 0
3381 -3380 3365 0
3381 3380 -3365 0
-3382 3381 3366 0
-3382 -3381 -3366 0
3382 -3381 3366 0
3382 3381 -3366 0
-3383 3382 3367 0
-3383 -3382 -3367 0
3383 -3382 3367 0
3383 3382 -3367 0
-3384 3383 3368 0
-3384 -3383 -3368 0
3384 -3383 3368 0
3384 3383 -3368 0
-3385 3384 3369 0
-3385 -3384 -3369 0
3385 -3384 3369 0
3385 3384 -3369 0
-3386 3385 3370 0
-3386 -3385 -3370 0
3386 -3385 3370 0
3386 3385 -3370 0
-3387 3386 3371 0
-3387 -3386 -3371 0
3387 -3386 3371 0
3387 3386 -3371 0
-3388 3387 3372 0
-3388 -3387 -3372 0
3388 -3387 3372 0
3388 3387 -3372 0
-3389 3388 3373 0
-3389 -3388 -3373 0
3389 -3388 3373 0
3389 3388 -3373 0
-3390 3389 3374 0
-3390 -3389 -3374 0
3390 -3389 3374 0
3390 3389 -3374 0
-3390 0
-3391 3224 0
-3391 39 0
3391 -3224 -39 0
-3392 3226 0
-3392 40 0
3392 -3226 -40 0
-3393 3226 0
-3393 44 0
3393 -3226 -44 0
-3394 3228 0
-3394 42 0
3394 -3228 -42 0
-3395 3230 0
-3395 46 0
3395 -3230 -46 0
-3396 3230 0
-3396 47 0
3396 -3230 -47 0
-3397 3232 0
-3397 87 0
3397 -3232 -87 0
-3398 3234 0
-3398 88 0
3398 -3234 -88 0
-3399 3234 0
-3399 92 0
3399 -3234 -92 0
-3400 3236 0
-3400 90 0
3400 -3236 -90 0
-3401 3238 0
-3401 94 0
3401 -3238 -94 0
-3402 3238 0
-3402 95 0
3402 -3238 -95 0
-3403 3240 0
-3403 135 0
3403 -3240 -135 0
-3404 3242 0
-3404 136 0
3404 -3242 -136 0
-3405 3242 0
-3405 140 0
3405 -3242 -140 0
-3406 3244 0
-3406 183 0
3406 -3244 -183 0
-3407 3246 0
-3407 186 0
3407 -3246 -186 0
-3408 3391 3392 0
-3408 -3391 -3392 0
3408 -3391 3392 0
3408 3391 -3392 0
-3409 3408 3393 0
-3409 -3408 -3393 0
3409 -3408 3393 0
3409 3408 -3393 0
-3410 3409 3394 0
-3410 -3409 -3394 0
3410 -3409 3394 0
3410 3409 -3394 0
-3411 3410 3395 0
-3411 -3410 -3395 0
3411 -3410 3395 0
3411 3410 -3395 0
-3412 3411 3396 0
-3412 -3411 -3396 0
3412 -3411 3396 0
3412 3411 -3396 0
-3413 3412 3397 0
-3413 -3412 -3397 0
3413 -3412 3397 0
3413 3412 -3397 0
-3414 3413 3398 0
-3414 -3413 -3398 0
3414 -3413 3398 0
3414 3413 -3398 0
-3415 3414 3399 0
-3415 -3414 -3399 0
3415 -3414 3399 0
3415 3414 -3399 0
-3416 3415 3400 0
-3416 -3415 -3400 0
3416 -3415 3400 0
3416 3415 -3400 0
-3417 3416 3401 0
-3417 -3416 -3401 0
3417 -3416 3401 0
3417 3416 -3401 0
-3418 3417 3402 0
-3418 -3417 -3402 0
3418 -3417 3402 0
3418 3417 -3402 0
-3419 3418 3403 0
-3419 -3418 -3403 0
3419 -3418 3403 0
3419 3418 -3403 0
-3420 3419 3404 0
-3420 -3419 -3404 0
3420 -3419 3404 0
3420 3419 -3404 0
-3421 3420 3405 0
-3421 -3420 -3405 0
3421 -3420 3405 0
3421 3420 -3405 0
-3422 3421 3406 0
-3422 -3421 -3406 0
3422 -3421 3406 0
3422 3421 -3406 0
-3423 3422 3407 0
-3423 -3422 -3407 0
3423 -3422 3407 0
3423 3422 -3407 0
-3423 0
-3424 3224 0
-3424 40 0
3424 -3224 -40 0
-3425 3226 0
-3425 39 0
3425 -3226 -39 0
-3426 3226 0
-3426 42 0
3426 -3226 -42 0
-3427 3228 0
-3427 46 0
3427 -3228 -46 0
-3428 3230 0
-3428 42 0
3428 -3230 -42 0
-3429 3230 0
-3429 39 0
3429 -3230 -39 0
-3430 3232 0
-3430 88 0
3430 -3232 -88 0
-3431 3234 0
-3431 87 0
3431 -3234 -87 0
-3432 3234 0
-3432 90 0
3432 -3234 -90 0
-3433 3236 0
-3433 94 0
3433 -3236 -94 0
-3434 3238 0
-3434 90 0
3434 -3238 -90 0
-3435 3238 0
-3435 87 0
3435 -3238 -87 0
-3436 3240 0
-3436 136 0
3436 -3240 -136 0
-3437 3242 0
-3437 135 0
3437 -3242 -135 0
-3438 3242 0
-3438 138 0
3438 -3242 -138 0
-3439 3244 0
-3439 184 0
3439 -3244 -184 0
-3440 3246 0
-3440 190 0
3440 -3246 -190 0
-3441 3424 3425 0
-3441 -3424 -3425 0
3441 -3424 3425 0
3441 3424 -3425 0
-3442 3441 3426 0
-3442 -3441 -3426 0
3442 -3441 3426 0
3442 3441 -3426 0
-3443 3442 3427 0
-3443 -3442 -3427 0
3443 -3442 3427 0
3443 3442 -3427 0
-3444 3443 3428 0
-3444 -3443 -3428 0
3444 -3443 3428 0
3444 3443 -3428 0
-3445 3444 3429 0
-3445 -3444 -3429 0
3445 -3444 3429 0
3445 3444 -3429 0
-3446 3445 3430 0
-3446 -3445 -3430 0
3446 -3445 3430 0
3446 3445 -3430 0
-3447 3446 3431 0
-3447 -3446 -3431 0
3447 -3446 3431 0
3447 3446 -3431 0
-3448 3447 3432 0
-3448 -3447 -3432 0
3448 -3447 3432 0
3448 3447 -3432 0
-3449 3448 3433 0
-3449 -3448 -3433 0
3449 -3448 3433 0
3449 3448 -3433 0
-3450 3449 3434 0
-3450 -3449 -3434 0
3450 -3449 3434 0
3450 3449 -3434 0
-3451 3450 3435 0
-3451 -3450 -3435 0
3451 -3450 3435 0
3451 3450 -3435 0
-3452 3451 3436 0
-3452 -3451 -3436 0
3452 -3451 3436 0
3452 3451 -3436 0
-3453 3452 3437 0
-3453 -3452 -3437 0
3453 -3452 3437 0
3453 3452 -3437 0
-3454 3453 3438 0
-3454 -3453 -3438 0
3454 -3453 3438 0
3454 3453 -3438 0
-3455 3454 3439 0
-3455 -3454 -3439 0
3455 -3454 3439 0
3455 3454 -3439 0
-3456 3455 3440 0
-3456 -3455 -3440 0
3456 -3455 3440 0
3456 3455 -3440 0
-3456 0
-3457 3224 0
-3457 41 0
3457 -3224 -41 0
-3458 3226 0
-3458 45 0
3458 -3226 -45 0
-3459 3228 0
-3459 35 0
3459 -3228 -35 0
-3460 3230 0
-3460 36 0
3460 -3230 -36 0
-3461 3232 0
-3461 89 0
3461 -3232 -89 0
-3462 3234 0
-3462 93 0
3462 -3234 -93 0
-3463 3236 0
-3463 83 0
3463 -3236 -83 0
-3464 3238 0
-3464 84 0
3464 -3238 -84 0
-3465 3240 0
-3465 137 0
3465 -3240 -137 0
-3466 3242 0
-3466 141 0
3466 -3242 -141 0
-3467 3244 0
-3467 185 0
3467 -3244 -185 0
-3468 3246 0
-3468 179 0
3468 -3246 -179 0
-3469 3457 3458 0
-3469 -3457 -3458 0
3469 -3457 3458 0
3469 3457 -3458 0
-3470 3469 3458 0
-3470 -3469 -3458 0
3470 -3469 3458 0
3470 3469 -3458 0
-3471 3470 3459 0
-3471 -3470 -3459 0
3471 -3470 3459 0
3471 3470 -3459 0
-3472 3471 3460 0
-3472 -3471 -3460 0
3472 -3471 3460 0
3472 3471 -3460 0
-3473 3472 3460 0
-3473 -3472 -3460 0
3473 -3472 3460 0
3473 3472 -3460 0
-3474 3473 3461 0
-3474 -3473 -3461 0
3474 -3473 3461 0
3474 3473 -3461 0
-3475 3474 3462 0
-3475 -3474 -3462 0
3475 -3474 3462 0
3475 3474 -3462 0
-3476 3475 3462 0
-3476 -3475 -3462 0
3476 -3475 3462 0
3476 3475 -3462 0
-3477 3476 3463 0
-3477 -3476 -3463 0
3477 -3476 3463 0
3477 3476 -3463 0
-3478 3477 3464 0
-3478 -3477 -3464 0
3478 -3477 3464 0
3478 3477 -3464 0
-3479 3478 3464 0
-3479 -3478 -3464 0
3479 -3478 3464 0
3479 3478 -3464 0
-3480 3479 3465 0
-3480 -3479 -3465 0
3480 -3479 3465 0
3480 3479 -3465 0
-3481 3480 3466 0
-3481 -3480 -3466 0
3481 -3480 3466 0
3481 3480 -3466 0
-3482 3481 3466 0
-3482 -3481 -3466 0
3482 -3481 3466 0
3482 3481 -3466 0
-3483 3482 3467 0
-3483 -3482 -3467 0
3483 -3482 3467 0
3483 3482 -3467 0
-3484 3483 3468 0
-3484 -3483 -3468 0
3484 -3483 3468 0
3484 3483 -3468 0
-3484 0
-3485 3224 0
-3485 42 0
3485 -3224 -42 0
-3486 3226 0
-3486 46 0
3486 -3226 -46 0
-3487 3226 0
-3487 47 0
3487 -3226 -47 0
-3488 3228 0
-3488 39 0
3488 -3228 -39 0
-3489 3230 0
-3489 40 0
3489 -3230 -40 0
-3490 3230 0
-3490 44 0
3490 -3230 -44 0
-3491 3232 0
-3491 90 0
3491 -3232 -90 0
-3492 3234 0
-3492 94 0
3492 -3234 -94 0
-3493 3234 0
-3493 95 0
3493 -3234 -95 0
-3494 3236 0
-3494 87 0
3494 -3236 -87 0
-3495 3238 0
-3495 88 0
3495 -3238 -88 0
-3496 3238 0
-3496 92 0
3496 -3238 -92 0
-3497 3240 0
-3497 138 0
3497 -3240 -138 0
-3498 3242 0
-3498 142 0
3498 -3242 -142 0
-3499 3242 0
-3499 143 0
3499 -3242 -143 0
-3500 3244 0
-3500 186 0
3500 -3244 -186 0
-3501 3246 0
-3501 183 0
3501 -3246 -183 0
-3502 3485 3486 0
-3502 -3485 -3486 0
3502 -3485 3486 0
3502 3485 -3486 0
-3503 3502 3487 0
-3503 -3502 -3487 0
3503 -3502 3487 0
3503 3502 -3487 0
-3504 3503 3488 0
-3504 -3503 -3488 0
3504 -3503 3488 0
3504 3503 -3488 0
-3505 3504 3489 0
-3505 -3504 -3489 0
3505 -3504 3489 0
3505 3504 -3489 0
-3506 3505 3490 0
-3506 -3505 -3490 0
3506 -3505 3490 0
3506 3505 -3490 0
-3507 3506 3491 0
-3507 -3506 -3491 0
3507 -3506 3491 0
3507 3506 -3491 0
-3508 3507 3492 0
-3508 -3507 -3492 0
3508 -3507 3492 0
3508 3507 -3492 0
-3509 3508 3493 0
-3509 -3508 -3493 0
3509 -3508 3493 0
3509 3508 -3493 0
-3510 3509 3494 0
-3510 -3509 -3494 0
3510 -3509 3494 0
3510 3509 -3494 0
-3511 3510 3495 0
-3511 -3510 -3495 0
3511 -3510 3495 0
3511 3510 -3495 0
-3512 3511 3496 0
-3512 -3511 -3496 0
3512 -3511 3496 0
3512 3511 -3496 0
-3513 3512 3497 0
-3513 -3512 -3497 0
3513 -3512 3497 0
3513 3512 -3497 0
-3514 3513 3498 0
-3514 -3513 -3498 0
3514 -3513 3498 0
3514 3513 -3498 0
-3515 3514 3499 0
-3515 -3514 -3499 0
3515 -3514 3499 0
3515 3514 -3499 0
-3516 3515 3500 0
-3516 -3515 -3500 0
3516 -3515 3500 0
3516 3515 -3500 0
-3517 3516 3501 0
-3517 -3516 -3501 0
3517 -3516 3501 0
3517 3516 -3501 0
-3517 0
-3518 3224 0
-3518 43 0
3518 -3224 -43 0
-3519 3226 0
-3519 48 0
3519 -3226 -48 0
-3520 3228 0
-3520 43 0
3520 -3228 -43 0
-3521 3230 0
-3521 48 0
3521 -3230 -48 0
-3522 3232 0
-3522 91 0
3522 -3232 -91 0
-3523 3234 0
-3523 96 0
3523 -3234 -96 0
-3524 3236 0
-3524 91 0
3524 -3236 -91 0
-3525 3238 0
-3525 96 0
3525 -3238 -96 0
-3526 3240 0
-3526 139 0
3526 -3240 -139 0
-3527 3242 0
-3527 144 0
3527 -3242 -144 0
-3528 3244 0
-3528 187 0
3528 -3244 -187 0
-3529 3246 0
-3529 187 0
3529 -3246 -187 0
-3530 3518 3519 0
-3530 -3518 -3519 0
3530 -3518 3519 0
3530 3518 -3519 0
-3531 3530 3519 0
-3531 -3530 -3519 0
3531 -3530 3519 0
3531 3530 -3519 0
-3532 3531 3520 0
-3532 -3531 -3520 0
3532 -3531 3520 0
3532 3531 -3520 0
-3533 3532 3521 0
-3533 -3532 -3521 0
3533 -3532 3521 0
3533 3532 -3521 0
-3534 3533 3521 0
-3534 -3533 -3521 0
3534 -3533 3521 0
3534 3533 -3521 0
-3535 3534 3522 0
-3535 -3534 -3522 0
3535 -3534 3522 0
3535 3534 -3522 0
-3536 3535 3523 0
-3536 -3535 -3523 0
3536 -3535 3523 0
3536 3535 -3523 0
-3537 3536 3523 0
-3537 -3536 -3523 0
3537 -3536 3523 0
3537 3536 -3523 0
-3538 3537 3524 0
-3538 -3537 -3524 0
3538 -3537 3524 0
3538 3537 -3524 0
-3539 3538 3525 0
-3539 -3538 -3525 0
3539 -3538 3525 0
3539 3538 -3525 0
-3540 3539 3525 0
-3540 -3539 -3525 0
3540 -3539 3525 0
3540 3539 -3525 0
-3541 3540 3526 0
-3541 -3540 -3526 0
3541 -3540 3526 0
3541 3540 -3526 0
-3542 3541 3527 0
-3542 -3541 -3527 0
3542 -3541 3527 0
3542 3541 -3527 0
-3543 3542 3527 0
-3543 -3542 -3527 0
3543 -3542 3527 0
3543 3542 -3527 0
-3544 3543 3528 0
-3544 -3543 -3528 0
3544 -3543 3528 0
3544 3543 -3528 0
-3545 3544 3529 0
-3545 -3544 -3529 0
3545 -3544 3529 0
3545 3544 -3529 0
-3545 0
-3546 1 0
-3546 30 0
3546 -1 -30 0
-3547 3546 0
-3547 33 0
3547 -3546 -33 0
-3548 2 0
-3548 30 0
3548 -2 -30 0
-3549 3548 0
-3549 33 0
3549 -3548 -33 0
-3550 2 0
-3550 31 0
3550 -2 -31 0
-3551 3550 0
-3551 33 0
3551 -3550 -33 0
-3552 17 0
-3552 8 0
3552 -17 -8 0
-3553 3552 0
-3553 33 0
3553 -3552 -33 0
-3554 21 0
-3554 8 0
3554 -21 -8 0
-3555 3554 0
-3555 33 0
3555 -3554 -33 0
-3556 21 0
-3556 12 0
3556 -21 -12 0
-3557 3556 0
-3557 33 0
3557 -3556 -33 0
-3558 49 0
-3558 78 0
3558 -49 -78 0
-3559 3558 0
-3559 81 0
3559 -3558 -81 0
-3560 50 0
-3560 78 0
3560 -50 -78 0
-3561 3560 0
-3561 81 0
3561 -3560 -81 0
-3562 50 0
-3562 79 0
3562 -50 -79 0
-3563 3562 0
-3563 81 0
3563 -3562 -81 0
-3564 65 0
-3564 56 0
3564 -65 -56 0
-3565 3564 0
-3565 81 0
3565 -3564 -81 0
-3566 69 0
-3566 56 0
3566 -69 -56 0
-3567 3566 0
-3567 81 0
3567 -3566 -81 0
-3568 69 0
-3568 60 0
3568 -69 -60 0
-3569 3568 0
-3569 81 0
3569 -3568 -81 0
-3570 97 0
-3570 126 0
3570 -97 -126 0
-3571 3570 0
-3571 129 0
3571 -3570 -129 0
-3572 98 0
-3572 126 0
3572 -98 -126 0
-3573 3572 0
-3573 129 0
3573 -3572 -129 0
-3574 98 0
-3574 127 0
3574 -98 -127 0
-3575 3574 0
-3575 129 0
3575 -3574 -129 0
-3576 145 0
-3576 174 0
3576 -145 -174 0
-3577 3576 0
-3577 177 0
3577 -3576 -177 0
-3578 161 0
-3578 152 0
3578 -161 -152 0
-3579 3578 0
-3579 177 0
3579 -3578 -177 0
-3580 3547 3549 0
-3580 -3547 -3549 0
3580 -3547 3549 0
3580 3547 -3549 0
-3581 3580 3551 0
-3581 -3580 -3551 0
3581 -3580 3551 0
3581 3580 -3551 0
-3582 3581 3553 0
-3582 -3581 -3553 0
3582 -3581 3553 0
3582 3581 -3553 0
-3583 3582 3555 0
-3583 -3582 -3555 0
3583 -3582 3555 0
3583 3582 -3555 0
-3584 3583 3557 0
-3584 -3583 -3557 0
3584 -3583 3557 0
3584 3583 -3557 0
-3585 3584 3559 0
-3585 -3584 -3559 0
3585 -3584 3559 0
3585 3584 -3559 0
-3586 3585 3561 0
-3586 -3585 -3561 0
3586 -3585 3561 0
3586 3585 -3561 0
-3587 3586 3563 0
-3587 -3586 -3563 0
3587 -3586 3563 0
3587 3586 -3563 0
-3588 3587 3565 0
-3588 -3587 -3565 0
3588 -3587 3565 0
3588 3587 -3565 0
-3589 3588 3567 0
-3589 -3588 -3567 0
3589 -3588 3567 0
3589 3588 -3567 0
-3590 3589 3569 0
-3590 -3589 -3569 0
3590 -3589 3569 0
3590 3589 -3569 0
-3591 3590 3571 0
-3591 -3590 -3571 0
3591 -3590 3571 0
3591 3590 -3571 0
-3592 3591 3573 0
-3592 -3591 -3573 0
3592 -3591 3573 0
3592 3591 -3573 0
-3593 3592 3575 0
-3593 -3592 -3575 0
3593 -3592 3575 0
3593 3592 -3575 0
-3594 3593 3577 0
-3594 -3593 -3577 0
3594 -3593 3577 0
3594 3593 -3577 0
-3595 3594 3579 0
-3595 -3594 -3579 0
3595 -3594 3579 0
3595 3594 -3579 0
-3595 0
-3596 3546 0
-3596 34 0
3596 -3546 -34 0
-3597 3548 0
-3597 34 0
3597 -3548 -34 0
-3598 3550 0
-3598 35 0
3598 -3550 -35 0
-3599 3552 0
-3599 37 0
3599 -3552 -37 0
-3600 3554 0
-3600 37 0
3600 -3554 -37 0
-3601 3556 0
-3601 41 0
3601 -3556 -41 0
-3602 3558 0
-3602 82 0
3602 -3558 -82 0
-3603 3560 0
-3603 82 0
3603 -3560 -82 0
-3604 3562 0
-3604 83 0
3604 -3562 -83 0
-3605 3564 0
-3605 85 0
3605 -3564 -85 0
-3606 3566 0
-3606 85 0
3606 -3566 -85 0
-3607 3568 0
-3607 89 0
3607 -3568 -89 0
-3608 3570 0
-3608 130 0
3608 -3570 -130 0
-3609 3572 0
-3609 130 0
3609 -3572 -130 0
-3610 3574 0
-3610 131 0
3610 -3574 -131 0
-3611 3576 0
-3611 178 0
3611 -3576 -178 0
-3612 3578 0
-3612 181 0
3612 -3578 -181 0
-3613 3596 3597 0
-3613 -3596 -3597 0
3613 -3596 3597 0
3613 3596 -3597 0
-3614 3613 3598 0
-3614 -3613 -3598 0
3614 -3613 3598 0
3614 3613 -3598 0
-3615 3614 3599 0
-3615 -3614 -3599 0
3615 -3614 3599 0
3615 3614 -3599 0
-3616 3615 3600 0
-3616 -3615 -3600 0
3616 -3615 3600 0
3616 3615 -3600 0
-3617 3616 3601 0
-3617 -3616 -3601 0
3617 -3616 3601 0
3617 3616 -3601 0
-3618 3617 3602 0
-3618 -3617 -3602 0
3618 -3617 3602 0
3618 3617 -3602 0
-3619 3618 3603 0
-3619 -3618 -3603 0
3619 -3618 3603 0
3619 3618 -3603 0
-3620 3619 3604 0
-3620 -3619 -3604 0
3620 -3619 3604 0
3620 3619 -3604 0
-3621 3620 3605 0
-3621 -3620 -3605 0
3621 -3620 3605 0
3621 3620 -3605 0
-3622 3621 3606 0
-3622 -3621 -3606 0
3622 -3621 3606 0
3622 3621 -3606 0
-3623 3622 3607 0
-3623 -3622 -3607 0
3623 -3622 3607 0
3623 3622 -3607 0
-3624 3623 3608 0
-3624 -3623 -3608 0
3624 -3623 3608 0
3624 3623 -3608 0
-3625 3624 3609 0
-3625 -3624 -3609 0
3625 -3624 3609 0
3625 3624 -3609 0
-3626 3625 3610 0
-3626 -3625 -3610 0
3626 -3625 3610 0
3626 3625 -3610 0
-3627 3626 3611 0
-3627 -3626 -3611 0
3627 -3626 3611 0
3627 3626 -3611 0
-3628 3627 3612 0
-3628 -3627 -3612 0
3628 -3627 3612 0
3628 3627 -3612 0
-3628 0
-3629 3546 0
-3629 35 0
3629 -3546 -35 0
-3630 3548 0
-3630 36 0
3630 -3548 -36 0
-3631 3550 0
-3631 36 0
3631 -3550 -36 0
-3632 3552 0
-3632 41 0
3632 -3552 -41 0
-3633 3554 0
-3633 45 0
3633 -3554 -45 0
-3634 3556 0
-3634 45 0
3634 -3556 -45 0
-3635 3558 0
-3635 83 0
3635 -3558 -83 0
-3636 3560 0
-3636 84 0
3636 -3560 -84 0
-3637 3562 0
-3637 84 0
3637 -3562 -84 0
-3638 3564 0
-3638 89 0
3638 -3564 -89 0
-3639 3566 0
-3639 93 0
3639 -3566 -93 0
-3640 3568 0
-3640 93 0
3640 -3568 -93 0
-3641 3570 0
-3641 131 0
3641 -3570 -131 0
-3642 3572 0
-3642 132 0
3642 -3572 -132 0
-3643 3574 0
-3643 132 0
3643 -3574 -132 0
-3644 3576 0
-3644 179 0
3644 -3576 -179 0
-3645 3578 0
-3645 185 0
3645 -3578 -185 0
-3646 3629 3630 0
-3646 -3629 -3630 0
3646 -3629 3630 0
3646 3629 -3630 0
-3647 3646 3631 0
-3647 -3646 -3631 0
3647 -3646 3631 0
3647 3646 -3631 0
-3648 3647 3632 0
-3648 -3647 -3632 0
3648 -3647 3632 0
3648 3647 -3632 0
-3649 3648 3633 0
-3649 -3648 -3633 0
3649 -3648 3633 0
3649 3648 -3633 0
-3650 3649 3634 0
-3650 -3649 -3634 0
3650 -3649 3634 0
3650 3649 -3634 0
-3651 3650 3635 0
-3651 -3650 -3635 0
3651 -3650 3635 0
3651 3650 -3635 0
-3652 3651 3636 0
-3652 -3651 -3636 0
3652 -3651 3636 0
3652 3651 -3636 0
-3653 3652 3637 0
-3653 -3652 -3637 0
3653 -3652 3637 0
3653 3652 -3637 0
-3654 3653 3638 0
-3654 -3653 -3638 0
3654 -3653 3638 0
3654 3653 -3638 0
-3655 3654 3639 0
-3655 -3654 -3639 0
3655 -3654 3639 0
3655 3654 -3639 0
-3656 3655 3640 0
-3656 -3655 -3640 0
3656 -3655 3640 0
3656 3655 -3640 0
-3657 3656 3641 0
-3657 -3656 -3641 0
3657 -3656 3641 0
3657 3656 -3641 0
-3658 3657 3642 0
-3658 -3657 -3642 0
3658 -3657 3642 0
3658 3657 -3642 0
-3659 3658 3643 0
-3659 -3658 -3643 0
3659 -3658 3643 0
3659 3658 -3643 0
-3660 3659 3644 0
-3660 -3659 -3644 0
3660 -3659 3644 0
3660 3659 -3644 0
-3661 3660 3645 0
-3661 -3660 -3645 0
3661 -3660 3645 0
3661 3660 -3645 0
-3661 0
-3662 3546 0
-3662 36 0
3662 -3546 -36 0
-3663 3548 0
-3663 35 0
3663 -3548 -35 0
-3664 3550 0
-3664 34 0
3664 -3550 -34 0
-3665 3552 0
-3665 45 0
3665 -3552 -45 0
-3666 3554 0
-3666 41 0
3666 -3554 -41 0
-3667 3556 0
-3667 37 0
3667 -3556 -37 0
-3668 3558 0
-3668 84 0
3668 -3558 -84 0
-3669 3560 0
-3669 83 0
3669 -3560 -83 0
-3670 3562 0
-3670 82 0
3670 -3562 -82 0
-3671 3564 0
-3671 93 0
3671 -3564 -93 0
-3672 3566 0
-3672 89 0
3672 -3566 -89 0
-3673 3568 0
-3673 85 0
3673 -3568 -85 0
-3674 3570 0
-3674 132 0
3674 -3570 -132 0
-3675 3572 0
-3675 131 0
3675 -3572 -131 0
-3676 3574 0
-3676 130 0
3676 -3574 -130 0
-3677 3576 0
-3677 180 0
3677 -3576 -180 0
-3678 3578 0
-3678 189 0
3678 -3578 -189 0
-3679 3662 3663 0
-3679 -3662 -3663 0
3679 -3662 3663 0
3679 3662 -3663 0
-3680 3679 3664 0
-3680 -3679 -3664 0
3680 -3679 3664 0
3680 3679 -3664 0
-3681 3680 3665 0
-3681 -3680 -3665 0
3681 -3680 3665 0
3681 3680 -3665 0
-3682 3681 3666 0
-3682 -3681 -3666 0
3682 -3681 3666 0
3682 3681 -3666 0
-3683 3682 3667 0
-3683 -3682 -3667 0
3683 -3682 3667 0
3683 3682 -3667 0
-3684 3683 3668 0
-3684 -3683 -3668 0
3684 -3683 3668 0
3684 3683 -3668 0
-3685 3684 3669 0
-3685 -3684 -3669 0
3685 -3684 3669 0
3685 3684 -3669 0
-3686 3685 3670 0
-3686 -3685 -3670 0
3686 -3685 3670 0
3686 3685 -3670 0
-3687 3686 3671 0
-3687 -3686 -3671 0
3687 -3686 3671 0
3687 3686 -3671 0
-3688 3687 3672 0
-3688 -3687 -3672 0
3688 -3687 3672 0
3688 3687 -3672 0
-3689 3688 3673 0
-3689 -3688 -3673 0
3689 -3688 3673 0
3689 3688 -3673 0
-3690 3689 3674 0
-3690 -3689 -3674 0
3690 -3689 3674 0
3690 3689 -3674 0
-3691 3690 3675 0
-3691 -3690 -3675 0
3691 -3690 3675 0
3691 3690 -3675 0
-3692 3691 3676 0
-3692 -3691 -3676 0
3692 -3691 3676 0
3692 3691 -3676 0
-3693 3692 3677 0
-3693 -3692 -3677 0
3693 -3692 3677 0
3693 3692 -3677 0
-3694 3693 3678 0
-3694 -3693 -3678 0
3694 -3693 3678 0
3694 3693 -3678 0
-3694 0
-3695 3546 0
-3695 37 0
3695 -3546 -37 0
-3696 3548 0
-3696 37 0
3696 -3548 -37 0
-3697 3550 0
-3697 41 0
3697 -3550 -41 0
-3698 3552 0
-3698 34 0
3698 -3552 -34 0
-3699 3554 0
-3699 34 0
3699 -3554 -34 0
-3700 3556 0
-3700 35 0
3700 -3556 -35 0
-3701 3558 0
-3701 85 0
3701 -3558 -85 0
-3702 3560 0
-3702 85 0
3702 -3560 -85 0
-3703 3562 0
-3703 89 0
3703 -3562 -89 0
-3704 3564 0
-3704 82 0
3704 -3564 -82 0
-3705 3566 0
-3705 82 0
3705 -3566 -82 0
-3706 3568 0
-3706 83 0
3706 -3568 -83 0
-3707 3570 0
-3707 133 0
3707 -3570 -133 0
-3708 3572 0
-3708 133 0
3708 -3572 -133 0
-3709 3574 0
-3709 137 0
3709 -3574 -137 0
-3710 3576 0
-3710 181 0
3710 -3576 -181 0
-3711 3578 0
-3711 178 0
3711 -3578 -178 0
-3712 3695 3696 0
-3712 -3695 -3696 0
3712 -3695 3696 0
3712 3695 -3696 0
-3713 3712 3697 0
-3713 -3712 -3697 0
3713 -3712 3697 0
3713 3712 -3697 0
-3714 3713 3698 0
-3714 -3713 -3698 0
3714 -3713 3698 0
3714 3713 -3698 0
-3715 3714 3699 0
-3715 -3714 -3699 0
3715 -3714 3699 0
3715 3714 -3699 0
-3716 3715 3700 0
-3716 -3715 -3700 0
3716 -3715 3700 0
3716 3715 -3700 0
-3717 3716 3701 0
-3717 -3716 -3701 0
3717 -3716 3701 0
3717 3716 -3701 0
-3718 3717 3702 0
-3718 -3717 -3702 0
3718 -3717 3702 0
3718 3717 -3702 0
-3719 3718 3703 0
-3719 -3718 -3703 0
3719 -3718 3703 0
3719 3718 -3703 0
-3720 3719 3704 0
-3720 -3719 -3704 0
3720 -3719 3704 0
3720 3719 -3704 0
-3721 3720 3705 0
-3721 -3720 -3705 0
3721 -3720 3705 0
3721 3720 -3705 0
-3722 3721 3706 0
-3722 -3721 -3706 0
3722 -3721 3706 0
3722 3721 -3706 0
-3723 3722 3707 0
-3723 -3722 -3707 0
3723 -3722 3707 0
3723 3722 -3707 0
-3724 3723 3708 0
-3724 -3723 -3708 0
3724 -3723 3708 0
3724 3723 -3708 0
-3725 3724 3709 0
-3725 -3724 -3709 0
3725 -3724 3709 0
3725 3724 -3709 0
-3726 3725 3710 0
-3726 -3725 -3710 0
3726 -3725 3710 0
3726 3725 -3710 0
-3727 3726 3711 0
-3727 -3726 -3711 0
3727 -3726 3711 0
3727 3726 -3711 0
-3727 0
-3728 3546 0
-3728 38 0
3728 -3546 -38 0
-3729 3548 0
-3729 38 0
3729 -3548 -38 0
-3730 3550 0
-3730 43 0
3730 -3550 -43 0
-3731 3552 0
-3731 38 0
3731 -3552 -38 0
-3732 3554 0
-3732 38 0
3732 -3554 -38 0
-3733 3556 0
-3733 43 0
3733 -3556 -43 0
-3734 3558 0
-3734 86 0
3734 -3558 -86 0
-3735 3560 0
-3735 86 0
3735 -3560 -86 0
-3736 3562 0
-3736 91 0
3736 -3562 -91 0
-3737 3564 0
-3737 86 0
3737 -3564 -86 0
-3738 3566 0
-3738 86 0
3738 -3566 -86 0
-3739 3568 0
-3739 91 0
3739 -3568 -91 0
-3740 3570 0
-3740 134 0
3740 -3570 -134 0
-3741 3572 0
-3741 134 0
3741 -3572 -134 0
-3742 3574 0
-3742 139 0
3742 -3574 -139 0
-3743 3576 0
-3743 182 0
3743 -3576 -182 0
-3744 3578 0
-3744 182 0
3744 -3578 -182 0
-3745 3728 3729 0
-3745 -3728 -3729 0
3745 -3728 3729 0
3745 3728 -3729 0
-3746 3745 3730 0
-3746 -3745 -3730 0
3746 -3745 3730 0
3746 3745 -3730 0
-3747 3746 3731 0
-3747 -3746 -3731 0
3747 -3746 3731 0
3747 3746 -3731 0
-3748 3747 3732 0
-3748 -3747 -3732 0
3748 -3747 3732 0
3748 3747 -3732 0
-3749 3748 3733 0
-3749 -3748 -3733 0
3749 -3748 3733 0
3749 3748 -3733 0
-3750 3749 3734 0
-3750 -3749 -3734 0
3750 -3749 3734 0
3750 3749 -3734 0
-3751 3750 3735 0
-3751 -3750 -3735 0
3751 -3750 3735 0
3751 3750 -3735 0
-3752 3751 3736 0
-3752 -3751 -3736 0
3752 -3751 3736 0
3752 3751 -3736 0
-3753 3752 3737 0
-3753 -3752 -3737 0
3753 -3752 3737 0
3753 3752 -3737 0
-3754 3753 3738 0
-3754 -3753 -3738 0
3754 -3753 3738 0
3754 3753 -3738 0
-3755 3754 3739 0
-3755 -3754 -3739 0
3755 -3754 3739 0
3755 3754 -3739 0
-3756 3755 3740 0
-3756 -3755 -3740 0
3756 -3755 3740 0
3756 3755 -3740 0
-3757 3756 3741 0
-3757 -3756 -3741 0
3757 -3756 3741 0
3757 3756 -3741 0
-3758 3757 3742 0
-3758 -3757 -3742 0
3758 -3757 3742 0
3758 3757 -3742 0
-3759 3758 3743 0
-3759 -3758 -3743 0
3759 -3758 3743 0
3759 3758 -3743 0
-3760 3759 3744 0
-3760 -3759 -3744 0
3760 -3759 3744 0
3760 3759 -3744 0
-3760 0
-3761 3546 0
-3761 39 0
3761 -3546 -39 0
-3762 3548 0
-3762 40 0
3762 -3548 -40 0
-3763 3550 0
-3763 44 0
3763 -3550 -44 0
-3764 3552 0
-3764 42 0
3764 -3552 -42 0
-3765 3554 0
-3765 46 0
3765 -3554 -46 0
-3766 3556 0
-3766 47 0
3766 -3556 -47 0
-3767 3558 0
-3767 87 0
3767 -3558 -87 0
-3768 3560 0
-3768 88 0
3768 -3560 -88 0
-3769 3562 0
-3769 92 0
3769 -3562 -92 0
-3770 3564 0
-3770 90 0
3770 -3564 -90 0
-3771 3566 0
-3771 94 0
3771 -3566 -94 0
-3772 3568 0
-3772 95 0
3772 -3568 -95 0
-3773 3570 0
-3773 135 0
3773 -3570 -135 0
-3774 3572 0
-3774 136 0
3774 -3572 -136 0
-3775 3574 0
-3775 140 0
3775 -3574 -140 0
-3776 3576 0
-3776 183 0
3776 -3576 -183 0
-3777 3578 0
-3777 186 0
3777 -3578 -186 0
-3778 3761 3762 0
-3778 -3761 -3762 0
3778 -3761 3762 0
3778 3761 -3762 0
-3779 3778 3763 0
-3779 -3778 -3763 0
3779 -3778 3763 0
3779 3778 -3763 0
-3780 3779 3764 0
-3780 -3779 -3764 0
3780 -3779 3764 0
3780 3779 -3764 0
-3781 3780 3765 0
-3781 -3780 -3765 0
3781 -3780 3765 0
3781 3780 -3765 0
-3782 3781 3766 0
-3782 -3781 -3766 0
3782 -3781 3766 0
3782 3781 -3766 0
-3783 3782 3767 0
-3783 -3782 -3767 0
3783 -3782 3767 0
3783 3782 -3767 0
-3784 3783 3768 0
-3784 -3783 -3768 0
3784 -3783 3768 0
3784 3783 -3768 0
-3785 3784 3769 0
-3785 -3784 -3769 0
3785 -3784 3769 0
3785 3784 -3769 0
-3786 3785 3770 0
-3786 -3785 -3770 0
3786 -3785 3770 0
3786 3785 -3770 0
-3787 3786 3771 0
-3787 -3786 -3771 0
3787 -3786 3771 0
3787 3786 -3771 0
-3788 3787 3772 0
-3788 -3787 -3772 0
3788 -3787 3772 0
3788 3787 -3772 0
-3789 3788 3773 0
-3789 -3788 -3773 0
3789 -3788 3773 0
3789 3788 -3773 0
-3790 3789 3774 0
-3790 -3789 -3774 0
3790 -3789 3774 0
3790 3789 -3774 0
-3791 3790 3775 0
-3791 -3790 -3775 0
3791 -3790 3775 0
3791 3790 -3775 0
-3792 3791 3776 0
-3792 -3791 -3776 0
3792 -3791 3776 0
3792 3791 -3776 0
-3793 3792 3777 0
-3793 -3792 -3777 0
3793 -3792 3777 0
3793 3792 -3777 0
-3793 0
-3794 3546 0
-3794 40 0
3794 -3546 -40 0
-3795 3548 0
-3795 39 0
3795 -3548 -39 0
-3796 3550 0
-3796 42 0
3796 -3550 -42 0
-3797 3552 0
-3797 46 0
3797 -3552 -46 0
-3798 3554 0
-3798 42 0
3798 -3554 -42 0
-3799 3556 0
-3799 39 0
3799 -3556 -39 0
-3800 3558 0
-3800 88 0
3800 -3558 -88 0
-3801 3560 0
-3801 87 0
3801 -3560 -87 0
-3802 3562 0
-3802 90 0
3802 -3562 -90 0
-3803 3564 0
-3803 94 0
3803 -3564 -94 0
-3804 3566 0
-3804 90 0
3804 -3566 -90 0
-3805 3568 0
-3805 87 0
3805 -3568 -87 0
-3806 3570 0
-3806 136 0
3806 -3570 -136 0
-3807 3572 0
-3807 135 0
3807 -3572 -135 0
-3808 3574 0
-3808 138 0
3808 -3574 -138 0
-3809 3576 0
-3809 184 0
3809 -3576 -184 0
-3810 3578 0
-3810 190 0
3810 -3578 -190 0
-3811 3794 3795 0
-3811 -3794 -3795 0
3811 -3794 3795 0
3811 3794 -3795 0
-3812 3811 3796 0
-3812 -3811 -3796 0
3812 -3811 3796 0
3812 3811 -3796 0
-3813 3812 3797 0
-3813 -3812 -3797 0
3813 -3812 3797 0
3813 3812 -3797 0
-3814 3813 3798 0
-3814 -3813 -3798 0
3814 -3813 3798 0
3814 3813 -3798 0
-3815 3814 3799 0
-3815 -3814 -3799 0
3815 -3814 3799 0
3815 3814 -3799 0
-3816 3815 3800 0
-3816 -3815 -3800 0
3816 -3815 3800 0
3816 3815 -3800 0
-3817 3816 3801 0
-3817 -3816 -3801 0
3817 -3816 3801 0
3817 3816 -3801 0
-3818 3817 3802 0
-3818 -3817 -3802 0
3818 -3817 3802 0
3818 3817 -3802 0
-3819 3818 3803 0
-3819 -3818 -3803 0
3819 -3818 3803 0
3819 3818 -3803 0
-3820 3819 3804 0
-3820 -3819 -3804 0
3820 -3819 3804 0
3820 3819 -3804 0
-3821 3820 3805 0
-3821 -3820 -3805 0
3821 -3820 3805 0
3821 3820 -3805 0
-3822 3821 3806 0
-3822 -3821 -3806 0
3822 -3821 3806 0
3822 3821 -3806 0
-3823 3822 3807 0
-3823 -3822 -3807 0
3823 -3822 3807 0
3823 3822 -3807 0
-3824 3823 3808 0
-3824 -3823 -3808 0
3824 -3823 3808 0
3824 3823 -3808 0
-3825 3824 3809 0
-3825 -3824 -3809 0
3825 -3824 3809 0
3825 3824 -3809 0
-3826 3825 3810 0
-3826 -3825 -3810 0
3826 -3825 3810 0
3826 3825 -3810 0
-3826 0
-3827 3546 0
-3827 41 0
3827 -3546 -41 0
-3828 3548 0
-3828 45 0
3828 -3548 -45 0
-3829 3550 0
-3829 45 0
3829 -3550 -45 0
-3830 3552 0
-3830 35 0
3830 -3552 -35 0
-3831 3554 0
-3831 36 0
3831 -3554 -36 0
-3832 3556 0
-3832 36 0
3832 -3556 -36 0
-3833 3558 0
-3833 89 0
3833 -3558 -89 0
-3834 3560 0
-3834 93 0
3834 -3560 -93 0
-3835 3562 0
-3835 93 0
3835 -3562 -93 0
-3836 3564 0
-3836 83 0
3836 -3564 -83 0
-3837 3566 0
-3837 84 0
3837 -3566 -84 0
-3838 3568 0
-3838 84 0
3838 -3568 -84 0
-3839 3570 0
-3839 137 0
3839 -3570 -137 0
-3840 3572 0
-3840 141 0
3840 -3572 -141 0
-3841 3574 0
-3841 141 0
3841 -3574 -141 0
-3842 3576 0
-3842 185 0
3842 -3576 -185 0
-3843 3578 0
-3843 179 0
3843 -3578 -179 0
-3844 3827 3828 0
-3844 -3827 -3828 0
3844 -3827 3828 0
3844 3827 -3828 0
-3845 3844 3829 0
-3845 -3844 -3829 0
3845 -3844 3829 0
3845 3844 -3829 0
-3846 3845 3830 0
-3846 -3845 -3830 0
3846 -3845 3830 0
3846 3845 -3830 0
-3847 3846 3831 0
-3847 -3846 -3831 0
3847 -3846 3831 0
3847 3846 -3831 0
-3848 3847 3832 0
-3848 -3847 -3832 0
3848 -3847 3832 0
3848 3847 -3832 0
-3849 3848 3833 0
-3849 -3848 -3833 0
3849 -3848 3833 0
3849 3848 -3833 0
-3850 3849 3834 0
-3850 -3849 -3834 0
3850 -3849 3834 0
3850 3849 -3834 0
-3851 3850 3835 0
-3851 -3850 -3835 0
3851 -3850 3835 0
3851 3850 -3835 0
-3852 3851 3836 0
-3852 -3851 -3836 0
3852 -3851 3836 0
3852 3851 -3836 0
-3853 3852 3837 0
-3853 -3852 -3837 0
3853 -3852 3837 0
3853 3852 -3837 0
-3854 3853 3838 0
-3854 -3853 -3838 0
3854 -3853 3838 0
3854 3853 -3838 0
-3855 3854 3839 0
-3855 -3854 -3839 0
3855 -3854 3839 0
3855 3854 -3839 0
-3856 3855 3840 0
-3856 -3855 -3840 0
3856 -3855 3840 0
3856 3855 -3840 0
-3857 3856 3841 0
-3857 -3856 -3841 0
3857 -3856 3841 0
3857 3856 -3841 0
-3858 3857 3842 0
-3858 -3857 -3842 0
3858 -3857 3842 0
3858 3857 -3842 0
-3859 3858 3843 0
-3859 -3858 -3843 0
3859 -3858 3843 0
3859 3858 -3843 0
-3859 0
-3860 3546 0
-3860 42 0
3860 -3546 -42 0
-3861 3548 0
-3861 46 0
3861 -3548 -46 0
-3862 3550 0
-3862 47 0
3862 -3550 -47 0
-3863 3552 0
-3863 39 0
3863 -3552 -39 0
-3864 3554 0
-3864 40 0
3864 -3554 -40 0
-3865 3556 0
-3865 44 0
3865 -3556 -44 0
-3866 3558 0
-3866 90 0
3866 -3558 -90 0
-3867 3560 0
-3867 94 0
3867 -3560 -94 0
-3868 3562 0
-3868 95 0
3868 -3562 -95 0
-3869 3564 0
-3869 87 0
3869 -3564 -87 0
-3870 3566 0
-3870 88 0
3870 -3566 -88 0
-3871 3568 0
-3871 92 0
3871 -3568 -92 0
-3872 3570 0
-3872 138 0
3872 -3570 -138 0
-3873 3572 0
-3873 142 0
3873 -3572 -142 0
-3874 3574 0
-3874 143 0
3874 -3574 -143 0
-3875 3576 0
-3875 186 0
3875 -3576 -186 0
-3876 3578 0
-3876 183 0
3876 -3578 -183 0
-3877 3860 3861 0
-3877 -3860 -3861 0
3877 -3860 3861 0
3877 3860 -3861 0
-3878 3877 3862 0
-3878 -3877 -3862 0
3878 -3877 3862 0
3878 3877 -3862 0
-3879 3878 3863 0
-3879 -3878 -3863 0
3879 -3878 3863 0
3879 3878 -3863 0
-3880 3879 3864 0
-3880 -3879 -3864 0
3880 -3879 3864 0
3880 3879 -3864 0
-3881 3880 3865 0
-3881 -3880 -3865 0
3881 -3880 3865 0
3881 3880 -3865 0
-3882 3881 3866 0
-3882 -3881 -3866 0
3882 -3881 3866 0
3882 3881 -3866 0
-3883 3882 3867 0
-3883 -3882 -3867 0
3883 -3882 3867 0
3883 3882 -3867 0
-3884 3883 3868 0
-3884 -3883 -3868 0
3884 -3883 3868 0
3884 3883 -3868 0
-3885 3884 3869 0
-3885 -3884 -3869 0
3885 -3884 3869 0
3885 3884 -3869 0
-3886 3885 3870 0
-3886 -3885 -3870 0
3886 -3885 3870 0
3886 3885 -3870 0
-3887 3886 3871 0
-3887 -3886 -3871 0
3887 -3886 3871 0
3887 3886 -3871 0
-3888 3887 3872 0
-3888 -3887 -3872 0
3888 -3887 3872 0
3888 3887 -3872 0
-3889 3888 3873 0
-3889 -3888 -3873 0
3889 -3888 3873 0
3889 3888 -3873 0
-3890 3889 3874 0
-3890 -3889 -3874 0
3890 -3889 3874 0
3890 3889 -3874 0
-3891 3890 3875 0
-3891 -3890 -3875 0
3891 -3890 3875 0
3891 3890 -3875 0
-3892 3891 3876 0
-3892 -3891 -3876 0
3892 -3891 3876 0
3892 3891 -3876 0
-3892 0
-3893 3546 0
-3893 43 0
3893 -3546 -43 0
-3894 3548 0
-3894 48 0
3894 -3548 -48 0
-3895 3550 0
-3895 48 0
3895 -3550 -48 0
-3896 3552 0
-3896 43 0
3896 -3552 -43 0
-3897 3554 0
-3897 48 0
3897 -3554 -48 0
-3898 3556 0
-3898 48 0
3898 -3556 -48 0
-3899 3558 0
-3899 91 0
3899 -3558 -91 0
-3900 3560 0
-3900 96 0
3900 -3560 -96 0
-3901 3562 0
-3901 96 0
3901 -3562 -96 0
-3902 3564 0
-3902 91 0
3902 -3564 -91 0
-3903 3566 0
-3903 96 0
3903 -3566 -96 0
-3904 3568 0
-3904 96 0
3904 -3568 -96 0
-3905 3570 0
-3905 139 0
3905 -3570 -139 0
-3906 3572 0
-3906 144 0
3906 -3572 -144 0
-3907 3574 0
-3907 144 0
3907 -3574 -144 0
-3908 3576 0
-3908 187 0
3908 -3576 -187 0
-3909 3578 0
-3909 187 0
3909 -3578 -187 0
-3910 3893 3894 0
-3910 -3893 -3894 0
3910 -3893 3894 0
3910 3893 -3894 0
-3911 3910 3895 0
-3911 -3910 -3895 0
3911 -3910 3895 0
3911 3910 -3895 0
-3912 3911 3896 0
-3912 -3911 -3896 0
3912 -3911 3896 0
3912 3911 -3896 0
-3913 3912 3897 0
-3913 -3912 -3897 0
3913 -3912 3897 0
3913 3912 -3897 0
-3914 3913 3898 0
-3914 -3913 -3898 0
3914 -3913 3898 0
3914 3913 -3898 0
-3915 3914 3899 0
-3915 -3914 -3899 0
3915 -3914 3899 0
3915 3914 -3899 0
-3916 3915 3900 0
-3916 -3915 -3900 0
3916 -3915 3900 0
3916 3915 -3900 0
-3917 3916 3901 0
-3917 -3916 -3901 0
3917 -3916 3901 0
3917 3916 -3901 0
-3918 3917 3902 0
-3918 -3917 -3902 0
3918 -3917 3902 0
3918 3917 -3902 0
-3919 3918 3903 0
-3919 -3918 -3903 0
3919 -3918 3903 0
3919 3918 -3903 0
-3920 3919 3904 0
-3920 -3919 -3904 0
3920 -3919 3904 0
3920 3919 -3904 0
-3921 3920 3905 0
-3921 -3920 -3905 0
3921 -3920 3905 0
3921 3920 -3905 0
-3922 3921 3906 0
-3922 -3921 -3906 0
3922 -3921 3906 0
3922 3921 -3906 0
-3923 3922 3907 0
-3923 -3922 -3907 0
3923 -3922 3907 0
3923 3922 -3907 0
-3924 3923 3908 0
-3924 -3923 -3908 0
3924 -3923 3908 0
3924 3923 -3908 0
-3925 3924 3909 0
-3925 -3924 -3909 0
3925 -3924 3909 0
3925 3924 -3909 0
-3925 0
-3926 3546 0
-3926 44 0
3926 -3546 -44 0
-3927 3548 0
-3927 47 0
3927 -3548 -47 0
-3928 3550 0
-3928 46 0
3928 -3550 -46 0
-3929 3552 0
-3929 47 0
3929 -3552 -47 0
-3930 3554 0
-3930 44 0
3930 -3554 -44 0
-3931 3556 0
-3931 40 0
3931 -3556 -40 0
-3932 3558 0
-3932 92 0
3932 -3558 -92 0
-3933 3560 0
-3933 95 0
3933 -3560 -95 0
-3934 3562 0
-3934 94 0
3934 -3562 -94 0
-3935 3564 0
-3935 95 0
3935 -3564 -95 0
-3936 3566 0
-3936 92 0
3936 -3566 -92 0
-3937 3568 0
-3937 88 0
3937 -3568 -88 0
-3938 3570 0
-3938 140 0
3938 -3570 -140 0
-3939 3572 0
-3939 143 0
3939 -3572 -143 0
-3940 3574 0
-3940 142 0
3940 -3574 -142 0
-3941 3576 0
-3941 188 0
3941 -3576 -188 0
-3942 3578 0
-3942 191 0
3942 -3578 -191 0
-3943 3926 3927 0
-3943 -3926 -3927 0
3943 -3926 3927 0
3943 3926 -3927 0
-3944 3943 3928 0
-3944 -3943 -3928 0
3944 -3943 3928 0
3944 3943 -3928 0
-3945 3944 3929 0
-3945 -3944 -3929 0
3945 -3944 3929 0
3945 3944 -3929 0
-3946 3945 3930 0
-3946 -3945 -3930 0
3946 -3945 3930 0
3946 3945 -3930 0
-3947 3946 3931 0
-3947 -3946 -3931 0
3947 -3946 3931 0
3947 3946 -3931 0
-3948 3947 3932 0
-3948 -3947 -3932 0
3948 -3947 3932 0
3948 3947 -3932 0
-3949 3948 3933 0
-3949 -3948 -3933 0
3949 -3948 3933 0
3949 3948 -3933 0
-3950 3949 3934 0
-3950 -3949 -3934 0
3950 -3949 3934 0
3950 3949 -3934 0
-3951 3950 3935 0
-3951 -3950 -3935 0
3951 -3950 3935 0
3951 3950 -3935 0
-3952 3951 3936 0
-3952 -3951 -3936 0
3952 -3951 3936 0
3952 3951 -3936 0
-3953 3952 3937 0
-3953 -3952 -3937 0
3953 -3952 3937 0
3953 3952 -3937 0
-3954 3953 3938 0
-3954 -3953 -3938 0
3954 -3953 3938 0
3954 3953 -3938 0
-3955 3954 3939 0
-3955 -3954 -3939 0
3955 -3954 3939 0
3955 3954 -3939 0
-3956 3955 3940 0
-3956 -3955 -3940 0
3956 -3955 3940 0
3956 3955 -3940 0
-3957 3956 3941 0
-3957 -3956 -3941 0
3957 -3956 3941 0
3957 3956 -3941 0
-3958 3957 3942 0
-3958 -3957 -3942 0
3958 -3957 3942 0
3958 3957 -3942 0
-3958 0
-3959 3546 0
-3959 45 0
3959 -3546 -45 0
-3960 3548 0
-3960 41 0
3960 -3548 -41 0
-3961 3550 0
-3961 37 0
3961 -3550 -37 0
-3962 3552 0
-3962 36 0
3962 -3552 -36 0
-3963 3554 0
-3963 35 0
3963 -3554 -35 0
-3964 3556 0
-3964 34 0
3964 -3556 -34 0
-3965 3558 0
-3965 93 0
3965 -3558 -93 0
-3966 3560 0
-3966 89 0
3966 -3560 -89 0
-3967 3562 0
-3967 85 0
3967 -3562 -85 0
-3968 3564 0
-3968 84 0
3968 -3564 -84 0
-3969 3566 0
-3969 83 0
3969 -3566 -83 0
-3970 3568 0
-3970 82 0
3970 -3568 -82 0
-3971 3570 0
-3971 141 0
3971 -3570 -141 0
-3972 3572 0
-3972 137 0
3972 -3572 -137 0
-3973 3574 0
-3973 133 0
3973 -3574 -133 0
-3974 3576 0
-3974 189 0
3974 -3576 -189 0
-3975 3578 0
-3975 180 0
3975 -3578 -180 0
-3976 3959 3960 0
-3976 -3959 -3960 0
3976 -3959 3960 0
3976 3959 -3960 0
-3977 3976 3961 0
-3977 -3976 -3961 0
3977 -3976 3961 0
3977 3976 -3961 0
-3978 3977 3962 0
-3978 -3977 -3962 0
3978 -3977 3962 0
3978 3977 -3962 0
-3979 3978 3963 0
-3979 -3978 -3963 0
3979 -3978 3963 0
3979 3978 -3963 0
-3980 3979 3964 0
-3980 -3979 -3964 0
3980 -3979 3964 0
3980 3979 -3964 0
-3981 3980 3965 0
-3981 -3980 -3965 0
3981 -3980 3965 0
3981 3980 -3965 0
-3982 3981 3966 0
-3982 -3981 -3966 0
3982 -3981 3966 0
3982 3981 -3966 0
-3983 3982 3967 0
-3983 -3982 -3967 0
3983 -3982 3967 0
3983 3982 -3967 0
-3984 3983 3968 0
-3984 -3983 -3968 0
3984 -3983 3968 0
3984 3983 -3968 0
-3985 3984 3969 0
-3985 -3984 -3969 0
3985 -3984 3969 0
3985 3984 -3969 0
-3986 3985 3970 0
-3986 -3985 -3970 0
3986 -3985 3970 0
3986 3985 -3970 0
-3987 3986 3971 0
-3987 -3986 -3971 0
3987 -3986 3971 0
3987 3986 -3971 0
-3988 3987 3972 0
-3988 -3987 -3972 0
3988 -3987 3972 0
3988 3987 -3972 0
-3989 3988 3973 0
-3989 -3988 -3973 0
3989 -3988 3973 0
3989 3988 -3973 0
-3990 3989 3974 0
-3990 -3989 -3974 0
3990 -3989 3974 0
3990 3989 -3974 0
-3991 3990 3975 0
-3991 -3990 -3975 0
3991 -3990 3975 0
3991 3990 -3975 0
-3991 0
-3992 3546 0
-3992 46 0
3992 -3546 -46 0
-3993 3548 0
-3993 42 0
3993 -3548 -42 0
-3994 3550 0
-3994 39 0
3994 -3550 -39 0
-3995 3552 0
-3995 40 0
3995 -3552 -40 0
-3996 3554 0
-3996 39 0
3996 -3554 -39 0
-3997 3556 0
-3997 42 0
3997 -3556 -42 0
-3998 3558 0
-3998 94 0
3998 -3558 -94 0
-3999 3560 0
-3999 90 0
3999 -3560 -90 0
-4000 3562 0
-4000 87 0
4000 -3562 -87 0
-4001 3564 0
-4001 88 0
4001 -3564 -88 0
-4002 3566 0
-4002 87 0
4002 -3566 -87 0
-4003 3568 0
-4003 90 0
4003 -3568 -90 0
-4004 3570 0
-4004 142 0
4004 -3570 -142 0
-4005 3572 0
-4005 138 0
4005 -3572 -138 0
-4006 3574 0
-4006 135 0
4006 -3574 -135 0
-4007 3576 0
-4007 190 0
4007 -3576 -190 0
-4008 3578 0
-4008 184 0
4008 -3578 -184 0
-4009 3992 3993 0
-4009 -3992 -3993 0
4009 -3992 3993 0
4009 3992 -3993 0
-4010 4009 3994 0
-4010 -4009 -3994 0
4010 -4009 3994 0
4010 4009 -3994 0
-4011 4010 3995 0
-4011 -4010 -3995 0
4011 -4010 3995 0
4011 4010 -3995 0
-4012 4011 3996 0
-4012 -4011 -3996 0
4012 -4011 3996 0
4012 4011 -3996 0
-4013 4012 3997 0
-4013 -4012 -3997 0
4013 -4012 3997 0
4013 4012 -3997 0
-4014 4013 3998 0
-4014 -4013 -3998 0
4014 -4013 3998 0
4014 4013 -3998 0
-4015 4014 3999 0
-4015 -4014 -3999 0
4015 -4014 3999 0
4015 4014 -3999 0
-4016 4015 4000 0
-4016 -4015 -4000 0
4016 -4015 4000 0
4016 4015 -4000 0
-4017 4016 4001 0
-4017 -4016 -4001 0
4017 -4016 4001 0
4017 4016 -4001 0
-4018 4017 4002 0
-4018 -4017 -4002 0
4018 -4017 4002 0
4018 4017 -4002 0
-4019 4018 4003 0
-4019 -4018 -4003 0
4019 -4018 4003 0
4019 4018 -4003 0
-4020 4019 4004 0
-4020 -4019 -4004 0
4020 -4019 4004 0
4020 4019 -4004 0
-4021 4020 4005 0
-4021 -4020 -4005 0
4021 -4020 4005 0
4021 4020 -4005 0
-4022 4021 4006 0
-4022 -4021 -4006 0
4022 -4021 4006 0
4022 4021 -4006 0
-4023 4022 4007 0
-4023 -4022 -4007 0
4023 -4022 4007 0
4023 4022 -4007 0
-4024 4023 4008 0
-4024 -4023 -4008 0
4024 -4023 4008 0
4024 4023 -4008 0
-4024 0
-4025 3546 0
-4025 47 0
4025 -3546 -47 0
-4026 3548 0
-4026 44 0
4026 -3548 -44 0
-4027 3550 0
-4027 40 0
4027 -3550 -40 0
-4028 3552 0
-4028 44 0
4028 -3552 -44 0
-4029 3554 0
-4029 47 0
4029 -3554 -47 0
-4030 3556 0
-4030 46 0
4030 -3556 -46 0
-4031 3558 0
-4031 95 0
4031 -3558 -95 0
-4032 3560 0
-4032 92 0
4032 -3560 -92 0
-4033 3562 0
-4033 88 0
4033 -3562 -88 0
-4034 3564 0
-4034 92 0
4034 -3564 -92 0
-4035 3566 0
-4035 95 0
4035 -3566 -95 0
-4036 3568 0
-4036 94 0
4036 -3568 -94 0
-4037 3570 0
-4037 143 0
4037 -3570 -143 0
-4038 3572 0
-4038 140 0
4038 -3572 -140 0
-4039 3574 0
-4039 136 0
4039 -3574 -136 0
-4040 3576 0
-4040 191 0
4040 -3576 -191 0
-4041 3578 0
-4041 188 0
4041 -3578 -188 0
-4042 4025 4026 0
-4042 -4025 -4026 0
4042 -4025 4026 0
4042 4025 -4026 0
-4043 4042 4027 0
-4043 -4042 -4027 0
4043 -4042 4027 0
4043 4042 -4027 0
-4044 4043 4028 0
-4044 -4043 -4028 0
4044 -4043 4028 0
4044 4043 -4028 0
-4045 4044 4029 0
-4045 -4044 -4029 0
4045 -4044 4029 0
4045 4044 -4029 0
-4046 4045 4030 0
-4046 -4045 -4030 0
4046 -4045 4030 0
4046 4045 -4030 0
-4047 4046 4031 0
-4047 -4046 -4031 0
4047 -4046 4031 0
4047 4046 -4031 0
-4048 4047 4032 0
-4048 -4047 -4032 0
4048 -4047 4032 0
4048 4047 -4032 0
-4049 4048 4033 0
-4049 -4048 -4033 0
4049 -4048 4033 0
4049 4048 -4033 0
-4050 4049 4034 0
-4050 -4049 -4034 0
4050 -4049 4034 0
4050 4049 -4034 0
-4051 4050 4035 0
-4051 -4050 -4035 0
4051 -4050 4035 0
4051 4050 -4035 0
-4052 4051 4036 0
-4052 -4051 -4036 0
4052 -4051 4036 0
4052 4051 -4036 0
-4053 4052 4037 0
-4053 -4052 -4037 0
4053 -4052 4037 0
4053 4052 -4037 0
-4054 4053 4038 0
-4054 -4053 -4038 0
4054 -4053 4038 0
4054 4053 -4038 0
-4055 4054 4039 0
-4055 -4054 -4039 0
4055 -4054 4039 0
4055 4054 -4039 0
-4056 4055 4040 0
-4056 -4055 -4040 0
4056 -4055 4040 0
4056 4055 -4040 0
-4057 4056 4041 0
-4057 -4056 -4041 0
4057 -4056 4041 0
4057 4056 -4041 0
-4057 0
-4058 3546 0
-4058 48 0
4058 -3546 -48 0
-4059 3548 0
-4059 43 0
4059 -3548 -43 0
-4060 3550 0
-4060 38 0
4060 -3550 -38 0
-4061 3552 0
-4061 48 0
4061 -3552 -48 0
-4062 3554 0
-4062 43 0
4062 -3554 -43 0
-4063 3556 0
-4063 38 0
4063 -3556 -38 0
-4064 3558 0
-4064 96 0
4064 -3558 -96 0
-4065 3560 0
-4065 91 0
4065 -3560 -91 0
-4066 3562 0
-4066 86 0
4066 -3562 -86 0
-4067 3564 0
-4067 96 0
4067 -3564 -96 0
-4068 3566 0
-4068 91 0
4068 -3566 -91 0
-4069 3568 0
-4069 86 0
4069 -3568 -86 0
-4070 3570 0
-4070 144 0
4070 -3570 -144 0
-4071 3572 0
-4071 139 0
4071 -3572 -139 0
-4072 3574 0
-4072 134 0
4072 -3574 -134 0
-4073 3576 0
-4073 192 0
4073 -3576 -192 0
-4074 3578 0
-4074 192 0
4074 -3578 -192 0
-4075 4058 4059 0
-4075 -4058 -4059 0
4075 -4058 4059 0
4075 4058 -4059 0
-4076 4075 4060 0
-4076 -4075 -4060 0
4076 -4075 4060 0
4076 4075 -4060 0
-4077 4076 4061 0
-4077 -4076 -4061 0
4077 -4076 4061 0
4077 4076 -4061 0
-4078 4077 4062 0
-4078 -4077 -4062 0
4078 -4077 4062 0
4078 4077 -4062 0
-4079 4078 4063 0
-4079 -4078 -4063 0
4079 -4078 4063 0
4079 4078 -4063 0
-4080 4079 4064 0
-4080 -4079 -4064 0
4080 -4079 4064 0
4080 4079 -4064 0
-4081 4080 4065 0
-4081 -4080 -4065 0
4081 -4080 4065 0
4081 4080 -4065 0
-4082 4081 4066 0
-4082 -4081 -4066 0
4082 -4081 4066 0
4082 4081 -4066 0
-4083 4082 4067 0
-4083 -4082 -4067 0
4083 -4082 4067 0
4083 4082 -4067 0
-4084 4083 4068 0
-4084 -4083 -4068 0
4084 -4083 4068 0
4084 4083 -4068 0
-4085 4084 4069 0
-4085 -4084 -4069 0
4085 -4084 4069 0
4085 4084 -4069 0
-4086 4085 4070 0
-4086 -4085 -4070 0
4086 -4085 4070 0
4086 4085 -4070 0
-4087 4086 4071 0
-4087 -4086 -4071 0
4087 -4086 4071 0
4087 4086 -4071 0
-4088 4087 4072 0
-4088 -4087 -4072 0
4088 -4087 4072 0
4088 4087 -4072 0
-4089 4088 4073 0
-4089 -4088 -4073 0
4089 -4088 4073 0
4089 4088 -4073 0
-4090 4089 4074 0
-4090 -4089 -4074 0
4090 -4089 4074 0
4090 4089 -4074 0
-4090 0
-4091 1 0
-4091 31 0
4091 -1 -31 0
-4092 4091 0
-4092 33 0
4092 -4091 -33 0
-4093 2 0
-4093 32 0
4093 -2 -32 0
-4094 4093 0
-4094 33 0
4094 -4093 -33 0
-4095 17 0
-4095 12 0
4095 -17 -12 0
-4096 4095 0
-4096 33 0
4096 -4095 -33 0
-4097 21 0
-4097 16 0
4097 -21 -16 0
-4098 4097 0
-4098 33 0
4098 -4097 -33 0
-4099 49 0
-4099 79 0
4099 -49 -79 0
-4100 4099 0
-4100 81 0
4100 -4099 -81 0
-4101 50 0
-4101 80 0
4101 -50 -80 0
-4102 4101 0
-4102 81 0
4102 -4101 -81 0
-4103 65 0
-4103 60 0
4103 -65 -60 0
-4104 4103 0
-4104 81 0
4104 -4103 -81 0
-4105 69 0
-4105 64 0
4105 -69 -64 0
-4106 4105 0
-4106 81 0
4106 -4105 -81 0
-4107 97 0
-4107 127 0
4107 -97 -127 0
-4108 4107 0
-4108 129 0
4108 -4107 -129 0
-4109 98 0
-4109 128 0
4109 -98 -128 0
-4110 4109 0
-4110 129 0
4110 -4109 -129 0
-4111 145 0
-4111 175 0
4111 -145 -175 0
-4112 4111 0
-4112 177 0
4112 -4111 -177 0
-4113 161 0
-4113 156 0
4113 -161 -156 0
-4114 4113 0
-4114 177 0
4114 -4113 -177 0
-4115 4092 4094 0
-4115 -4092 -4094 0
4115 -4092 4094 0
4115 4092 -4094 0
-4116 4115 4094 0
-4116 -4115 -4094 0
4116 -4115 4094 0
4116 4115 -4094 0
-4117 4116 4096 0
-4117 -4116 -4096 0
4117 -4116 4096 0
4117 4116 -4096 0
-4118 4117 4098 0
-4118 -4117 -4098 0
4118 -4117 4098 0
4118 4117 -4098 0
-4119 4118 4098 0
-4119 -4118 -4098 0
4119 -4118 4098 0
4119 4118 -4098 0
-4120 4119 4100 0
-4120 -4119 -4100 0
4120 -4119 4100 0
4120 4119 -4100 0
-4121 4120 4102 0
-4121 -4120 -4102 0
4121 -4120 4102 0
4121 4120 -4102 0
-4122 4121 4102 0
-4122 -4121 -4102 0
4122 -4121 4102 0
4122 4121 -4102 0
-4123 4122 4104 0
-4123 -4122 -4104 0
4123 -4122 4104 0
4123 4122 -4104 0
-4124 4123 4106 0
-4124 -4123 -4106 0
4124 -4123 4106 0
4124 4123 -4106 0
-4125 4124 4106 0
-4125 -4124 -4106 0
4125 -4124 4106 0
4125 4124 -4106 0
-4126 4125 4108 0
-4126 -4125 -4108 0
4126 -4125 4108 0
4126 4125 -4108 0
-4127 4126 4110 0
-4127 -4126 -4110 0
4127 -4126 4110 0
4127 4126 -4110 0
-4128 4127 4110 0
-4128 -4127 -4110 0
4128 -4127 4110 0
4128 4127 -4110 0
-4129 4128 4112 0
-4129 -4128 -4112 0
4129 -4128 4112 0
4129 4128 -4112 0
-4130 4129 4114 0
-4130 -4129 -4114 0
4130 -4129 4114 0
4130 4129 -4114 0
-4130 0
-4131 4091 0
-4131 34 0
4131 -4091 -34 0
-4132 4093 0
-4132 34 0
4132 -4093 -34 0
-4133 4093 0
-4133 35 0
4133 -4093 -35 0
-4134 4095 0
-4134 37 0
4134 -4095 -37 0
-4135 4097 0
-4135 37 0
4135 -4097 -37 0
-4136 4097 0
-4136 41 0
4136 -4097 -41 0
-4137 4099 0
-4137 82 0
4137 -4099 -82 0
-4138 4101 0
-4138 82 0
4138 -4101 -82 0
-4139 4101 0
-4139 83 0
4139 -4101 -83 0
-4140 4103 0
-4140 85 0
4140 -4103 -85 0
-4141 4105 0
-4141 85 0
4141 -4105 -85 0
-4142 4105 0
-4142 89 0
4142 -4105 -89 0
-4143 4107 0
-4143 130 0
4143 -4107 -130 0
-4144 4109 0
-4144 130 0
4144 -4109 -130 0
-4145 4109 0
-4145 131 0
4145 -4109 -131 0
-4146 4111 0
-4146 178 0
4146 -4111 -178 0
-4147 4113 0
-4147 181 0
4147 -4113 -181 0
-4148 4131 4132 0
-4148 -4131 -4132 0
4148 -4131 4132 0
4148 4131 -4132 0
-4149 4148 4133 0
-4149 -4148 -4133 0
4149 -4148 4133 0
4149 4148 -4133 0
-4150 4149 4134 0
-4150 -4149 -4134 0
4150 -4149 4134 0
4150 4149 -4134 0
-4151 4150 4135 0
-4151 -4150 -4135 0
4151 -4150 4135 0
4151 4150 -4135 0
-4152 4151 4136 0
-4152 -4151 -4136 0
4152 -4151 4136 0
4152 4151 -4136 0
-4153 4152 4137 0
-4153 -4152 -4137 0
4153 -4152 4137 0
4153 4152 -4137 0
-4154 4153 4138 0
-4154 -4153 -4138 0
4154 -4153 4138 0
4154 4153 -4138 0
-4155 4154 4139 0
-4155 -4154 -4139 0
4155 -4154 4139 0
4155 4154 -4139 0
-4156 4155 4140 0
-4156 -4155 -4140 0
4156 -4155 4140 0
4156 4155 -4140 0
-4157 4156 4141 0
-4157 -4156 -4141 0
4157 -4156 4141 0
4157 4156 -4141 0
-4158 4157 4142 0
-4158 -4157 -4142 0
4158 -4157 4142 0
4158 4157 -4142 0
-4159 4158 4143 0
-4159 -4158 -4143 0
4159 -4158 4143 0
4159 4158 -4143 0
-4160 4159 4144 0
-4160 -4159 -4144 0
4160 -4159 4144 0
4160 4159 -4144 0
-4161 4160 4145 0
-4161 -4160 -4145 0
4161 -4160 4145 0
4161 4160 -4145 0
-4162 4161 4146 0
-4162 -4161 -4146 0
4162 -4161 4146 0
4162 4161 -4146 0
-4163 4162 4147 0
-4163 -4162 -4147 0
4163 -4162 4147 0
4163 4162 -4147 0
-4163 0
-4164 4091 0
-4164 35 0
4164 -4091 -35 0
-4165 4093 0
-4165 36 0
4165 -4093 -36 0
-4166 4095 0
-4166 41 0
4166 -4095 -41 0
-4167 4097 0
-4167 45 0
4167 -4097 -45 0
-4168 4099 0
-4168 83 0
4168 -4099 -83 0
-4169 4101 0
-4169 84 0
4169 -4101 -84 0
-4170 4103 0
-4170 89 0
4170 -4103 -89 0
-4171 4105 0
-4171 93 0
4171 -4105 -93 0
-4172 4107 0
-4172 131 0
4172 -4107 -131 0
-4173 4109 0
-4173 132 0
4173 -4109 -132 0
-4174 4111 0
-4174 179 0
4174 -4111 -179 0
-4175 4113 0
-4175 185 0
4175 -4113 -185 0
-4176 4164 4165 0
-4176 -4164 -4165 0
4176 -4164 4165 0
4176 4164 -4165 0
-4177 4176 4165 0
-4177 -4176 -4165 0
4177 -4176 4165 0
4177 4176 -4165 0
-4178 4177 4166 0
-4178 -4177 -4166 0
4178 -4177 4166 0
4178 4177 -4166 0
-4179 4178 4167 0
-4179 -4178 -4167 0
4179 -4178 4167 0
4179 4178 -4167 0
-4180 4179 4167 0
-4180 -4179 -4167 0
4180 -4179 4167 0
4180 4179 -4167 0
-4181 4180 4168 0
-4181 -4180 -4168 0
4181 -4180 4168 0
4181 4180 -4168 0
-4182 4181 4169 0
-4182 -4181 -4169 0
4182 -4181 4169 0
4182 4181 -4169 0
-4183 4182 4169 0
-4183 -4182 -4169 0
4183 -4182 4169 0
4183 4182 -4169 0
-4184 4183 4170 0
-4184 -4183 -4170 0
4184 -4183 4170 0
4184 4183 -4170 0
-4185 4184 4171 0
-4185 -4184 -4171 0
4185 -4184 4171 0
4185 4184 -4171 0
-4186 4185 4171 0
-4186 -4185 -4171 0
4186 -4185 4171 0
4186 4185 -4171 0
-4187 4186 4172 0
-4187 -4186 -4172 0
4187 -4186 4172 0
4187 4186 -4172 0
-4188 4187 4173 0
-4188 -4187 -4173 0
4188 -4187 4173 0
4188 4187 -4173 0
-4189 4188 4173 0
-4189 -4188 -4173 0
4189 -4188 4173 0
4189 4188 -4173 0
-4190 4189 4174 0
-4190 -4189 -4174 0
4190 -4189 4174 0
4190 4189 -4174 0
-4191 4190 4175 0
-4191 -4190 -4175 0
4191 -4190 4175 0
4191 4190 -4175 0
-4191 0
-4192 4091 0
-4192 37 0
4192 -4091 -37 0
-4193 4093 0
-4193 37 0
4193 -4093 -37 0
-4194 4093 0
-4194 41 0
4194 -4093 -41 0
-4195 4095 0
-4195 34 0
4195 -4095 -34 0
-4196 4097 0
-4196 34 0
4196 -4097 -34 0
-4197 4097 0
-4197 35 0
4197 -4097 -35 0
-4198 4099 0
-4198 85 0
4198 -4099 -85 0
-4199 4101 0
-4199 85 0
4199 -4101 -85 0
-4200 4101 0
-4200 89 0
4200 -4101 -89 0
-4201 4103 0
-4201 82 0
4201 -4103 -82 0
-4202 4105 0
-4202 82 0
4202 -4105 -82 0
-4203 4105 0
-4203 83 0
4203 -4105 -83 0
-4204 4107 0
-4204 133 0
4204 -4107 -133 0
-4205 4109 0
-4205 133 0
4205 -4109 -133 0
-4206 4109 0
-4206 137 0
4206 -4109 -137 0
-4207 4111 0
-4207 181 0
4207 -4111 -181 0
-4208 4113 0
-4208 178 0
4208 -4113 -178 0
-4209 4192 4193 0
-4209 -4192 -4193 0
4209 -4192 4193 0
4209 4192 -4193 0
-4210 4209 4194 0
-4210 -4209 -4194 0
4210 -4209 4194 0
4210 4209 -4194 0
-4211 4210 4195 0
-4211 -4210 -4195 0
4211 -4210 4195 0
4211 4210 -4195 0
-4212 4211 4196 0
-4212 -4211 -4196 0
4212 -4211 4196 0
4212 4211 -4196 0
-4213 4212 4197 0
-4213 -4212 -4197 0
4213 -4212 4197 0
4213 4212 -4197 0
-4214 4213 4198 0
-4214 -4213 -4198 0
4214 -4213 4198 0
4214 4213 -4198 0
-4215 4214 4199 0
-4215 -4214 -4199 0
4215 -4214 4199 0
4215 4214 -4199 0
-4216 4215 4200 0
-4216 -4215 -4200 0
4216 -4215 4200 0
4216 4215 -4200 0
-4217 4216 4201 0
-4217 -4216 -4201 0
4217 -4216 4201 0
4217 4216 -4201 0
-4218 4217 4202 0
-4218 -4217 -4202 0
4218 -4217 4202 0
4218 4217 -4202 0
-4219 4218 4203 0
-4219 -4218 -4203 0
4219 -4218 4203 0
4219 4218 -4203 0
-4220 4219 4204 0
-4220 -4219 -4204 0
4220 -4219 4204 0
4220 4219 -4204 0
-4221 4220 4205 0
-4221 -4220 -4205 0
4221 -4220 4205 0
4221 4220 -4205 0
-4222 4221 4206 0
-4222 -4221 -4206 0
4222 -4221 4206 0
4222 4221 -4206 0
-4223 4222 4207 0
-4223 -4222 -4207 0
4223 -4222 4207 0
4223 4222 -4207 0
-4224 4223 4208 0
-4224 -4223 -4208 0
4224 -4223 4208 0
4224 4223 -4208 0
-4224 0
-4225 4091 0
-4225 38 0
4225 -4091 -38 0
-4226 4093 0
-4226 38 0
4226 -4093 -38 0
-4227 4093 0
-4227 43 0
4227 -4093 -43 0
-4228 4095 0
-4228 38 0
4228 -4095 -38 0
-4229 4097 0
-4229 38 0
4229 -4097 -38 0
-4230 4097 0
-4230 43 0
4230 -4097 -43 0
-4231 4099 0
-4231 86 0
4231 -4099 -86 0
-4232 4101 0
-4232 86 0
4232 -4101 -86 0
-4233 4101 0
-4233 91 0
4233 -4101 -91 0
-4234 4103 0
-4234 86 0
4234 -4103 -86 0
-4235 4105 0
-4235 86 0
4235 -4105 -86 0
-4236 4105 0
-4236 91 0
4236 -4105 -91 0
-4237 4107 0
-4237 134 0
4237 -4107 -134 0
-4238 4109 0
-4238 134 0
4238 -4109 -134 0
-4239 4109 0
-4239 139 0
4239 -4109 -139 0
-4240 4111 0
-4240 182 0
4240 -4111 -182 0
-4241 4113 0
-4241 182 0
4241 -4113 -182 0
-4242 4225 4226 0
-4242 -4225 -4226 0
4242 -4225 4226 0
4242 4225 -4226 0
-4243 4242 4227 0
-4243 -4242 -4227 0
4243 -4242 4227 0
4243 4242 -4227 0
-4244 4243 4228 0
-4244 -4243 -4228 0
4244 -4243 4228 0
4244 4243 -4228 0
-4245 4244 4229 0
-4245 -4244 -4229 0
4245 -4244 4229 0
4245 4244 -4229 0
-4246 4245 4230 0
-4246 -4245 -4230 0
4246 -4245 4230 0
4246 4245 -4230 0
-4247 4246 4231 0
-4247 -4246 -4231 0
4247 -4246 4231 0
4247 4246 -4231 0
-4248 4247 4232 0
-4248 -4247 -4232 0
4248 -4247 4232 0
4248 4247 -4232 0
-4249 4248 4233 0
-4249 -4248 -4233 0
4249 -4248 4233 0
4249 4248 -4233 0
-4250 4249 4234 0
-4250 -4249 -4234 0
4250 -4249 4234 0
4250 4249 -4234 0
-4251 4250 4235 0
-4251 -4250 -4235 0
4251 -4250 4235 0
4251 4250 -4235 0
-4252 4251 4236 0
-4252 -4251 -4236 0
4252 -4251 4236 0
4252 4251 -4236 0
-4253 4252 4237 0
-4253 -4252 -4237 0
4253 -4252 4237 0
4253 4252 -4237 0
-4254 4253 4238 0
-4254 -4253 -4238 0
4254 -4253 4238 0
4254 4253 -4238 0
-4255 4254 4239 0
-4255 -4254 -4239 0
4255 -4254 4239 0
4255 4254 -4239 0
-4256 4255 4240 0
-4256 -4255 -4240 0
4256 -4255 4240 0
4256 4255 -4240 0
-4257 4256 4241 0
-4257 -4256 -4241 0
4257 -4256 4241 0
4257 4256 -4241 0
-4257 0
-4258 4091 0
-4258 39 0
4258 -4091 -39 0
-4259 4093 0
-4259 40 0
4259 -4093 -40 0
-4260 4093 0
-4260 44 0
4260 -4093 -44 0
-4261 4095 0
-4261 42 0
4261 -4095 -42 0
-4262 4097 0
-4262 46 0
4262 -4097 -46 0
-4263 4097 0
-4263 47 0
4263 -4097 -47 0
-4264 4099 0
-4264 87 0
4264 -4099 -87 0
-4265 4101 0
-4265 88 0
4265 -4101 -88 0
-4266 4101 0
-4266 92 0
4266 -4101 -92 0
-4267 4103 0
-4267 90 0
4267 -4103 -90 0
-4268 4105 0
-4268 94 0
4268 -4105 -94 0
-4269 4105 0
-4269 95 0
4269 -4105 -95 0
-4270 4107 0
-4270 135 0
4270 -4107 -135 0
-4271 4109 0
-4271 136 0
4271 -4109 -136 0
-4272 4109 0
-4272 140 0
4272 -4109 -140 0
-4273 4111 0
-4273 183 0
4273 -4111 -183 0
-4274 4113 0
-4274 186 0
4274 -4113 -186 0
-4275 4258 4259 0
-4275 -4258 -4259 0
4275 -4258 4259 0
4275 4258 -4259 0
-4276 4275 4260 0
-4276 -4275 -4260 0
4276 -4275 4260 0
4276 4275 -4260 0
-4277 4276 4261 0
-4277 -4276 -4261 0
4277 -4276 4261 0
4277 4276 -4261 0
-4278 4277 4262 0
-4278 -4277 -4262 0
4278 -4277 4262 0
4278 4277 -4262 0
-4279 4278 4263 0
-4279 -4278 -4263 0
4279 -4278 4263 0
4279 4278 -4263 0
-4280 4279 4264 0
-4280 -4279 -4264 0
4280 -4279 4264 0
4280 4279 -4264 0
-4281 4280 4265 0
-4281 -4280 -4265 0
4281 -4280 4265 0
4281 4280 -4265 0
-4282 4281 4266 0
-4282 -4281 -4266 0
4282 -4281 4266 0
4282 4281 -4266 0
-4283 4282 4267 0
-4283 -4282 -4267 0
4283 -4282 4267 0
4283 4282 -4267 0
-4284 4283 4268 0
-4284 -4283 -4268 0
4284 -4283 4268 0
4284 4283 -4268 0
-4285 4284 4269 0
-4285 -4284 -4269 0
4285 -4284 4269 0
4285 4284 -4269 0
-4286 4285 4270 0
-4286 -4285 -4270 0
4286 -4285 4270 0
4286 4285 -4270 0
-4287 4286 4271 0
-4287 -4286 -4271 0
4287 -4286 4271 0
4287 4286 -4271 0
-4288 4287 4272 0
-4288 -4287 -4272 0
4288 -4287 4272 0
4288 4287 -4272 0
-4289 4288 4273 0
-4289 -4288 -4273 0
4289 -4288 4273 0
4289 4288 -4273 0
-4290 4289 4274 0
-4290 -4289 -4274 0
4290 -4289 4274 0
4290 4289 -4274 0
-4290 0
-4291 4091 0
-4291 40 0
4291 -4091 -40 0
-4292 4093 0
-4292 39 0
4292 -4093 -39 0
-4293 4093 0
-4293 42 0
4293 -4093 -42 0
-4294 4095 0
-4294 46 0
4294 -4095 -46 0
-4295 4097 0
-4295 42 0
4295 -4097 -42 0
-4296 4097 0
-4296 39 0
4296 -4097 -39 0
-4297 4099 0
-4297 88 0
4297 -4099 -88 0
-4298 4101 0
-4298 87 0
4298 -4101 -87 0
-4299 4101 0
-4299 90 0
4299 -4101 -90 0
-4300 4103 0
-4300 94 0
4300 -4103 -94 0
-4301 4105 0
-4301 90 0
4301 -4105 -90 0
-4302 4105 0
-4302 87 0
4302 -4105 -87 0
-4303 4107 0
-4303 136 0
4303 -4107 -136 0
-4304 4109 0
-4304 135 0
4304 -4109 -135 0
-4305 4109 0
-4305 138 0
4305 -4109 -138 0
-4306 4111 0
-4306 184 0
4306 -4111 -184 0
-4307 4113 0
-4307 190 0
4307 -4113 -190 0
-4308 4291 4292 0
-4308 -4291 -4292 0
4308 -4291 4292 0
4308 4291 -4292 0
-4309 4308 4293 0
-4309 -4308 -4293 0
4309 -4308 4293 0
4309 4308 -4293 0
-4310 4309 4294 0
-4310 -4309 -4294 0
4310 -4309 4294 0
4310 4309 -4294 0
-4311 4310 4295 0
-4311 -4310 -4295 0
4311 -4310 4295 0
4311 4310 -4295 0
-4312 4311 4296 0
-4312 -4311 -4296 0
4312 -4311 4296 0
4312 4311 -4296 0
-4313 4312 4297 0
-4313 -4312 -4297 0
4313 -4312 4297 0
4313 4312 -4297 0
-4314 4313 4298 0
-4314 -4313 -4298 0
4314 -4313 4298 0
4314 4313 -4298 0
-4315 4314 4299 0
-4315 -4314 -4299 0
4315 -4314 4299 0
4315 4314 -4299 0
-4316 4315 4300 0
-4316 -4315 -4300 0
4316 -4315 4300 0
4316 4315 -4300 0
-4317 4316 4301 0
-4317 -4316 -4301 0
4317 -4316 4301 0
4317 4316 -4301 0
-4318 4317 4302 0
-4318 -4317 -4302 0
4318 -4317 4302 0
4318 4317 -4302 0
-4319 4318 4303 0
-4319 -4318 -4303 0
4319 -4318 4303 0
4319 4318 -4303 0
-4320 4319 4304 0
-4320 -4319 -4304 0
4320 -4319 4304 0
4320 4319 -4304 0
-4321 4320 4305 0
-4321 -4320 -4305 0
4321 -4320 4305 0
4321 4320 -4305 0
-4322 4321 4306 0
-4322 -4321 -4306 0
4322 -4321 4306 0
4322 4321 -4306 0
-4323 4322 4307 0
-4323 -4322 -4307 0
4323 -4322 4307 0
4323 4322 -4307 0
-4323 0
-4324 4091 0
-4324 41 0
4324 -4091 -41 0
-4325 4093 0
-4325 45 0
4325 -4093 -45 0
-4326 4095 0
-4326 35 0
4326 -4095 -35 0
-4327 4097 0
-4327 36 0
4327 -4097 -36 0
-4328 4099 0
-4328 89 0
4328 -4099 -89 0
-4329 4101 0
-4329 93 0
4329 -4101 -93 0
-4330 4103 0
-4330 83 0
4330 -4103 -83 0
-4331 4105 0
-4331 84 0
4331 -4105 -84 0
-4332 4107 0
-4332 137 0
4332 -4107 -137 0
-4333 4109 0
-4333 141 0
4333 -4109 -141 0
-4334 4111 0
-4334 185 0
4334 -4111 -185 0
-4335 4113 0
-4335 179 0
4335 -4113 -179 0
-4336 4324 4325 0
-4336 -4324 -4325 0
4336 -4324 4325 0
4336 4324 -4325 0
-4337 4336 4325 0
-4337 -4336 -4325 0
4337 -4336 4325 0
4337 4336 -4325 0
-4338 4337 4326 0
-4338 -4337 -4326 0
4338 -4337 4326 0
4338 4337 -4326 0
-4339 4338 4327 0
-4339 -4338 -4327 0
4339 -4338 4327 0
4339 4338 -4327 0
-4340 4339 4327 0
-4340 -4339 -4327 0
4340 -4339 4327 0
4340 4339 -4327 0
-4341 4340 4328 0
-4341 -4340 -4328 0
4341 -4340 4328 0
4341 4340 -4328 0
-4342 4341 4329 0
-4342 -4341 -4329 0
4342 -4341 4329 0
4342 4341 -4329 0
-4343 4342 4329 0
-4343 -4342 -4329 0
4343 -4342 4329 0
4343 4342 -4329 0
-4344 4343 4330 0
-4344 -4343 -4330 0
4344 -4343 4330 0
4344 4343 -4330 0
-4345 4344 4331 0
-4345 -4344 -4331 0
4345 -4344 4331 0
4345 4344 -4331 0
-4346 4345 4331 0
-4346 -4345 -4331 0
4346 -4345 4331 0
4346 4345 -4331 0
-4347 4346 4332 0
-4347 -4346 -4332 0
4347 -4346 4332 0
4347 4346 -4332 0
-4348 4347 4333 0
-4348 -4347 -4333 0
4348 -4347 4333 0
4348 4347 -4333 0
-4349 4348 4333 0
-4349 -4348 -4333 0
4349 -4348 4333 0
4349 4348 -4333 0
-4350 4349 4334 0
-4350 -4349 -4334 0
4350 -4349 4334 0
4350 4349 -4334 0
-4351 4350 4335 0
-4351 -4350 -4335 0
4351 -4350 4335 0
4351 4350 -4335 0
-4351 0
-4352 4091 0
-4352 42 0
4352 -4091 -42 0
-4353 4093 0
-4353 46 0
4353 -4093 -46 0
-4354 4093 0
-4354 47 0
4354 -4093 -47 0
-4355 4095 0
-4355 39 0
4355 -4095 -39 0
-4356 4097 0
-4356 40 0
4356 -4097 -40 0
-4357 4097 0
-4357 44 0
4357 -4097 -44 0
-4358 4099 0
-4358 90 0
4358 -4099 -90 0
-4359 4101 0
-4359 94 0
4359 -4101 -94 0
-4360 4101 0
-4360 95 0
4360 -4101 -95 0
-4361 4103 0
-4361 87 0
4361 -4103 -87 0
-4362 4105 0
-4362 88 0
4362 -4105 -88 0
-4363 4105 0
-4363 92 0
4363 -4105 -92 0
-4364 4107 0
-4364 138 0
4364 -4107 -138 0
-4365 4109 0
-4365 142 0
4365 -4109 -142 0
-4366 4109 0
-4366 143 0
4366 -4109 -143 0
-4367 4111 0
-4367 186 0
4367 -4111 -186 0
-4368 4113 0
-4368 183 0
4368 -4113 -183 0
-4369 4352 4353 0
-4369 -4352 -4353 0
4369 -4352 4353 0
4369 4352 -4353 0
-4370 4369 4354 0
-4370 -4369 -4354 0
4370 -4369 4354 0
4370 4369 -4354 0
-4371 4370 4355 0
-4371 -4370 -4355 0
4371 -4370 4355 0
4371 4370 -4355 0
-4372 4371 4356 0
-4372 -4371 -4356 0
4372 -4371 4356 0
4372 4371 -4356 0
-4373 4372 4357 0
-4373 -4372 -4357 0
4373 -4372 4357 0
4373 4372 -4357 0
-4374 4373 4358 0
-4374 -4373 -4358 0
4374 -4373 4358 0
4374 4373 -4358 0
-4375 4374 4359 0
-4375 -4374 -4359 0
4375 -4374 4359 0
4375 4374 -4359 0
-4376 4375 4360 0
-4376 -4375 -4360 0
4376 -4375 4360 0
4376 4375 -4360 0
-4377 4376 4361 0
-4377 -4376 -4361 0
4377 -4376 4361 0
4377 4376 -4361 0
-4378 4377 4362 0
-4378 -4377 -4362 0
4378 -4377 4362 0
4378 4377 -4362 0
-4379 4378 4363 0
-4379 -4378 -4363 0
4379 -4378 4363 0
4379 4378 -4363 0
-4380 4379 4364 0
-4380 -4379 -4364 0
4380 -4379 4364 0
4380 4379 -4364 0
-4381 4380 4365 0
-4381 -4380 -4365 0
4381 -4380 4365 0
4381 4380 -4365 0
-4382 4381 4366 0
-4382 -4381 -4366 0
4382 -4381 4366 0
4382 4381 -4366 0
-4383 4382 4367 0
-4383 -4382 -4367 0
4383 -4382 4367 0
4383 4382 -4367 0
-4384 4383 4368 0
-4384 -4383 -4368 0
4384 -4383 4368 0
4384 4383 -4368 0
-4384 0
-4385 4091 0
-4385 43 0
4385 -4091 -43 0
-4386 4093 0
-4386 48 0
4386 -4093 -48 0
-4387 4095 0
-4387 43 0
4387 -4095 -43 0
-4388 4097 0
-4388 48 0
4388 -4097 -48 0
-4389 4099 0
-4389 91 0
4389 -4099 -91 0
-4390 4101 0
-4390 96 0
4390 -4101 -96 0
-4391 4103 0
-4391 91 0
4391 -4103 -91 0
-4392 4105 0
-4392 96 0
4392 -4105 -96 0
-4393 4107 0
-4393 139 0
4393 -4107 -139 0
-4394 4109 0
-4394 144 0
4394 -4109 -144 0
-4395 4111 0
-4395 187 0
4395 -4111 -187 0
-4396 4113 0
-4396 187 0
4396 -4113 -187 0
-4397 4385 4386 0
-4397 -4385 -4386 0
4397 -4385 4386 0
4397 4385 -4386 0
-4398 4397 4386 0
-4398 -4397 -4386 0
4398 -4397 4386 0
4398 4397 -4386 0
-4399 4398 4387 0
-4399 -4398 -4387 0
4399 -4398 4387 0
4399 4398 -4387 0
-4400 4399 4388 0
-4400 -4399 -4388 0
4400 -4399 4388 0
4400 4399 -4388 0
-4401 4400 4388 0
-4401 -4400 -4388 0
4401 -4400 4388 0
4401 4400 -4388 0
-4402 4401 4389 0
-4402 -4401 -4389 0
4402 -4401 4389 0
4402 4401 -4389 0
-4403 4402 4390 0
-4403 -4402 -4390 0
4403 -4402 4390 0
4403 4402 -4390 0
-4404 4403 4390 0
-4404 -4403 -4390 0
4404 -4403 4390 0
4404 4403 -4390 0
-4405 4404 4391 0
-4405 -4404 -4391 0
4405 -4404 4391 0
4405 4404 -4391 0
-4406 4405 4392 0
-4406 -4405 -4392 0
4406 -4405 4392 0
4406 4405 -4392 0
-4407 4406 4392 0
-4407 -4406 -4392 0
4407 -4406 4392 0
4407 4406 -4392 0
-4408 4407 4393 0
-4408 -4407 -4393 0
4408 -4407 4393 0
4408 4407 -4393 0
-4409 4408 4394 0
-4409 -4408 -4394 0
4409 -4408 4394 0
4409 4408 -4394 0
-4410 4409 4394 0
-4410 -4409 -4394 0
4410 -4409 4394 0
4410 4409 -4394 0
-4411 4410 4395 0
-4411 -4410 -4395 0
4411 -4410 4395 0
4411 4410 -4395 0
-4412 4411 4396 0
-4412 -4411 -4396 0
4412 -4411 4396 0
4412 4411 -4396 0
-4412 0
-4413 4 0
-4413 18 0
4413 -4 -18 0
-4414 4413 0
-4414 33 0
4414 -4413 -33 0
-4415 4 0
-4415 22 0
4415 -4 -22 0
-4416 4415 0
-4416 33 0
4416 -4415 -33 0
-4417 4 0
-4417 23 0
4417 -4 -23 0
-4418 4417 0
-4418 33 0
4418 -4417 -33 0
-4419 29 0
-4419 5 0
4419 -29 -5 0
-4420 4419 0
-4420 33 0
4420 -4419 -33 0
-4421 29 0
-4421 6 0
4421 -29 -6 0
-4422 4421 0
-4422 33 0
4422 -4421 -33 0
-4423 29 0
-4423 10 0
4423 -29 -10 0
-4424 4423 0
-4424 33 0
4424 -4423 -33 0
-4425 52 0
-4425 66 0
4425 -52 -66 0
-4426 4425 0
-4426 81 0
4426 -4425 -81 0
-4427 52 0
-4427 70 0
4427 -52 -70 0
-4428 4427 0
-4428 81 0
4428 -4427 -81 0
-4429 52 0
-4429 71 0
4429 -52 -71 0
-4430 4429 0
-4430 81 0
4430 -4429 -81 0
-4431 77 0
-4431 53 0
4431 -77 -53 0
-4432 4431 0
-4432 81 0
4432 -4431 -81 0
-4433 77 0
-4433 54 0
4433 -77 -54 0
-4434 4433 0
-4434 81 0
4434 -4433 -81 0
-4435 77 0
-4435 58 0
4435 -77 -58 0
-4436 4435 0
-4436 81 0
4436 -4435 -81 0
-4437 100 0
-4437 114 0
4437 -100 -114 0
-4438 4437 0
-4438 129 0
4438 -4437 -129 0
-4439 100 0
-4439 118 0
4439 -100 -118 0
-4440 4439 0
-4440 129 0
4440 -4439 -129 0
-4441 100 0
-4441 119 0
4441 -100 -119 0
-4442 4441 0
-4442 129 0
4442 -4441 -129 0
-4443 148 0
-4443 162 0
4443 -148 -162 0
-4444 4443 0
-4444 177 0
4444 -4443 -177 0
-4445 173 0
-4445 149 0
4445 -173 -149 0
-4446 4445 0
-4446 177 0
4446 -4445 -177 0
-4447 4414 4416 0
-4447 -4414 -4416 0
4447 -4414 4416 0
4447 4414 -4416 0
-4448 4447 4418 0
-4448 -4447 -4418 0
4448 -4447 4418 0
4448 4447 -4418 0
-4449 4448 4420 0
-4449 -4448 -4420 0
4449 -4448 4420 0
4449 4448 -4420 0
-4450 4449 4422 0
-4450 -4449 -4422 0
4450 -4449 4422 0
4450 4449 -4422 0
-4451 4450 4424 0
-4451 -4450 -4424 0
4451 -4450 4424 0
4451 4450 -4424 0
-4452 4451 4426 0
-4452 -4451 -4426 0
4452 -4451 4426 0
4452 4451 -4426 0
-4453 4452 4428 0
-4453 -4452 -4428 0
4453 -4452 4428 0
4453 4452 -4428 0
-4454 4453 4430 0
-4454 -4453 -4430 0
4454 -4453 4430 0
4454 4453 -4430 0
-4455 4454 4432 0
-4455 -4454 -4432 0
4455 -4454 4432 0
4455 4454 -4432 0
-4456 4455 4434 0
-4456 -4455 -4434 0
4456 -4455 4434 0
4456 4455 -4434 0
-4457 4456 4436 0
-4457 -4456 -4436 0
4457 -4456 4436 0
4457 4456 -4436 0
-4458 4457 4438 0
-4458 -4457 -4438 0
4458 -4457 4438 0
4458 4457 -4438 0
-4459 4458 4440 0
-4459 -4458 -4440 0
4459 -4458 4440 0
4459 4458 -4440 0
-4460 4459 4442 0
-4460 -4459 -4442 0
4460 -4459 4442 0
4460 4459 -4442 0
-4461 4460 4444 0
-4461 -4460 -4444 0
4461 -4460 4444 0
4461 4460 -4444 0
-4462 4461 4446 0
-4462 -4461 -4446 0
4462 -4461 4446 0
4462 4461 -4446 0
-4462 0
-4463 4413 0
-4463 34 0
4463 -4413 -34 0
-4464 4415 0
-4464 34 0
4464 -4415 -34 0
-4465 4417 0
-4465 35 0
4465 -4417 -35 0
-4466 4419 0
-4466 37 0
4466 -4419 -37 0
-4467 4421 0
-4467 37 0
4467 -4421 -37 0
-4468 4423 0
-4468 41 0
4468 -4423 -41 0
-4469 4425 0
-4469 82 0
4469 -4425 -82 0
-4470 4427 0
-4470 82 0
4470 -4427 -82 0
-4471 4429 0
-4471 83 0
4471 -4429 -83 0
-4472 4431 0
-4472 85 0
4472 -4431 -85 0
-4473 4433 0
-4473 85 0
4473 -4433 -85 0
-4474 4435 0
-4474 89 0
4474 -4435 -89 0
-4475 4437 0
-4475 130 0
4475 -4437 -130 0
-4476 4439 0
-4476 130 0
4476 -4439 -130 0
-4477 4441 0
-4477 131 0
4477 -4441 -131 0
-4478 4443 0
-4478 178 0
4478 -4443 -178 0
-4479 4445 0
-4479 181 0
4479 -4445 -181 0
-4480 4463 4464 0
-4480 -4463 -4464 0
4480 -4463 4464 0
4480 4463 -4464 0
-4481 4480 4465 0
-4481 -4480 -4465 0
4481 -4480 4465 0
4481 4480 -4465 0
-4482 4481 4466 0
-4482 -4481 -4466 0
4482 -4481 4466 0
4482 4481 -4466 0
-4483 4482 4467 0
-4483 -4482 -4467 0
4483 -4482 4467 0
4483 4482 -4467 0
-4484 4483 4468 0
-4484 -4483 -4468 0
4484 -4483 4468 0
4484 4483 -4468 0
-4485 4484 4469 0
-4485 -4484 -4469 0
4485 -4484 4469 0
4485 4484 -4469 0
-4486 4485 4470 0
-4486 -4485 -4470 0
4486 -4485 4470 0
4486 4485 -4470 0
-4487 4486 4471 0
-4487 -4486 -4471 0
4487 -4486 4471 0
4487 4486 -4471 0
-4488 4487 4472 0
-4488 -4487 -4472 0
4488 -4487 4472 0
4488 4487 -4472 0
-4489 4488 4473 0
-4489 -4488 -4473 0
4489 -4488 4473 0
4489 4488 -4473 0
-4490 4489 4474 0
-4490 -4489 -4474 0
4490 -4489 4474 0
4490 4489 -4474 0
-4491 4490 4475 0
-4491 -4490 -4475 0
4491 -4490 4475 0
4491 4490 -4475 0
-4492 4491 4476 0
-4492 -4491 -4476 0
4492 -4491 4476 0
4492 4491 -4476 0
-4493 4492 4477 0
-4493 -4492 -4477 0
4493 -4492 4477 0
4493 4492 -4477 0
-4494 4493 4478 0
-4494 -4493 -4478 0
4494 -4493 4478 0
4494 4493 -4478 0
-4495 4494 4479 0
-4495 -4494 -4479 0
4495 -4494 4479 0
4495 4494 -4479 0
-4495 0
-4496 4413 0
-4496 35 0
4496 -4413 -35 0
-4497 4415 0
-4497 36 0
4497 -4415 -36 0
-4498 4417 0
-4498 36 0
4498 -4417 -36 0
-4499 4419 0
-4499 41 0
4499 -4419 -41 0
-4500 4421 0
-4500 45 0
4500 -4421 -45 0
-4501 4423 0
-4501 45 0
4501 -4423 -45 0
-4502 4425 0
-4502 83 0
4502 -4425 -83 0
-4503 4427 0
-4503 84 0
4503 -4427 -84 0
-4504 4429 0
-4504 84 0
4504 -4429 -84 0
-4505 4431 0
-4505 89 0
4505 -4431 -89 0
-4506 4433 0
-4506 93 0
4506 -4433 -93 0
-4507 4435 0
-4507 93 0
4507 -4435 -93 0
-4508 4437 0
-4508 131 0
4508 -4437 -131 0
-4509 4439 0
-4509 132 0
4509 -4439 -132 0
-4510 4441 0
-4510 132 0
4510 -4441 -132 0
-4511 4443 0
-4511 179 0
4511 -4443 -179 0
-4512 4445 0
-4512 185 0
4512 -4445 -185 0
-4513 4496 4497 0
-4513 -4496 -4497 0
4513 -4496 4497 0
4513 4496 -4497 0
-4514 4513 4498 0
-4514 -4513 -4498 0
4514 -4513 4498 0
4514 4513 -4498 0
-4515 4514 4499 0
-4515 -4514 -4499 0
4515 -4514 4499 0
4515 4514 -4499 0
-4516 4515 4500 0
-4516 -4515 -4500 0
4516 -4515 4500 0
4516 4515 -4500 0
-4517 4516 4501 0
-4517 -4516 -4501 0
4517 -4516 4501 0
4517 4516 -4501 0
-4518 4517 4502 0
-4518 -4517 -4502 0
4518 -4517 4502 0
4518 4517 -4502 0
-4519 4518 4503 0
-4519 -4518 -4503 0
4519 -4518 4503 0
4519 4518 -4503 0
-4520 4519 4504 0
-4520 -4519 -4504 0
4520 -4519 4504 0
4520 4519 -4504 0
-4521 4520 4505 0
-4521 -4520 -4505 0
4521 -4520 4505 0
4521 4520 -4505 0
-4522 4521 4506 0
-4522 -4521 -4506 0
4522 -4521 4506 0
4522 4521 -4506 0
-4523 4522 4507 0
-4523 -4522 -4507 0
4523 -4522 4507 0
4523 4522 -4507 0
-4524 4523 4508 0
-4524 -4523 -4508 0
4524 -4523 4508 0
4524 4523 -4508 0
-4525 4524 4509 0
-4525 -4524 -4509 0
4525 -4524 4509 0
4525 4524 -4509 0
-4526 4525 4510 0
-4526 -4525 -4510 0
4526 -4525 4510 0
4526 4525 -4510 0
-4527 4526 4511 0
-4527 -4526 -4511 0
4527 -4526 4511 0
4527 4526 -4511 0
-4528 4527 4512 0
-4528 -4527 -4512 0
4528 -4527 4512 0
4528 4527 -4512 0
-4528 0
-4529 4413 0
-4529 36 0
4529 -4413 -36 0
-4530 4415 0
-4530 35 0
4530 -4415 -35 0
-4531 4417 0
-4531 34 0
4531 -4417 -34 0
-4532 4419 0
-4532 45 0
4532 -4419 -45 0
-4533 4421 0
-4533 41 0
4533 -4421 -41 0
-4534 4423 0
-4534 37 0
4534 -4423 -37 0
-4535 4425 0
-4535 84 0
4535 -4425 -84 0
-4536 4427 0
-4536 83 0
4536 -4427 -83 0
-4537 4429 0
-4537 82 0
4537 -4429 -82 0
-4538 4431 0
-4538 93 0
4538 -4431 -93 0
-4539 4433 0
-4539 89 0
4539 -4433 -89 0
-4540 4435 0
-4540 85 0
4540 -4435 -85 0
-4541 4437 0
-4541 132 0
4541 -4437 -132 0
-4542 4439 0
-4542 131 0
4542 -4439 -131 0
-4543 4441 0
-4543 130 0
4543 -4441 -130 0
-4544 4443 0
-4544 180 0
4544 -4443 -180 0
-4545 4445 0
-4545 189 0
4545 -4445 -189 0
-4546 4529 4530 0
-4546 -4529 -4530 0
4546 -4529 4530 0
4546 4529 -4530 0
-4547 4546 4531 0
-4547 -4546 -4531 0
4547 -4546 4531 0
4547 4546 -4531 0
-4548 4547 4532 0
-4548 -4547 -4532 0
4548 -4547 4532 0
4548 4547 -4532 0
-4549 4548 4533 0
-4549 -4548 -4533 0
4549 -4548 4533 0
4549 4548 -4533 0
-4550 4549 4534 0
-4550 -4549 -4534 0
4550 -4549 4534 0
4550 4549 -4534 0
-4551 4550 4535 0
-4551 -4550 -4535 0
4551 -4550 4535 0
4551 4550 -4535 0
-4552 4551 4536 0
-4552 -4551 -4536 0
4552 -4551 4536 0
4552 4551 -4536 0
-4553 4552 4537 0
-4553 -4552 -4537 0
4553 -4552 4537 0
4553 4552 -4537 0
-4554 4553 4538 0
-4554 -4553 -4538 0
4554 -4553 4538 0
4554 4553 -4538 0
-4555 4554 4539 0
-4555 -4554 -4539 0
4555 -4554 4539 0
4555 4554 -4539 0
-4556 4555 4540 0
-4556 -4555 -4540 0
4556 -4555 4540 0
4556 4555 -4540 0
-4557 4556 4541 0
-4557 -4556 -4541 0
4557 -4556 4541 0
4557 4556 -4541 0
-4558 4557 4542 0
-4558 -4557 -4542 0
4558 -4557 4542 0
4558 4557 -4542 0
-4559 4558 4543 0
-4559 -4558 -4543 0
4559 -4558 4543 0
4559 4558 -4543 0
-4560 4559 4544 0
-4560 -4559 -4544 0
4560 -4559 4544 0
4560 4559 -4544 0
-4561 4560 4545 0
-4561 -4560 -4545 0
4561 -4560 4545 0
4561 4560 -4545 0
-4561 0
-4562 4413 0
-4562 37 0
4562 -4413 -37 0
-4563 4415 0
-4563 37 0
4563 -4415 -37 0
-4564 4417 0
-4564 41 0
4564 -4417 -41 0
-4565 4419 0
-4565 34 0
4565 -4419 -34 0
-4566 4421 0
-4566 34 0
4566 -4421 -34 0
-4567 4423 0
-4567 35 0
4567 -4423 -35 0
-4568 4425 0
-4568 85 0
4568 -4425 -85 0
-4569 4427 0
-4569 85 0
4569 -4427 -85 0
-4570 4429 0
-4570 89 0
4570 -4429 -89 0
-4571 4431 0
-4571 82 0
4571 -4431 -82 0
-4572 4433 0
-4572 82 0
4572 -4433 -82 0
-4573 4435 0
-4573 83 0
4573 -4435 -83 0
-4574 4437 0
-4574 133 0
4574 -4437 -133 0
-4575 4439 0
-4575 133 0
4575 -4439 -133 0
-4576 4441 0
-4576 137 0
4576 -4441 -137 0
-4577 4443 0
-4577 181 0
4577 -4443 -181 0
-4578 4445 0
-4578 178 0
4578 -4445 -178 0
-4579 4562 4563 0
-4579 -4562 -4563 0
4579 -4562 4563 0
4579 4562 -4563 0
-4580 4579 4564 0
-4580 -4579 -4564 0
4580 -4579 4564 0
4580 4579 -4564 0
-4581 4580 4565 0
-4581 -4580 -4565 0
4581 -4580 4565 0
4581 4580 -4565 0
-4582 4581 4566 0
-4582 -4581 -4566 0
4582 -4581 4566 0
4582 4581 -4566 0
-4583 4582 4567 0
-4583 -4582 -4567 0
4583 -4582 4567 0
4583 4582 -4567 0
-4584 4583 4568 0
-4584 -4583 -4568 0
4584 -4583 4568 0
4584 4583 -4568 0
-4585 4584 4569 0
-4585 -4584 -4569 0
4585 -4584 4569 0
4585 4584 -4569 0
-4586 4585 4570 0
-4586 -4585 -4570 0
4586 -4585 4570 0
4586 4585 -4570 0
-4587 4586 4571 0
-4587 -4586 -4571 0
4587 -4586 4571 0
4587 4586 -4571 0
-4588 4587 4572 0
-4588 -4587 -4572 0
4588 -4587 4572 0
4588 4587 -4572 0
-4589 4588 4573 0
-4589 -4588 -4573 0
4589 -4588 4573 0
4589 4588 -4573 0
-4590 4589 4574 0
-4590 -4589 -4574 0
4590 -4589 4574 0
4590 4589 -4574 0
-4591 4590 4575 0
-4591 -4590 -4575 0
4591 -4590 4575 0
4591 4590 -4575 0
-4592 4591 4576 0
-4592 -4591 -4576 0
4592 -4591 4576 0
4592 4591 -4576 0
-4593 4592 4577 0
-4593 -4592 -4577 0
4593 -4592 4577 0
4593 4592 -4577 0
-4594 4593 4578 0
-4594 -4593 -4578 0
4594 -4593 4578 0
4594 4593 -4578 0
4594 0
-4595 4413 0
-4595 38 0
4595 -4413 -38 0
-4596 4415 0
-4596 38 0
4596 -4415 -38 0
-4597 4417 0
-4597 43 0
4597 -4417 -43 0
-4598 4419 0
-4598 38 0
4598 -4419 -38 0
-4599 4421 0
-4599 38 0
4599 -4421 -38 0
-4600 4423 0
-4600 43 0
4600 -4423 -43 0
-4601 4425 0
-4601 86 0
4601 -4425 -86 0
-4602 4427 0
-4602 86 0
4602 -4427 -86 0
-4603 4429 0
-4603 91 0
4603 -4429 -91 0
-4604 4431 0
-4604 86 0
4604 -4431 -86 0
-4605 4433 0
-4605 86 0
4605 -4433 -86 0
-4606 4435 0
-4606 91 0
4606 -4435 -91 0
-4607 4437 0
-4607 134 0
4607 -4437 -134 0
-4608 4439 0
-4608 134 0
4608 -4439 -134 0
-4609 4441 0
-4609 139 0
4609 -4441 -139 0
-4610 4443 0
-4610 182 0
4610 -4443 -182 0
-4611 4445 0
-4611 182 0
4611 -4445 -182 0
-4612 4595 4596 0
-4612 -4595 -4596 0
4612 -4595 4596 0
4612 4595 -4596 0
-4613 4612 4597 0
-4613 -4612 -4597 0
4613 -4612 4597 0
4613 4612 -4597 0
-4614 4613 4598 0
-4614 -4613 -4598 0
4614 -4613 4598 0
4614 4613 -4598 0
-4615 4614 4599 0
-4615 -4614 -4599 0
4615 -4614 4599 0
4615 4614 -4599 0
-4616 4615 4600 0
-4616 -4615 -4600 0
4616 -4615 4600 0
4616 4615 -4600 0
-4617 4616 4601 0
-4617 -4616 -4601 0
4617 -4616 4601 0
4617 4616 -4601 0
-4618 4617 4602 0
-4618 -4617 -4602 0
4618 -4617 4602 0
4618 4617 -4602 0
-4619 4618 4603 0
-4619 -4618 -4603 0
4619 -4618 4603 0
4619 4618 -4603 0
-4620 4619 4604 0
-4620 -4619 -4604 0
4620 -4619 4604 0
4620 4619 -4604 0
-4621 4620 4605 0
-4621 -4620 -4605 0
4621 -4620 4605 0
4621 4620 -4605 0
-4622 4621 4606 0
-4622 -4621 -4606 0
4622 -4621 4606 0
4622 4621 -4606 0
-4623 4622 4607 0
-4623 -4622 -4607 0
4623 -4622 4607 0
4623 4622 -4607 0
-4624 4623 4608 0
-4624 -4623 -4608 0
4624 -4623 4608 0
4624 4623 -4608 0
-4625 4624 4609 0
-4625 -4624 -4609 0
4625 -4624 4609 0
4625 4624 -4609 0
-4626 4625 4610 0
-4626 -4625 -4610 0
4626 -4625 4610 0
4626 4625 -4610 0
-4627 4626 4611 0
-4627 -4626 -4611 0
4627 -4626 4611 0
4627 4626 -4611 0
-4627 0
-4628 4413 0
-4628 39 0
4628 -4413 -39 0
-4629 4415 0
-4629 40 0
4629 -4415 -40 0
-4630 4417 0
-4630 44 0
4630 -4417 -44 0
-4631 4419 0
-4631 42 0
4631 -4419 -42 0
-4632 4421 0
-4632 46 0
4632 -4421 -46 0
-4633 4423 0
-4633 47 0
4633 -4423 -47 0
-4634 4425 0
-4634 87 0
4634 -4425 -87 0
-4635 4427 0
-4635 88 0
4635 -4427 -88 0
-4636 4429 0
-4636 92 0
4636 -4429 -92 0
-4637 4431 0
-4637 90 0
4637 -4431 -90 0
-4638 4433 0
-4638 94 0
4638 -4433 -94 0
-4639 4435 0
-4639 95 0
4639 -4435 -95 0
-4640 4437 0
-4640 135 0
4640 -4437 -135 0
-4641 4439 0
-4641 136 0
4641 -4439 -136 0
-4642 4441 0
-4642 140 0
4642 -4441 -140 0
-4643 4443 0
-4643 183 0
4643 -4443 -183 0
-4644 4445 0
-4644 186 0
4644 -4445 -186 0
-4645 4628 4629 0
-4645 -4628 -4629 0
4645 -4628 4629 0
4645 4628 -4629 0
-4646 4645 4630 0
-4646 -4645 -4630 0
4646 -4645 4630 0
4646 4645 -4630 0
-4647 4646 4631 0
-4647 -4646 -4631 0
4647 -4646 4631 0
4647 4646 -4631 0
-4648 4647 4632 0
-4648 -4647 -4632 0
4648 -4647 4632 0
4648 4647 -4632 0
-4649 4648 4633 0
-4649 -4648 -4633 0
4649 -4648 4633 0
4649 4648 -4633 0
-4650 4649 4634 0
-4650 -4649 -4634 0
4650 -4649 4634 0
4650 4649 -4634 0
-4651 4650 4635 0
-4651 -4650 -4635 0
4651 -4650 4635 0
4651 4650 -4635 0
-4652 4651 4636 0
-4652 -4651 -4636 0
4652 -4651 4636 0
4652 4651 -4636 0
-4653 4652 4637 0
-4653 -4652 -4637 0
4653 -4652 4637 0
4653 4652 -4637 0
-4654 4653 4638 0
-4654 -4653 -4638 0
4654 -4653 4638 0
4654 4653 -4638 0
-4655 4654 4639 0
-4655 -4654 -4639 0
4655 -4654 4639 0
4655 4654 -4639 0
-4656 4655 4640 0
-4656 -4655 -4640 0
4656 -4655 4640 0
4656 4655 -4640 0
-4657 4656 4641 0
-4657 -4656 -4641 0
4657 -4656 4641 0
4657 4656 -4641 0
-4658 4657 4642 0
-4658 -4657 -4642 0
4658 -4657 4642 0
4658 4657 -4642 0
-4659 4658 4643 0
-4659 -4658 -4643 0
4659 -4658 4643 0
4659 4658 -4643 0
-4660 4659 4644 0
-4660 -4659 -4644 0
4660 -4659 4644 0
4660 4659 -4644 0
4660 0
-4661 4413 0
-4661 40 0
4661 -4413 -40 0
-4662 4415 0
-4662 39 0
4662 -4415 -39 0
-4663 4417 0
-4663 42 0
4663 -4417 -42 0
-4664 4419 0
-4664 46 0
4664 -4419 -46 0
-4665 4421 0
-4665 42 0
4665 -4421 -42 0
-4666 4423 0
-4666 39 0
4666 -4423 -39 0
-4667 4425 0
-4667 88 0
4667 -4425 -88 0
-4668 4427 0
-4668 87 0
4668 -4427 -87 0
-4669 4429 0
-4669 90 0
4669 -4429 -90 0
-4670 4431 0
-4670 94 0
4670 -4431 -94 0
-4671 4433 0
-4671 90 0
4671 -4433 -90 0
-4672 4435 0
-4672 87 0
4672 -4435 -87 0
-4673 4437 0
-4673 136 0
4673 -4437 -136 0
-4674 4439 0
-4674 135 0
4674 -4439 -135 0
-4675 4441 0
-4675 138 0
4675 -4441 -138 0
-4676 4443 0
-4676 184 0
4676 -4443 -184 0
-4677 4445 0
-4677 190 0
4677 -4445 -190 0
-4678 4661 4662 0
-4678 -4661 -4662 0
4678 -4661 4662 0
4678 4661 -4662 0
-4679 4678 4663 0
-4679 -4678 -4663 0
4679 -4678 4663 0
4679 4678 -4663 0
-4680 4679 4664 0
-4680 -4679 -4664 0
4680 -4679 4664 0
4680 4679 -4664 0
-4681 4680 4665 0
-4681 -4680 -4665 0
4681 -4680 4665 0
4681 4680 -4665 0
-4682 4681 4666 0
-4682 -4681 -4666 0
4682 -4681 4666 0
4682 4681 -4666 0
-4683 4682 4667 0
-4683 -4682 -4667 0
4683 -4682 4667 0
4683 4682 -4667 0
-4684 4683 4668 0
-4684 -4683 -4668 0
4684 -4683 4668 0
4684 4683 -4668 0
-4685 4684 4669 0
-4685 -4684 -4669 0
4685 -4684 4669 0
4685 4684 -4669 0
-4686 4685 4670 0
-4686 -4685 -4670 0
4686 -4685 4670 0
4686 4685 -4670 0
-4687 4686 4671 0
-4687 -4686 -4671 0
4687 -4686 4671 0
4687 4686 -4671 0
-4688 4687 4672 0
-4688 -4687 -4672 0
4688 -4687 4672 0
4688 4687 -4672 0
-4689 4688 4673 0
-4689 -4688 -4673 0
4689 -4688 4673 0
4689 4688 -4673 0
-4690 4689 4674 0
-4690 -4689 -4674 0
4690 -4689 4674 0
4690 4689 -4674 0
-4691 4690 4675 0
-4691 -4690 -4675 0
4691 -4690 4675 0
4691 4690 -4675 0
-4692 4691 4676 0
-4692 -4691 -4676 0
4692 -4691 4676 0
4692 4691 -4676 0
-4693 4692 4677 0
-4693 -4692 -4677 0
4693 -4692 4677 0
4693 4692 -4677 0
-4693 0
-4694 4413 0
-4694 41 0
4694 -4413 -41 0
-4695 4415 0
-4695 45 0
4695 -4415 -45 0
-4696 4417 0
-4696 45 0
4696 -4417 -45 0
-4697 4419 0
-4697 35 0
4697 -4419 -35 0
-4698 4421 0
-4698 36 0
4698 -4421 -36 0
-4699 4423 0
-4699 36 0
4699 -4423 -36 0
-4700 4425 0
-4700 89 0
4700 -4425 -89 0
-4701 4427 0
-4701 93 0
4701 -4427 -93 0
-4702 4429 0
-4702 93 0
4702 -4429 -93 0
-4703 4431 0
-4703 83 0
4703 -4431 -83 0
-4704 4433 0
-4704 84 0
4704 -4433 -84 0
-4705 4435 0
-4705 84 0
4705 -4435 -84 0
-4706 4437 0
-4706 137 0
4706 -4437 -137 0
-4707 4439 0
-4707 141 0
4707 -4439 -141 0
-4708 4441 0
-4708 141 0
4708 -4441 -141 0
-4709 4443 0
-4709 185 0
4709 -4443 -185 0
-4710 4445 0
-4710 179 0
4710 -4445 -179 0
-4711 4694 4695 0
-4711 -4694 -4695 0
4711 -4694 4695 0
4711 4694 -4695 0
-4712 4711 4696 0
-4712 -4711 -4696 0
4712 -4711 4696 0
4712 4711 -4696 0
-4713 4712 4697 0
-4713 -4712 -4697 0
4713 -4712 4697 0
4713 4712 -4697 0
-4714 4713 4698 0
-4714 -4713 -4698 0
4714 -4713 4698 0
4714 4713 -4698 0
-4715 4714 4699 0
-4715 -4714 -4699 0
4715 -4714 4699 0
4715 4714 -4699 0
-4716 4715 4700 0
-4716 -4715 -4700 0
4716 -4715 4700 0
4716 4715 -4700 0
-4717 4716 4701 0
-4717 -4716 -4701 0
4717 -4716 4701 0
4717 4716 -4701 0
-4718 4717 4702 0
-4718 -4717 -4702 0
4718 -4717 4702 0
4718 4717 -4702 0
-4719 4718 4703 0
-4719 -4718 -4703 0
4719 -4718 4703 0
4719 4718 -4703 0
-4720 4719 4704 0
-4720 -4719 -4704 0
4720 -4719 4704 0
4720 4719 -4704 0
-4721 4720 4705 0
-4721 -4720 -4705 0
4721 -4720 4705 0
4721 4720 -4705 0
-4722 4721 4706 0
-4722 -4721 -4706 0
4722 -4721 4706 0
4722 4721 -4706 0
-4723 4722 4707 0
-4723 -4722 -4707 0
4723 -4722 4707 0
4723 4722 -4707 0
-4724 4723 4708 0
-4724 -4723 -4708 0
4724 -4723 4708 0
4724 4723 -4708 0
-4725 4724 4709 0
-4725 -4724 -4709 0
4725 -4724 4709 0
4725 4724 -4709 0
-4726 4725 4710 0
-4726 -4725 -4710 0
4726 -4725 4710 0
4726 4725 -4710 0
-4726 0
-4727 4413 0
-4727 42 0
4727 -4413 -42 0
-4728 4415 0
-4728 46 0
4728 -4415 -46 0
-4729 4417 0
-4729 47 0
4729 -4417 -47 0
-4730 4419 0
-4730 39 0
4730 -4419 -39 0
-4731 4421 0
-4731 40 0
4731 -4421 -40 0
-4732 4423 0
-4732 44 0
4732 -4423 -44 0
-4733 4425 0
-4733 90 0
4733 -4425 -90 0
-4734 4427 0
-4734 94 0
4734 -4427 -94 0
-4735 4429 0
-4735 95 0
4735 -4429 -95 0
-4736 4431 0
-4736 87 0
4736 -4431 -87 0
-4737 4433 0
-4737 88 0
4737 -4433 -88 0
-4738 4435 0
-4738 92 0
4738 -4435 -92 0
-4739 4437 0
-4739 138 0
4739 -4437 -138 0
-4740 4439 0
-4740 142 0
4740 -4439 -142 0
-4741 4441 0
-4741 143 0
4741 -4441 -143 0
-4742 4443 0
-4742 186 0
4742 -4443 -186 0
-4743 4445 0
-4743 183 0
4743 -4445 -183 0
-4744 4727 4728 0
-4744 -4727 -4728 0
4744 -4727 4728 0
4744 4727 -4728 0
-4745 4744 4729 0
-4745 -4744 -4729 0
4745 -4744 4729 0
4745 4744 -4729 0
-4746 4745 4730 0
-4746 -4745 -4730 0
4746 -4745 4730 0
4746 4745 -4730 0
-4747 4746 4731 0
-4747 -4746 -4731 0
4747 -4746 4731 0
4747 4746 -4731 0
-4748 4747 4732 0
-4748 -4747 -4732 0
4748 -4747 4732 0
4748 4747 -4732 0
-4749 4748 4733 0
-4749 -4748 -4733 0
4749 -4748 4733 0
4749 4748 -4733 0
-4750 4749 4734 0
-4750 -4749 -4734 0
4750 -4749 4734 0
4750 4749 -4734 0
-4751 4750 4735 0
-4751 -4750 -4735 0
4751 -4750 4735 0
4751 4750 -4735 0
-4752 4751 4736 0
-4752 -4751 -4736 0
4752 -4751 4736 0
4752 4751 -4736 0
-4753 4752 4737 0
-4753 -4752 -4737 0
4753 -4752 4737 0
4753 4752 -4737 0
-4754 4753 4738 0
-4754 -4753 -4738 0
4754 -4753 4738 0
4754 4753 -4738 0
-4755 4754 4739 0
-4755 -4754 -4739 0
4755 -4754 4739 0
4755 4754 -4739 0
-4756 4755 4740 0
-4756 -4755 -4740 0
4756 -4755 4740 0
4756 4755 -4740 0
-4757 4756 4741 0
-4757 -4756 -4741 0
4757 -4756 4741 0
4757 4756 -4741 0
-4758 4757 4742 0
-4758 -4757 -4742 0
4758 -4757 4742 0
4758 4757 -4742 0
-4759 4758 4743 0
-4759 -4758 -4743 0
4759 -4758 4743 0
4759 4758 -4743 0
-4759 0
-4760 4413 0
-4760 43 0
4760 -4413 -43 0
-4761 4415 0
-4761 48 0
4761 -4415 -48 0
-4762 4417 0
-4762 48 0
4762 -4417 -48 0
-4763 4419 0
-4763 43 0
4763 -4419 -43 0
-4764 4421 0
-4764 48 0
4764 -4421 -48 0
-4765 4423 0
-4765 48 0
4765 -4423 -48 0
-4766 4425 0
-4766 91 0
4766 -4425 -91 0
-4767 4427 0
-4767 96 0
4767 -4427 -96 0
-4768 4429 0
-4768 96 0
4768 -4429 -96 0
-4769 4431 0
-4769 91 0
4769 -4431 -91 0
-4770 4433 0
-4770 96 0
4770 -4433 -96 0
-4771 4435 0
-4771 96 0
4771 -4435 -96 0
-4772 4437 0
-4772 139 0
4772 -4437 -139 0
-4773 4439 0
-4773 144 0
4773 -4439 -144 0
-4774 4441 0
-4774 144 0
4774 -4441 -144 0
-4775 4443 0
-4775 187 0
4775 -4443 -187 0
-4776 4445 0
-4776 187 0
4776 -4445 -187 0
-4777 4760 4761 0
-4777 -4760 -4761 0
4777 -4760 4761 0
4777 4760 -4761 0
-4778 4777 4762 0
-4778 -4777 -4762 0
4778 -4777 4762 0
4778 4777 -4762 0
-4779 4778 4763 0
-4779 -4778 -4763 0
4779 -4778 4763 0
4779 4778 -4763 0
-4780 4779 4764 0
-4780 -4779 -4764 0
4780 -4779 4764 0
4780 4779 -4764 0
-4781 4780 4765 0
-4781 -4780 -4765 0
4781 -4780 4765 0
4781 4780 -4765 0
-4782 4781 4766 0
-4782 -4781 -4766 0
4782 -4781 4766 0
4782 4781 -4766 0
-4783 4782 4767 0
-4783 -4782 -4767 0
4783 -4782 4767 0
4783 4782 -4767 0
-4784 4783 4768 0
-4784 -4783 -4768 0
4784 -4783 4768 0
4784 4783 -4768 0
-4785 4784 4769 0
-4785 -4784 -4769 0
4785 -4784 4769 0
4785 4784 -4769 0
-4786 4785 4770 0
-4786 -4785 -4770 0
4786 -4785 4770 0
4786 4785 -4770 0
-4787 4786 4771 0
-4787 -4786 -4771 0
4787 -4786 4771 0
4787 4786 -4771 0
-4788 4787 4772 0
-4788 -4787 -4772 0
4788 -4787 4772 0
4788 4787 -4772 0
-4789 4788 4773 0
-4789 -4788 -4773 0
4789 -4788 4773 0
4789 4788 -4773 0
-4790 4789 4774 0
-4790 -4789 -4774 0
4790 -4789 4774 0
4790 4789 -4774 0
-4791 4790 4775 0
-4791 -4790 -4775 0
4791 -4790 4775 0
4791 4790 -4775 0
-4792 4791 4776 0
-4792 -4791 -4776 0
4792 -4791 4776 0
4792 4791 -4776 0
4792 0
-4793 4413 0
-4793 44 0
4793 -4413 -44 0
-4794 4415 0
-4794 47 0
4794 -4415 -47 0
-4795 4417 0
-4795 46 0
4795 -4417 -46 0
-4796 4419 0
-4796 47 0
4796 -4419 -47 0
-4797 4421 0
-4797 44 0
4797 -4421 -44 0
-4798 4423 0
-4798 40 0
4798 -4423 -40 0
-4799 4425 0
-4799 92 0
4799 -4425 -92 0
-4800 4427 0
-4800 95 0
4800 -4427 -95 0
-4801 4429 0
-4801 94 0
4801 -4429 -94 0
-4802 4431 0
-4802 95 0
4802 -4431 -95 0
-4803 4433 0
-4803 92 0
4803 -4433 -92 0
-4804 4435 0
-4804 88 0
4804 -4435 -88 0
-4805 4437 0
-4805 140 0
4805 -4437 -140 0
-4806 4439 0
-4806 143 0
4806 -4439 -143 0
-4807 4441 0
-4807 142 0
4807 -4441 -142 0
-4808 4443 0
-4808 188 0
4808 -4443 -188 0
-4809 4445 0
-4809 191 0
4809 -4445 -191 0
-4810 4793 4794 0
-4810 -4793 -4794 0
4810 -4793 4794 0
4810 4793 -4794 0
-4811 4810 4795 0
-4811 -4810 -4795 0
4811 -4810 4795 0
4811 4810 -4795 0
-4812 4811 4796 0
-4812 -4811 -4796 0
4812 -4811 4796 0
4812 4811 -4796 0
-4813 4812 4797 0
-4813 -4812 -4797 0
4813 -4812 4797 0
4813 4812 -4797 0
-4814 4813 4798 0
-4814 -4813 -4798 0
4814 -4813 4798 0
4814 4813 -4798 0
-4815 4814 4799 0
-4815 -4814 -4799 0
4815 -4814 4799 0
4815 4814 -4799 0
-4816 4815 4800 0
-4816 -4815 -4800 0
4816 -4815 4800 0
4816 4815 -4800 0
-4817 4816 4801 0
-4817 -4816 -4801 0
4817 -4816 4801 0
4817 4816 -4801 0
-4818 4817 4802 0
-4818 -4817 -4802 0
4818 -4817 4802 0
4818 4817 -4802 0
-4819 4818 4803 0
-4819 -4818 -4803 0
4819 -4818 4803 0
4819 4818 -4803 0
-4820 4819 4804 0
-4820 -4819 -4804 0
4820 -4819 4804 0
4820 4819 -4804 0
-4821 4820 4805 0
-4821 -4820 -4805 0
4821 -4820 4805 0
4821 4820 -4805 0
-4822 4821 4806 0
-4822 -4821 -4806 0
4822 -4821 4806 0
4822 4821 -4806 0
-4823 4822 4807 0
-4823 -4822 -4807 0
4823 -4822 4807 0
4823 4822 -4807 0
-4824 4823 4808 0
-4824 -4823 -4808 0
4824 -4823 4808 0
4824 4823 -4808 0
-4825 4824 4809 0
-4825 -4824 -4809 0
4825 -4824 4809 0
4825 4824 -4809 0
-4825 0
-4826 4413 0
-4826 45 0
4826 -4413 -45 0
-4827 4415 0
-4827 41 0
4827 -4415 -41 0
-4828 4417 0
-4828 37 0
4828 -4417 -37 0
-4829 4419 0
-4829 36 0
4829 -4419 -36 0
-4830 4421 0
-4830 35 0
4830 -4421 -35 0
-4831 4423 0
-4831 34 0
4831 -4423 -34 0
-4832 4425 0
-4832 93 0
4832 -4425 -93 0
-4833 4427 0
-4833 89 0
4833 -4427 -89 0
-4834 4429 0
-4834 85 0
4834 -4429 -85 0
-4835 4431 0
-4835 84 0
4835 -4431 -84 0
-4836 4433 0
-4836 83 0
4836 -4433 -83 0
-4837 4435 0
-4837 82 0
4837 -4435 -82 0
-4838 4437 0
-4838 141 0
4838 -4437 -141 0
-4839 4439 0
-4839 137 0
4839 -4439 -137 0
-4840 4441 0
-4840 133 0
4840 -4441 -133 0
-4841 4443 0
-4841 189 0
4841 -4443 -189 0
-4842 4445 0
-4842 180 0
4842 -4445 -180 0
-4843 4826 4827 0
-4843 -4826 -4827 0
4843 -4826 4827 0
4843 4826 -4827 0
-4844 4843 4828 0
-4844 -4843 -4828 0
4844 -4843 4828 0
4844 4843 -4828 0
-4845 4844 4829 0
-4845 -4844 -4829 0
4845 -4844 4829 0
4845 4844 -4829 0
-4846 4845 4830 0
-4846 -4845 -4830 0
4846 -4845 4830 0
4846 4845 -4830 0
-4847 4846 4831 0
-4847 -4846 -4831 0
4847 -4846 4831 0
4847 4846 -4831 0
-4848 4847 4832 0
-4848 -4847 -4832 0
4848 -4847 4832 0
4848 4847 -4832 0
-4849 4848 4833 0
-4849 -4848 -4833 0
4849 -4848 4833 0
4849 4848 -4833 0
-4850 4849 4834 0
-4850 -4849 -4834 0
4850 -4849 4834 0
4850 4849 -4834 0
-4851 4850 4835 0
-4851 -4850 -4835 0
4851 -4850 4835 0
4851 4850 -4835 0
-4852 4851 4836 0
-4852 -4851 -4836 0
4852 -4851 4836 0
4852 4851 -4836 0
-4853 4852 4837 0
-4853 -4852 -4837 0
4853 -4852 4837 0
4853 4852 -4837 0
-4854 4853 4838 0
-4854 -4853 -4838 0
4854 -4853 4838 0
4854 4853 -4838 0
-4855 4854 4839 0
-4855 -4854 -4839 0
4855 -4854 4839 0
4855 4854 -4839 0
-4856 4855 4840 0
-4856 -4855 -4840 0
4856 -4855 4840 0
4856 4855 -4840 0
-4857 4856 4841 0
-4857 -4856 -4841 0
4857 -4856 4841 0
4857 4856 -4841 0
-4858 4857 4842 0
-4858 -4857 -4842 0
4858 -4857 4842 0
4858 4857 -4842 0
-4858 0
-4859 4413 0
-4859 46 0
4859 -4413 -46 0
-4860 4415 0
-4860 42 0
4860 -4415 -42 0
-4861 4417 0
-4861 39 0
4861 -4417 -39 0
-4862 4419 0
-4862 40 0
4862 -4419 -40 0
-4863 4421 0
-4863 39 0
4863 -4421 -39 0
-4864 4423 0
-4864 42 0
4864 -4423 -42 0
-4865 4425 0
-4865 94 0
4865 -4425 -94 0
-4866 4427 0
-4866 90 0
4866 -4427 -90 0
-4867 4429 0
-4867 87 0
4867 -4429 -87 0
-4868 4431 0
-4868 88 0
4868 -4431 -88 0
-4869 4433 0
-4869 87 0
4869 -4433 -87 0
-4870 4435 0
-4870 90 0
4870 -4435 -90 0
-4871 4437 0
-4871 142 0
4871 -4437 -142 0
-4872 4439 0
-4872 138 0
4872 -4439 -138 0
-4873 4441 0
-4873 135 0
4873 -4441 -135 0
-4874 4443 0
-4874 190 0
4874 -4443 -190 0
-4875 4445 0
-4875 184 0
4875 -4445 -184 0
-4876 4859 4860 0
-4876 -4859 -4860 0
4876 -4859 4860 0
4876 4859 -4860 0
-4877 4876 4861 0
-4877 -4876 -4861 0
4877 -4876 4861 0
4877 4876 -4861 0
-4878 4877 4862 0
-4878 -4877 -4862 0
4878 -4877 4862 0
4878 4877 -4862 0
-4879 4878 4863 0
-4879 -4878 -4863 0
4879 -4878 4863 0
4879 4878 -4863 0
-4880 4879 4864 0
-4880 -4879 -4864 0
4880 -4879 4864 0
4880 4879 -4864 0
-4881 4880 4865 0
-4881 -4880 -4865 0
4881 -4880 4865 0
4881 4880 -4865 0
-4882 4881 4866 0
-4882 -4881 -4866 0
4882 -4881 4866 0
4882 4881 -4866 0
-4883 4882 4867 0
-4883 -4882 -4867 0
4883 -4882 4867 0
4883 4882 -4867 0
-4884 4883 4868 0
-4884 -4883 -4868 0
4884 -4883 4868 0
4884 4883 -4868 0
-4885 4884 4869 0
-4885 -4884 -4869 0
4885 -4884 4869 0
4885 4884 -4869 0
-4886 4885 4870 0
-4886 -4885 -4870 0
4886 -4885 4870 0
4886 4885 -4870 0
-4887 4886 4871 0
-4887 -4886 -4871 0
4887 -4886 4871 0
4887 4886 -4871 0
-4888 4887 4872 0
-4888 -4887 -4872 0
4888 -4887 4872 0
4888 4887 -4872 0
-4889 4888 4873 0
-4889 -4888 -4873 0
4889 -4888 4873 0
4889 4888 -4873 0
-4890 4889 4874 0
-4890 -4889 -4874 0
4890 -4889 4874 0
4890 4889 -4874 0
-4891 4890 4875 0
-4891 -4890 -4875 0
4891 -4890 4875 0
4891 4890 -4875 0
-4891 0
-4892 4413 0
-4892 47 0
4892 -4413 -47 0
-4893 4415 0
-4893 44 0
4893 -4415 -44 0
-4894 4417 0
-4894 40 0
4894 -4417 -40 0
-4895 4419 0
-4895 44 0
4895 -4419 -44 0
-4896 4421 0
-4896 47 0
4896 -4421 -47 0
-4897 4423 0
-4897 46 0
4897 -4423 -46 0
-4898 4425 0
-4898 95 0
4898 -4425 -95 0
-4899 4427 0
-4899 92 0
4899 -4427 -92 0
-4900 4429 0
-4900 88 0
4900 -4429 -88 0
-4901 4431 0
-4901 92 0
4901 -4431 -92 0
-4902 4433 0
-4902 95 0
4902 -4433 -95 0
-4903 4435 0
-4903 94 0
4903 -4435 -94 0
-4904 4437 0
-4904 143 0
4904 -4437 -143 0
-4905 4439 0
-4905 140 0
4905 -4439 -140 0
-4906 4441 0
-4906 136 0
4906 -4441 -136 0
-4907 4443 0
-4907 191 0
4907 -4443 -191 0
-4908 4445 0
-4908 188 0
4908 -4445 -188 0
-4909 4892 4893 0
-4909 -4892 -4893 0
4909 -4892 4893 0
4909 4892 -4893 0
-4910 4909 4894 0
-4910 -4909 -4894 0
4910 -4909 4894 0
4910 4909 -4894 0
-4911 4910 4895 0
-4911 -4910 -4895 0
4911 -4910 4895 0
4911 4910 -4895 0
-4912 4911 4896 0
-4912 -4911 -4896 0
4912 -4911 4896 0
4912 4911 -4896 0
-4913 4912 4897 0
-4913 -4912 -4897 0
4913 -4912 4897 0
4913 4912 -4897 0
-4914 4913 4898 0
-4914 -4913 -4898 0
4914 -4913 4898 0
4914 4913 -4898 0
-4915 4914 4899 0
-4915 -4914 -4899 0
4915 -4914 4899 0
4915 4914 -4899 0
-4916 4915 4900 0
-4916 -4915 -4900 0
4916 -4915 4900 0
4916 4915 -4900 0
-4917 4916 4901 0
-4917 -4916 -4901 0
4917 -4916 4901 0
4917 4916 -4901 0
-4918 4917 4902 0
-4918 -4917 -4902 0
4918 -4917 4902 0
4918 4917 -4902 0
-4919 4918 4903 0
-4919 -4918 -4903 0
4919 -4918 4903 0
4919 4918 -4903 0
-4920 4919 4904 0
-4920 -4919 -4904 0
4920 -4919 4904 0
4920 4919 -4904 0
-4921 4920 4905 0
-4921 -4920 -4905 0
4921 -4920 4905 0
4921 4920 -4905 0
-4922 4921 4906 0
-4922 -4921 -4906 0
4922 -4921 4906 0
4922 4921 -4906 0
-4923 4922 4907 0
-4923 -4922 -4907 0
4923 -4922 4907 0
4923 4922 -4907 0
-4924 4923 4908 0
-4924 -4923 -4908 0
4924 -4923 4908 0
4924 4923 -4908 0
-4924 0
-4925 4413 0
-4925 48 0
4925 -4413 -48 0
-4926 4415 0
-4926 43 0
4926 -4415 -43 0
-4927 4417 0
-4927 38 0
4927 -4417 -38 0
-4928 4419 0
-4928 48 0
4928 -4419 -48 0
-4929 4421 0
-4929 43 0
4929 -4421 -43 0
-4930 4423 0
-4930 38 0
4930 -4423 -38 0
-4931 4425 0
-4931 96 0
4931 -4425 -96 0
-4932 4427 0
-4932 91 0
4932 -4427 -91 0
-4933 4429 0
-4933 86 0
4933 -4429 -86 0
-4934 4431 0
-4934 96 0
4934 -4431 -96 0
-4935 4433 0
-4935 91 0
4935 -4433 -91 0
-4936 4435 0
-4936 86 0
4936 -4435 -86 0
-4937 4437 0
-4937 144 0
4937 -4437 -144 0
-4938 4439 0
-4938 139 0
4938 -4439 -139 0
-4939 4441 0
-4939 134 0
4939 -4441 -134 0
-4940 4443 0
-4940 192 0
4940 -4443 -192 0
-4941 4445 0
-4941 192 0
4941 -4445 -192 0
-4942 4925 4926 0
-4942 -4925 -4926 0
4942 -4925 4926 0
4942 4925 -4926 0
-4943 4942 4927 0
-4943 -4942 -4927 0
4943 -4942 4927 0
4943 4942 -4927 0
-4944 4943 4928 0
-4944 -4943 -4928 0
4944 -4943 4928 0
4944 4943 -4928 0
-4945 4944 4929 0
-4945 -4944 -4929 0
4945 -4944 4929 0
4945 4944 -4929 0
-4946 4945 4930 0
-4946 -4945 -4930 0
4946 -4945 4930 0
4946 4945 -4930 0
-4947 4946 4931 0
-4947 -4946 -4931 0
4947 -4946 4931 0
4947 4946 -4931 0
-4948 4947 4932 0
-4948 -4947 -4932 0
4948 -4947 4932 0
4948 4947 -4932 0
-4949 4948 4933 0
-4949 -4948 -4933 0
4949 -4948 4933 0
4949 4948 -4933 0
-4950 4949 4934 0
-4950 -4949 -4934 0
4950 -4949 4934 0
4950 4949 -4934 0
-4951 4950 4935 0
-4951 -4950 -4935 0
4951 -4950 4935 0
4951 4950 -4935 0
-4952 4951 4936 0
-4952 -4951 -4936 0
4952 -4951 4936 0
4952 4951 -4936 0
-4953 4952 4937 0
-4953 -4952 -4937 0
4953 -4952 4937 0
4953 4952 -4937 0
-4954 4953 4938 0
-4954 -4953 -4938 0
4954 -4953 4938 0
4954 4953 -4938 0
-4955 4954 4939 0
-4955 -4954 -4939 0
4955 -4954 4939 0
4955 4954 -4939 0
-4956 4955 4940 0
-4956 -4955 -4940 0
4956 -4955 4940 0
4956 4955 -4940 0
-4957 4956 4941 0
-4957 -4956 -4941 0
4957 -4956 4941 0
4957 4956 -4941 0
-4957 0
-4958 4 0
-4958 19 0
4958 -4 -19 0
-4959 4958 0
-4959 33 0
4959 -4958 -33 0
-4960 4 0
-4960 24 0
4960 -4 -24 0
-4961 4960 0
-4961 33 0
4961 -4960 -33 0
-4962 29 0
-4962 9 0
4962 -29 -9 0
-4963 4962 0
-4963 33 0
4963 -4962 -33 0
-4964 29 0
-4964 14 0
4964 -29 -14 0
-4965 4964 0
-4965 33 0
4965 -4964 -33 0
-4966 52 0
-4966 67 0
4966 -52 -67 0
-4967 4966 0
-4967 81 0
4967 -4966 -81 0
-4968 52 0
-4968 72 0
4968 -52 -72 0
-4969 4968 0
-4969 81 0
4969 -4968 -81 0
-4970 77 0
-4970 57 0
4970 -77 -57 0
-4971 4970 0
-4971 81 0
4971 -4970 -81 0
-4972 77 0
-4972 62 0
4972 -77 -62 0
-4973 4972 0
-4973 81 0
4973 -4972 -81 0
-4974 100 0
-4974 115 0
4974 -100 -115 0
-4975 4974 0
-4975 129 0
4975 -4974 -129 0
-4976 100 0
-4976 120 0
4976 -100 -120 0
-4977 4976 0
-4977 129 0
4977 -4976 -129 0
-4978 148 0
-4978 163 0
4978 -148 -163 0
-4979 4978 0
-4979 177 0
4979 -4978 -177 0
-4980 173 0
-4980 153 0
4980 -173 -153 0
-4981 4980 0
-4981 177 0
4981 -4980 -177 0
-4982 4959 4961 0
-4982 -4959 -4961 0
4982 -4959 4961 0
4982 4959 -4961 0
-4983 4982 4961 0
-4983 -4982 -4961 0
4983 -4982 4961 0
4983 4982 -4961 0
-4984 4983 4963 0
-4984 -4983 -4963 0
4984 -4983 4963 0
4984 4983 -4963 0
-4985 4984 4965 0
-4985 -4984 -4965 0
4985 -4984 4965 0
4985 4984 -4965 0
-4986 4985 4965 0
-4986 -4985 -4965 0
4986 -4985 4965 0
4986 4985 -4965 0
-4987 4986 4967 0
-4987 -4986 -4967 0
4987 -4986 4967 0
4987 4986 -4967 0
-4988 4987 4969 0
-4988 -4987 -4969 0
4988 -4987 4969 0
4988 4987 -4969 0
-4989 4988 4969 0
-4989 -4988 -4969 0
4989 -4988 4969 0
4989 4988 -4969 0
-4990 4989 4971 0
-4990 -4989 -4971 0
4990 -4989 4971 0
4990 4989 -4971 0
-4991 4990 4973 0
-4991 -4990 -4973 0
4991 -4990 4973 0
4991 4990 -4973 0
-4992 4991 4973 0
-4992 -4991 -4973 0
4992 -4991 4973 0
4992 4991 -4973 0
-4993 4992 4975 0
-4993 -4992 -4975 0
4993 -4992 4975 0
4993 4992 -4975 0
-4994 4993 4977 0
-4994 -4993 -4977 0
4994 -4993 4977 0
4994 4993 -4977 0
-4995 4994 4977 0
-4995 -4994 -4977 0
4995 -4994 4977 0
4995 4994 -4977 0
-4996 4995 4979 0
-4996 -4995 -4979 0
4996 -4995 4979 0
4996 4995 -4979 0
-4997 4996 4981 0
-4997 -4996 -4981 0
4997 -4996 4981 0
4997 4996 -4981 0
-4997 0
-4998 4958 0
-4998 34 0
4998 -4958 -34 0
-4999 4960 0
-4999 34 0
4999 -4960 -34 0
-5000 4960 0
-5000 35 0
5000 -4960 -35 0
-5001 4962 0
-5001 37 0
5001 -4962 -37 0
-5002 4964 0
-5002 37 0
5002 -4964 -37 0
-5003 4964 0
-5003 41 0
5003 -4964 -41 0
-5004 4966 0
-5004 82 0
5004 -4966 -82 0
-5005 4968 0
-5005 82 0
5005 -4968 -82 0
-5006 4968 0
-5006 83 0
5006 -4968 -83 0
-5007 4970 0
-5007 85 0
5007 -4970 -85 0
-5008 4972 0
-5008 85 0
5008 -4972 -85 0
-5009 4972 0
-5009 89 0
5009 -4972 -89 0
-5010 4974 0
-5010 130 0
5010 -4974 -130 0
-5011 4976 0
-5011 130 0
5011 -4976 -130 0
-5012 4976 0
-5012 131 0
5012 -4976 -131 0
-5013 4978 0
-5013 178 0
5013 -4978 -178 0
-5014 4980 0
-5014 181 0
5014 -4980 -181 0
-5015 4998 4999 0
-5015 -4998 -4999 0
5015 -4998 4999 0
5015 4998 -4999 0
-5016 5015 5000 0
-5016 -5015 -5000 0
5016 -5015 5000 0
5016 5015 -5000 0
-5017 5016 5001 0
-5017 -5016 -5001 0
5017 -5016 5001 0
5017 5016 -5001 0
-5018 5017 5002 0
-5018 -5017 -5002 0
5018 -5017 5002 0
5018 5017 -5002 0
-5019 5018 5003 0
-5019 -5018 -5003 0
5019 -5018 5003 0
5019 5018 -5003 0
-5020 5019 5004 0
-5020 -5019 -5004 0
5020 -5019 5004 0
5020 5019 -5004 0
-5021 5020 5005 0
-5021 -5020 -5005 0
5021 -5020 5005 0
5021 5020 -5005 0
-5022 5021 5006 0
-5022 -5021 -5006 0
5022 -5021 5006 0
5022 5021 -5006 0
-5023 5022 5007 0
-5023 -5022 -5007 0
5023 -5022 5007 0
5023 5022 -5007 0
-5024 5023 5008 0
-5024 -5023 -5008 0
5024 -5023 5008 0
5024 5023 -5008 0
-5025 5024 5009 0
-5025 -5024 -5009 0
5025 -5024 5009 0
5025 5024 -5009 0
-5026 5025 5010 0
-5026 -5025 -5010 0
5026 -5025 5010 0
5026 5025 -5010 0
-5027 5026 5011 0
-5027 -5026 -5011 0
5027 -5026 5011 0
5027 5026 -5011 0
-5028 5027 5012 0
-5028 -5027 -5012 0
5028 -5027 5012 0
5028 5027 -5012 0
-5029 5028 5013 0
-5029 -5028 -5013 0
5029 -5028 5013 0
5029 5028 -5013 0
-5030 5029 5014 0
-5030 -5029 -5014 0
5030 -5029 5014 0
5030 5029 -5014 0
-5030 0
-5031 4958 0
-5031 35 0
5031 -4958 -35 0
-5032 4960 0
-5032 36 0
5032 -4960 -36 0
-5033 4962 0
-5033 41 0
5033 -4962 -41 0
-5034 4964 0
-5034 45 0
5034 -4964 -45 0
-5035 4966 0
-5035 83 0
5035 -4966 -83 0
-5036 4968 0
-5036 84 0
5036 -4968 -84 0
-5037 4970 0
-5037 89 0
5037 -4970 -89 0
-5038 4972 0
-5038 93 0
5038 -4972 -93 0
-5039 4974 0
-5039 131 0
5039 -4974 -131 0
-5040 4976 0
-5040 132 0
5040 -4976 -132 0
-5041 4978 0
-5041 179 0
5041 -4978 -179 0
-5042 4980 0
-5042 185 0
5042 -4980 -185 0
-5043 5031 5032 0
-5043 -5031 -5032 0
5043 -5031 5032 0
5043 5031 -5032 0
-5044 5043 5032 0
-5044 -5043 -5032 0
5044 -5043 5032 0
5044 5043 -5032 0
-5045 5044 5033 0
-5045 -5044 -5033 0
5045 -5044 5033 0
5045 5044 -5033 0
-5046 5045 5034 0
-5046 -5045 -5034 0
5046 -5045 5034 0
5046 5045 -5034 0
-5047 5046 5034 0
-5047 -5046 -5034 0
5047 -5046 5034 0
5047 5046 -5034 0
-5048 5047 5035 0
-5048 -5047 -5035 0
5048 -5047 5035 0
5048 5047 -5035 0
-5049 5048 5036 0
-5049 -5048 -5036 0
5049 -5048 5036 0
5049 5048 -5036 0
-5050 5049 5036 0
-5050 -5049 -5036 0
5050 -5049 5036 0
5050 5049 -5036 0
-5051 5050 5037 0
-5051 -5050 -5037 0
5051 -5050 5037 0
5051 5050 -5037 0
-5052 5051 5038 0
-5052 -5051 -5038 0
5052 -5051 5038 0
5052 5051 -5038 0
-5053 5052 5038 0
-5053 -5052 -5038 0
5053 -5052 5038 0
5053 5052 -5038 0
-5054 5053 5039 0
-5054 -5053 -5039 0
5054 -5053 5039 0
5054 5053 -5039 0
-5055 5054 5040 0
-5055 -5054 -5040 0
5055 -5054 5040 0
5055 5054 -5040 0
-5056 5055 5040 0
-5056 -5055 -5040 0
5056 -5055 5040 0
5056 5055 -5040 0
-5057 5056 5041 0
-5057 -5056 -5041 0
5057 -5056 5041 0
5057 5056 -5041 0
-5058 5057 5042 0
-5058 -5057 -5042 0
5058 -5057 5042 0
5058 5057 -5042 0
-5058 0
-5059 4958 0
-5059 37 0
5059 -4958 -37 0
-5060 4960 0
-5060 37 0
5060 -4960 -37 0
-5061 4960 0
-5061 41 0
5061 -4960 -41 0
-5062 4962 0
-5062 34 0
5062 -4962 -34 0
-5063 4964 0
-5063 34 0
5063 -4964 -34 0
-5064 4964 0
-5064 35 0
5064 -4964 -35 0
-5065 4966 0
-5065 85 0
5065 -4966 -85 0
-5066 4968 0
-5066 85 0
5066 -4968 -85 0
-5067 4968 0
-5067 89 0
5067 -4968 -89 0
-5068 4970 0
-5068 82 0
5068 -4970 -82 0
-5069 4972 0
-5069 82 0
5069 -4972 -82 0
-5070 4972 0
-5070 83 0
5070 -4972 -83 0
-5071 4974 0
-5071 133 0
5071 -4974 -133 0
-5072 4976 0
-5072 133 0
5072 -4976 -133 0
-5073 4976 0
-5073 137 0
5073 -4976 -137 0
-5074 4978 0
-5074 181 0
5074 -4978 -181 0
-5075 4980 0
-5075 178 0
5075 -4980 -178 0
-5076 5059 5060 0
-5076 -5059 -5060 0
5076 -5059 5060 0
5076 5059 -5060 0
-5077 5076 5061 0
-5077 -5076 -5061 0
5077 -5076 5061 0
5077 5076 -5061 0
-5078 5077 5062 0
-5078 -5077 -5062 0
5078 -5077 5062 0
5078 5077 -5062 0
-5079 5078 5063 0
-5079 -5078 -5063 0
5079 -5078 5063 0
5079 5078 -5063 0
-5080 5079 5064 0
-5080 -5079 -5064 0
5080 -5079 5064 0
5080 5079 -5064 0
-5081 5080 5065 0
-5081 -5080 -5065 0
5081 -5080 5065 0
5081 5080 -5065 0
-5082 5081 5066 0
-5082 -5081 -5066 0
5082 -5081 5066 0
5082 5081 -5066 0
-5083 5082 5067 0
-5083 -5082 -5067 0
5083 -5082 5067 0
5083 5082 -5067 0
-5084 5083 5068 0
-5084 -5083 -5068 0
5084 -5083 5068 0
5084 5083 -5068 0
-5085 5084 5069 0
-5085 -5084 -5069 0
5085 -5084 5069 0
5085 5084 -5069 0
-5086 5085 5070 0
-5086 -5085 -5070 0
5086 -5085 5070 0
5086 5085 -5070 0
-5087 5086 5071 0
-5087 -5086 -5071 0
5087 -5086 5071 0
5087 5086 -5071 0
-5088 5087 5072 0
-5088 -5087 -5072 0
5088 -5087 5072 0
5088 5087 -5072 0
-5089 5088 5073 0
-5089 -5088 -5073 0
5089 -5088 5073 0
5089 5088 -5073 0
-5090 5089 5074 0
-5090 -5089 -5074 0
5090 -5089 5074 0
5090 5089 -5074 0
-5091 5090 5075 0
-5091 -5090 -5075 0
5091 -5090 5075 0
5091 5090 -5075 0
-5091 0
-5092 4958 0
-5092 38 0
5092 -4958 -38 0
-5093 4960 0
-5093 38 0
5093 -4960 -38 0
-5094 4960 0
-5094 43 0
5094 -4960 -43 0
-5095 4962 0
-5095 38 0
5095 -4962 -38 0
-5096 4964 0
-5096 38 0
5096 -4964 -38 0
-5097 4964 0
-5097 43 0
5097 -4964 -43 0
-5098 4966 0
-5098 86 0
5098 -4966 -86 0
-5099 4968 0
-5099 86 0
5099 -4968 -86 0
-5100 4968 0
-5100 91 0
5100 -4968 -91 0
-5101 4970 0
-5101 86 0
5101 -4970 -86 0
-5102 4972 0
-5102 86 0
5102 -4972 -86 0
-5103 4972 0
-5103 91 0
5103 -4972 -91 0
-5104 4974 0
-5104 134 0
5104 -4974 -134 0
-5105 4976 0
-5105 134 0
5105 -4976 -134 0
-5106 4976 0
-5106 139 0
5106 -4976 -139 0
-5107 4978 0
-5107 182 0
5107 -4978 -182 0
-5108 4980 0
-5108 182 0
5108 -4980 -182 0
-5109 5092 5093 0
-5109 -5092 -5093 0
5109 -5092 5093 0
5109 5092 -5093 0
-5110 5109 5094 0
-5110 -5109 -5094 0
5110 -5109 5094 0
5110 5109 -5094 0
-5111 5110 5095 0
-5111 -5110 -5095 0
5111 -5110 5095 0
5111 5110 -5095 0
-5112 5111 5096 0
-5112 -5111 -5096 0
5112 -5111 5096 0
5112 5111 -5096 0
-5113 5112 5097 0
-5113 -5112 -5097 0
5113 -5112 5097 0
5113 5112 -5097 0
-5114 5113 5098 0
-5114 -5113 -5098 0
5114 -5113 5098 0
5114 5113 -5098 0
-5115 5114 5099 0
-5115 -5114 -5099 0
5115 -5114 5099 0
5115 5114 -5099 0
-5116 5115 5100 0
-5116 -5115 -5100 0
5116 -5115 5100 0
5116 5115 -5100 0
-5117 5116 5101 0
-5117 -5116 -5101 0
5117 -5116 5101 0
5117 5116 -5101 0
-5118 5117 5102 0
-5118 -5117 -5102 0
5118 -5117 5102 0
5118 5117 -5102 0
-5119 5118 5103 0
-5119 -5118 -5103 0
5119 -5118 5103 0
5119 5118 -5103 0
-5120 5119 5104 0
-5120 -5119 -5104 0
5120 -5119 5104 0
5120 5119 -5104 0
-5121 5120 5105 0
-5121 -5120 -5105 0
5121 -5120 5105 0
5121 5120 -5105 0
-5122 5121 5106 0
-5122 -5121 -5106 0
5122 -5121 5106 0
5122 5121 -5106 0
-5123 5122 5107 0
-5123 -5122 -5107 0
5123 -5122 5107 0
5123 5122 -5107 0
-5124 5123 5108 0
-5124 -5123 -5108 0
5124 -5123 5108 0
5124 5123 -5108 0
-5124 0
-5125 4958 0
-5125 39 0
5125 -4958 -39 0
-5126 4960 0
-5126 40 0
5126 -4960 -40 0
-5127 4960 0
-5127 44 0
5127 -4960 -44 0
-5128 4962 0
-5128 42 0
5128 -4962 -42 0
-5129 4964 0
-5129 46 0
5129 -4964 -46 0
-5130 4964 0
-5130 47 0
5130 -4964 -47 0
-5131 4966 0
-5131 87 0
5131 -4966 -87 0
-5132 4968 0
-5132 88 0
5132 -4968 -88 0
-5133 4968 0
-5133 92 0
5133 -4968 -92 0
-5134 4970 0
-5134 90 0
5134 -4970 -90 0
-5135 4972 0
-5135 94 0
5135 -4972 -94 0
-5136 4972 0
-5136 95 0
5136 -4972 -95 0
-5137 4974 0
-5137 135 0
5137 -4974 -135 0
-5138 4976 0
-5138 136 0
5138 -4976 -136 0
-5139 4976 0
-5139 140 0
5139 -4976 -140 0
-5140 4978 0
-5140 183 0
5140 -4978 -183 0
-5141 4980 0
-5141 186 0
5141 -4980 -186 0
-5142 5125 5126 0
-5142 -5125 -5126 0
5142 -5125 5126 0
5142 5125 -5126 0
-5143 5142 5127 0
-5143 -5142 -5127 0
5143 -5142 5127 0
5143 5142 -5127 0
-5144 5143 5128 0
-5144 -5143 -5128 0
5144 -5143 5128 0
5144 5143 -5128 0
-5145 5144 5129 0
-5145 -5144 -5129 0
5145 -5144 5129 0
5145 5144 -5129 0
-5146 5145 5130 0
-5146 -5145 -5130 0
5146 -5145 5130 0
5146 5145 -5130 0
-5147 5146 5131 0
-5147 -5146 -5131 0
5147 -5146 5131 0
5147 5146 -5131 0
-5148 5147 5132 0
-5148 -5147 -5132 0
5148 -5147 5132 0
5148 5147 -5132 0
-5149 5148 5133 0
-5149 -5148 -5133 0
5149 -5148 5133 0
5149 5148 -5133 0
-5150 5149 5134 0
-5150 -5149 -5134 0
5150 -5149 5134 0
5150 5149 -5134 0
-5151 5150 5135 0
-5151 -5150 -5135 0
5151 -5150 5135 0
5151 5150 -5135 0
-5152 5151 5136 0
-5152 -5151 -5136 0
5152 -5151 5136 0
5152 5151 -5136 0
-5153 5152 5137 0
-5153 -5152 -5137 0
5153 -5152 5137 0
5153 5152 -5137 0
-5154 5153 5138 0
-5154 -5153 -5138 0
5154 -5153 5138 0
5154 5153 -5138 0
-5155 5154 5139 0
-5155 -5154 -5139 0
5155 -5154 5139 0
5155 5154 -5139 0
-5156 5155 5140 0
-5156 -5155 -5140 0
5156 -5155 5140 0
5156 5155 -5140 0
-5157 5156 5141 0
-5157 -5156 -5141 0
5157 -5156 5141 0
5157 5156 -5141 0
-5157 0
-5158 4958 0
-5158 40 0
5158 -4958 -40 0
-5159 4960 0
-5159 39 0
5159 -4960 -39 0
-5160 4960 0
-5160 42 0
5160 -4960 -42 0
-5161 4962 0
-5161 46 0
5161 -4962 -46 0
-5162 4964 0
-5162 42 0
5162 -4964 -42 0
-5163 4964 0
-5163 39 0
5163 -4964 -39 0
-5164 4966 0
-5164 88 0
5164 -4966 -88 0
-5165 4968 0
-5165 87 0
5165 -4968 -87 0
-5166 4968 0
-5166 90 0
5166 -4968 -90 0
-5167 4970 0
-5167 94 0
5167 -4970 -94 0
-5168 4972 0
-5168 90 0
5168 -4972 -90 0
-5169 4972 0
-5169 87 0
5169 -4972 -87 0
-5170 4974 0
-5170 136 0
5170 -4974 -136 0
-5171 4976 0
-5171 135 0
5171 -4976 -135 0
-5172 4976 0
-5172 138 0
5172 -4976 -138 0
-5173 4978 0
-5173 184 0
5173 -4978 -184 0
-5174 4980 0
-5174 190 0
5174 -4980 -190 0
-5175 5158 5159 0
-5175 -5158 -5159 0
5175 -5158 5159 0
5175 5158 -5159 0
-5176 5175 5160 0
-5176 -5175 -5160 0
5176 -5175 5160 0
5176 5175 -5160 0
-5177 5176 5161 0
-5177 -5176 -5161 0
5177 -5176 5161 0
5177 5176 -5161 0
-5178 5177 5162 0
-5178 -5177 -5162 0
5178 -5177 5162 0
5178 5177 -5162 0
-5179 5178 5163 0
-5179 -5178 -5163 0
5179 -5178 5163 0
5179 5178 -5163 0
-5180 5179 5164 0
-5180 -5179 -5164 0
5180 -5179 5164 0
5180 5179 -5164 0
-5181 5180 5165 0
-5181 -5180 -5165 0
5181 -5180 5165 0
5181 5180 -5165 0
-5182 5181 5166 0
-5182 -5181 -5166 0
5182 -5181 5166 0
5182 5181 -5166 0
-5183 5182 5167 0
-5183 -5182 -5167 0
5183 -5182 5167 0
5183 5182 -5167 0
-5184 5183 5168 0
-5184 -5183 -5168 0
5184 -5183 5168 0
5184 5183 -5168 0
-5185 5184 5169 0
-5185 -5184 -5169 0
5185 -5184 5169 0
5185 5184 -5169 0
-5186 5185 5170 0
-5186 -5185 -5170 0
5186 -5185 5170 0
5186 5185 -5170 0
-5187 5186 5171 0
-5187 -5186 -5171 0
5187 -5186 5171 0
5187 5186 -5171 0
-5188 5187 5172 0
-5188 -5187 -5172 0
5188 -5187 5172 0
5188 5187 -5172 0
-5189 5188 5173 0
-5189 -5188 -5173 0
5189 -5188 5173 0
5189 5188 -5173 0
-5190 5189 5174 0
-5190 -5189 -5174 0
5190 -5189 5174 0
5190 5189 -5174 0
-5190 0
-5191 4958 0
-5191 41 0
5191 -4958 -41 0
-5192 4960 0
-5192 45 0
5192 -4960 -45 0
-5193 4962 0
-5193 35 0
5193 -4962 -35 0
-5194 4964 0
-5194 36 0
5194 -4964 -36 0
-5195 4966 0
-5195 89 0
5195 -4966 -89 0
-5196 4968 0
-5196 93 0
5196 -4968 -93 0
-5197 4970 0
-5197 83 0
5197 -4970 -83 0
-5198 4972 0
-5198 84 0
5198 -4972 -84 0
-5199 4974 0
-5199 137 0
5199 -4974 -137 0
-5200 4976 0
-5200 141 0
5200 -4976 -141 0
-5201 4978 0
-5201 185 0
5201 -4978 -185 0
-5202 4980 0
-5202 179 0
5202 -4980 -179 0
-5203 5191 5192 0
-5203 -5191 -5192 0
5203 -5191 5192 0
5203 5191 -5192 0
-5204 5203 5192 0
-5204 -5203 -5192 0
5204 -5203 5192 0
5204 5203 -5192 0
-5205 5204 5193 0
-5205 -5204 -5193 0
5205 -5204 5193 0
5205 5204 -5193 0
-5206 5205 5194 0
-5206 -5205 -5194 0
5206 -5205 5194 0
5206 5205 -5194 0
-5207 5206 5194 0
-5207 -5206 -5194 0
5207 -5206 5194 0
5207 5206 -5194 0
-5208 5207 5195 0
-5208 -5207 -5195 0
5208 -5207 5195 0
5208 5207 -5195 0
-5209 5208 5196 0
-5209 -5208 -5196 0
5209 -5208 5196 0
5209 5208 -5196 0
-5210 5209 5196 0
-5210 -5209 -5196 0
5210 -5209 5196 0
5210 5209 -5196 0
-5211 5210 5197 0
-5211 -5210 -5197 0
5211 -5210 5197 0
5211 5210 -5197 0
-5212 5211 5198 0
-5212 -5211 -5198 0
5212 -5211 5198 0
5212 5211 -5198 0
-5213 5212 5198 0
-5213 -5212 -5198 0
5213 -5212 5198 0
5213 5212 -5198 0
-5214 5213 5199 0
-5214 -5213 -5199 0
5214 -5213 5199 0
5214 5213 -5199 0
-5215 5214 5200 0
-5215 -5214 -5200 0
5215 -5214 5200 0
5215 5214 -5200 0
-5216 5215 5200 0
-5216 -5215 -5200 0
5216 -5215 5200 0
5216 5215 -5200 0
-5217 5216 5201 0
-5217 -5216 -5201 0
5217 -5216 5201 0
5217 5216 -5201 0
-5218 5217 5202 0
-5218 -5217 -5202 0
5218 -5217 5202 0
5218 5217 -5202 0
-5218 0
-5219 4958 0
-5219 42 0
5219 -4958 -42 0
-5220 4960 0
-5220 46 0
5220 -4960 -46 0
-5221 4960 0
-5221 47 0
5221 -4960 -47 0
-5222 4962 0
-5222 39 0
5222 -4962 -39 0
-5223 4964 0
-5223 40 0
5223 -4964 -40 0
-5224 4964 0
-5224 44 0
5224 -4964 -44 0
-5225 4966 0
-5225 90 0
5225 -4966 -90 0
-5226 4968 0
-5226 94 0
5226 -4968 -94 0
-5227 4968 0
-5227 95 0
5227 -4968 -95 0
-5228 4970 0
-5228 87 0
5228 -4970 -87 0
-5229 4972 0
-5229 88 0
5229 -4972 -88 0
-5230 4972 0
-5230 92 0
5230 -4972 -92 0
-5231 4974 0
-5231 138 0
5231 -4974 -138 0
-5232 4976 0
-5232 142 0
5232 -4976 -142 0
-5233 4976 0
-5233 143 0
5233 -4976 -143 0
-5234 4978 0
-5234 186 0
5234 -4978 -186 0
-5235 4980 0
-5235 183 0
5235 -4980 -183 0
-5236 5219 5220 0
-5236 -5219 -5220 0
5236 -5219 5220 0
5236 5219 -5220 0
-5237 5236 5221 0
-5237 -5236 -5221 0
5237 -5236 5221 0
5237 5236 -5221 0
-5238 5237 5222 0
-5238 -5237 -5222 0
5238 -5237 5222 0
5238 5237 -5222 0
-5239 5238 5223 0
-5239 -5238 -5223 0
5239 -5238 5223 0
5239 5238 -5223 0
-5240 5239 5224 0
-5240 -5239 -5224 0
5240 -5239 5224 0
5240 5239 -5224 0
-5241 5240 5225 0
-5241 -5240 -5225 0
5241 -5240 5225 0
5241 5240 -5225 0
-5242 5241 5226 0
-5242 -5241 -5226 0
5242 -5241 5226 0
5242 5241 -5226 0
-5243 5242 5227 0
-5243 -5242 -5227 0
5243 -5242 5227 0
5243 5242 -5227 0
-5244 5243 5228 0
-5244 -5243 -5228 0
5244 -5243 5228 0
5244 5243 -5228 0
-5245 5244 5229 0
-5245 -5244 -5229 0
5245 -5244 5229 0
5245 5244 -5229 0
-5246 5245 5230 0
-5246 -5245 -5230 0
5246 -5245 5230 0
5246 5245 -5230 0
-5247 5246 5231 0
-5247 -5246 -5231 0
5247 -5246 5231 0
5247 5246 -5231 0
-5248 5247 5232 0
-5248 -5247 -5232 0
5248 -5247 5232 0
5248 5247 -5232 0
-5249 5248 5233 0
-5249 -5248 -5233 0
5249 -5248 5233 0
5249 5248 -5233 0
-5250 5249 5234 0
-5250 -5249 -5234 0
5250 -5249 5234 0
5250 5249 -5234 0
-5251 5250 5235 0
-5251 -5250 -5235 0
5251 -5250 5235 0
5251 5250 -5235 0
-5251 0
-5252 4958 0
-5252 43 0
5252 -4958 -43 0
-5253 4960 0
-5253 48 0
5253 -4960 -48 0
-5254 4962 0
-5254 43 0
5254 -4962 -43 0
-5255 4964 0
-5255 48 0
5255 -4964 -48 0
-5256 4966 0
-5256 91 0
5256 -4966 -91 0
-5257 4968 0
-5257 96 0
5257 -4968 -96 0
-5258 4970 0
-5258 91 0
5258 -4970 -91 0
-5259 4972 0
-5259 96 0
5259 -4972 -96 0
-5260 4974 0
-5260 139 0
5260 -4974 -139 0
-5261 4976 0
-5261 144 0
5261 -4976 -144 0
-5262 4978 0
-5262 187 0
5262 -4978 -187 0
-5263 4980 0
-5263 187 0
5263 -4980 -187 0
-5264 5252 5253 0
-5264 -5252 -5253 0
5264 -5252 5253 0
5264 5252 -5253 0
-5265 5264 5253 0
-5265 -5264 -5253 0
5265 -5264 5253 0
5265 5264 -5253 0
-5266 5265 5254 0
-5266 -5265 -5254 0
5266 -5265 5254 0
5266 5265 -5254 0
-5267 5266 5255 0
-5267 -5266 -5255 0
5267 -5266 5255 0
5267 5266 -5255 0
-5268 5267 5255 0
-5268 -5267 -5255 0
5268 -5267 5255 0
5268 5267 -5255 0
-5269 5268 5256 0
-5269 -5268 -5256 0
5269 -5268 5256 0
5269 5268 -5256 0
-5270 5269 5257 0
-5270 -5269 -5257 0
5270 -5269 5257 0
5270 5269 -5257 0
-5271 5270 5257 0
-5271 -5270 -5257 0
5271 -5270 5257 0
5271 5270 -5257 0
-5272 5271 5258 0
-5272 -5271 -5258 0
5272 -5271 5258 0
5272 5271 -5258 0
-5273 5272 5259 0
-5273 -5272 -5259 0
5273 -5272 5259 0
5273 5272 -5259 0
-5274 5273 5259 0
-5274 -5273 -5259 0
5274 -5273 5259 0
5274 5273 -5259 0
-5275 5274 5260 0
-5275 -5274 -5260 0
5275 -5274 5260 0
5275 5274 -5260 0
-5276 5275 5261 0
-5276 -5275 -5261 0
5276 -5275 5261 0
5276 5275 -5261 0
-5277 5276 5261 0
-5277 -5276 -5261 0
5277 -5276 5261 0
5277 5276 -5261 0
-5278 5277 5262 0
-5278 -5277 -5262 0
5278 -5277 5262 0
5278 5277 -5262 0
-5279 5278 5263 0
-5279 -5278 -5263 0
5279 -5278 5263 0
5279 5278 -5263 0
-5279 0
-5280 4 0
-5280 29 0
5280 -4 -29 0
-5281 5280 0
-5281 33 0
5281 -5280 -33 0
-5282 52 0
-5282 77 0
5282 -52 -77 0
-5283 5282 0
-5283 81 0
5283 -5282 -81 0
-5284 100 0
-5284 125 0
5284 -100 -125 0
-5285 5284 0
-5285 129 0
5285 -5284 -129 0
-5286 148 0
-5286 173 0
5286 -148 -173 0
-5287 5286 0
-5287 177 0
5287 -5286 -177 0
-5288 5281 5281 0
-5288 -5281 -5281 0
5288 -5281 5281 0
5288 5281 -5281 0
-5289 5288 5281 0
-5289 -5288 -5281 0
5289 -5288 5281 0
5289 5288 -5281 0
-5290 5289 5281 0
-5290 -5289 -5281 0
5290 -5289 5281 0
5290 5289 -5281 0
-5291 5290 5281 0
-5291 -5290 -5281 0
5291 -5290 5281 0
5291 5290 -5281 0
-5292 5291 5281 0
-5292 -5291 -5281 0
5292 -5291 5281 0
5292 5291 -5281 0
-5293 5292 5283 0
-5293 -5292 -5283 0
5293 -5292 5283 0
5293 5292 -5283 0
-5294 5293 5283 0
-5294 -5293 -5283 0
5294 -5293 5283 0
5294 5293 -5283 0
-5295 5294 5283 0
-5295 -5294 -5283 0
5295 -5294 5283 0
5295 5294 -5283 0
-5296 5295 5283 0
-5296 -5295 -5283 0
5296 -5295 5283 0
5296 5295 -5283 0
-5297 5296 5283 0
-5297 -5296 -5283 0
5297 -5296 5283 0
5297 5296 -5283 0
-5298 5297 5283 0
-5298 -5297 -5283 0
5298 -5297 5283 0
5298 5297 -5283 0
-5299 5298 5285 0
-5299 -5298 -5285 0
5299 -5298 5285 0
5299 5298 -5285 0
-5300 5299 5285 0
-5300 -5299 -5285 0
5300 -5299 5285 0
5300 5299 -5285 0
-5301 5300 5285 0
-5301 -5300 -5285 0
5301 -5300 5285 0
5301 5300 -5285 0
-5302 5301 5287 0
-5302 -5301 -5287 0
5302 -5301 5287 0
5302 5301 -5287 0
-5303 5302 5287 0
-5303 -5302 -5287 0
5303 -5302 5287 0
5303 5302 -5287 0
-5303 0
-5304 5280 0
-5304 34 0
5304 -5280 -34 0
-5305 5280 0
-5305 35 0
5305 -5280 -35 0
-5306 5280 0
-5306 37 0
5306 -5280 -37 0
-5307 5280 0
-5307 41 0
5307 -5280 -41 0
-5308 5282 0
-5308 82 0
5308 -5282 -82 0
-5309 5282 0
-5309 83 0
5309 -5282 -83 0
-5310 5282 0
-5310 85 0
5310 -5282 -85 0
-5311 5282 0
-5311 89 0
5311 -5282 -89 0
-5312 5284 0
-5312 130 0
5312 -5284 -130 0
-5313 5284 0
-5313 131 0
5313 -5284 -131 0
-5314 5286 0
-5314 178 0
5314 -5286 -178 0
-5315 5286 0
-5315 181 0
5315 -5286 -181 0
-5316 5304 5304 0
-5316 -5304 -5304 0
5316 -5304 5304 0
5316 5304 -5304 0
-5317 5316 5305 0
-5317 -5316 -5305 0
5317 -5316 5305 0
5317 5316 -5305 0
-5318 5317 5306 0
-5318 -5317 -5306 0
5318 -5317 5306 0
5318 5317 -5306 0
-5319 5318 5306 0
-5319 -5318 -5306 0
5319 -5318 5306 0
5319 5318 -5306 0
-5320 5319 5307 0
-5320 -5319 -5307 0
5320 -5319 5307 0
5320 5319 -5307 0
-5321 5320 5308 0
-5321 -5320 -5308 0
5321 -5320 5308 0
5321 5320 -5308 0
-5322 5321 5308 0
-5322 -5321 -5308 0
5322 -5321 5308 0
5322 5321 -5308 0
-5323 5322 5309 0
-5323 -5322 -5309 0
5323 -5322 5309 0
5323 5322 -5309 0
-5324 5323 5310 0
-5324 -5323 -5310 0
5324 -5323 5310 0
5324 5323 -5310 0
-5325 5324 5310 0
-5325 -5324 -5310 0
5325 -5324 5310 0
5325 5324 -5310 0
-5326 5325 5311 0
-5326 -5325 -5311 0
5326 -5325 5311 0
5326 5325 -5311 0
-5327 5326 5312 0
-5327 -5326 -5312 0
5327 -5326 5312 0
5327 5326 -5312 0
-5328 5327 5312 0
-5328 -5327 -5312 0
5328 -5327 5312 0
5328 5327 -5312 0
-5329 5328 5313 0
-5329 -5328 -5313 0
5329 -5328 5313 0
5329 5328 -5313 0
-5330 5329 5314 0
-5330 -5329 -5314 0
5330 -5329 5314 0
5330 5329 -5314 0
-5331 5330 5315 0
-5331 -5330 -5315 0
5331 -5330 5315 0
5331 5330 -5315 0
-5331 0
-5332 5280 0
-5332 38 0
5332 -5280 -38 0
-5333 5280 0
-5333 43 0
5333 -5280 -43 0
-5334 5282 0
-5334 86 0
5334 -5282 -86 0
-5335 5282 0
-5335 91 0
5335 -5282 -91 0
-5336 5284 0
-5336 134 0
5336 -5284 -134 0
-5337 5284 0
-5337 139 0
5337 -5284 -139 0
-5338 5286 0
-5338 182 0
5338 -5286 -182 0
-5339 5332 5332 0
-5339 -5332 -5332 0
5339 -5332 5332 0
5339 5332 -5332 0
-5340 5339 5333 0
-5340 -5339 -5333 0
5340 -5339 5333 0
5340 5339 -5333 0
-5341 5340 5332 0
-5341 -5340 -5332 0
5341 -5340 5332 0
5341 5340 -5332 0
-5342 5341 5332 0
-5342 -5341 -5332 0
5342 -5341 5332 0
5342 5341 -5332 0
-5343 5342 5333 0
-5343 -5342 -5333 0
5343 -5342 5333 0
5343 5342 -5333 0
-5344 5343 5334 0
-5344 -5343 -5334 0
5344 -5343 5334 0
5344 5343 -5334 0
-5345 5344 5334 0
-5345 -5344 -5334 0
5345 -5344 5334 0
5345 5344 -5334 0
-5346 5345 5335 0
-5346 -5345 -5335 0
5346 -5345 5335 0
5346 5345 -5335 0
-5347 5346 5334 0
-5347 -5346 -5334 0
5347 -5346 5334 0
5347 5346 -5334 0
-5348 5347 5334 0
-5348 -5347 -5334 0
5348 -5347 5334 0
5348 5347 -5334 0
-5349 5348 5335 0
-5349 -5348 -5335 0
5349 -5348 5335 0
5349 5348 -5335 0
-5350 5349 5336 0
-5350 -5349 -5336 0
5350 -5349 5336 0
5350 5349 -5336 0
-5351 5350 5336 0
-5351 -5350 -5336 0
5351 -5350 5336 0
5351 5350 -5336 0
-5352 5351 5337 0
-5352 -5351 -5337 0
5352 -5351 5337 0
5352 5351 -5337 0
-5353 5352 5338 0
-5353 -5352 -5338 0
5353 -5352 5338 0
5353 5352 -5338 0
-5354 5353 5338 0
-5354 -5353 -5338 0
5354 -5353 5338 0
5354 5353 -5338 0
-5354 0
-5355 5280 0
-5355 39 0
5355 -5280 -39 0
-5356 5280 0
-5356 40 0
5356 -5280 -40 0
-5357 5280 0
-5357 44 0
5357 -5280 -44 0
-5358 5280 0
-5358 42 0
5358 -5280 -42 0
-5359 5280 0
-5359 46 0
5359 -5280 -46 0
-5360 5280 0
-5360 47 0
5360 -5280 -47 0
-5361 5282 0
-5361 87 0
5361 -5282 -87 0
-5362 5282 0
-5362 88 0
5362 -5282 -88 0
-5363 5282 0
-5363 92 0
5363 -5282 -92 0
-5364 5282 0
-5364 90 0
5364 -5282 -90 0
-5365 5282 0
-5365 94 0
5365 -5282 -94 0
-5366 5282 0
-5366 95 0
5366 -5282 -95 0
-5367 5284 0
-5367 135 0
5367 -5284 -135 0
-5368 5284 0
-5368 136 0
5368 -5284 -136 0
-5369 5284 0
-5369 140 0
5369 -5284 -140 0
-5370 5286 0
-5370 183 0
5370 -5286 -183 0
-5371 5286 0
-5371 186 0
5371 -5286 -186 0
-5372 5355 5356 0
-5372 -5355 -5356 0
5372 -5355 5356 0
5372 5355 -5356 0
-5373 5372 5357 0
-5373 -5372 -5357 0
5373 -5372 5357 0
5373 5372 -5357 0
-5374 5373 5358 0
-5374 -5373 -5358 0
5374 -5373 5358 0
5374 5373 -5358 0
-5375 5374 5359 0
-5375 -5374 -5359 0
5375 -5374 5359 0
5375 5374 -5359 0
-5376 5375 5360 0
-5376 -5375 -5360 0
5376 -5375 5360 0
5376 5375 -5360 0
-5377 5376 5361 0
-5377 -5376 -5361 0
5377 -5376 5361 0
5377 5376 -5361 0
-5378 5377 5362 0
-5378 -5377 -5362 0
5378 -5377 5362 0
5378 5377 -5362 0
-5379 5378 5363 0
-5379 -5378 -5363 0
5379 -5378 5363 0
5379 5378 -5363 0
-5380 5379 5364 0
-5380 -5379 -5364 0
5380 -5379 5364 0
5380 5379 -5364 0
-5381 5380 5365 0
-5381 -5380 -5365 0
5381 -5380 5365 0
5381 5380 -5365 0
-5382 5381 5366 0
-5382 -5381 -5366 0
5382 -5381 5366 0
5382 5381 -5366 0
-5383 5382 5367 0
-5383 -5382 -5367 0
5383 -5382 5367 0
5383 5382 -5367 0
-5384 5383 5368 0
-5384 -5383 -5368 0
5384 -5383 5368 0
5384 5383 -5368 0
-5385 5384 5369 0
-5385 -5384 -5369 0
5385 -5384 5369 0
5385 5384 -5369 0
-5386 5385 5370 0
-5386 -5385 -5370 0
5386 -5385 5370 0
5386 5385 -5370 0
-5387 5386 5371 0
-5387 -5386 -5371 0
5387 -5386 5371 0
5387 5386 -5371 0
-5387 0
-5388 4 0
-5388 30 0
5388 -4 -30 0
-5389 5388 0
-5389 33 0
5389 -5388 -33 0
-5390 4 0
-5390 31 0
5390 -4 -31 0
-5391 5390 0
-5391 33 0
5391 -5390 -33 0
-5392 29 0
-5392 8 0
5392 -29 -8 0
-5393 5392 0
-5393 33 0
5393 -5392 -33 0
-5394 29 0
-5394 12 0
5394 -29 -12 0
-5395 5394 0
-5395 33 0
5395 -5394 -33 0
-5396 52 0
-5396 78 0
5396 -52 -78 0
-5397 5396 0
-5397 81 0
5397 -5396 -81 0
-5398 52 0
-5398 79 0
5398 -52 -79 0
-5399 5398 0
-5399 81 0
5399 -5398 -81 0
-5400 77 0
-5400 56 0
5400 -77 -56 0
-5401 5400 0
-5401 81 0
5401 -5400 -81 0
-5402 77 0
-5402 60 0
5402 -77 -60 0
-5403 5402 0
-5403 81 0
5403 -5402 -81 0
-5404 100 0
-5404 126 0
5404 -100 -126 0
-5405 5404 0
-5405 129 0
5405 -5404 -129 0
-5406 100 0
-5406 127 0
5406 -100 -127 0
-5407 5406 0
-5407 129 0
5407 -5406 -129 0
-5408 148 0
-5408 174 0
5408 -148 -174 0
-5409 5408 0
-5409 177 0
5409 -5408 -177 0
-5410 173 0
-5410 152 0
5410 -173 -152 0
-5411 5410 0
-5411 177 0
5411 -5410 -177 0
-5412 5389 5389 0
-5412 -5389 -5389 0
5412 -5389 5389 0
5412 5389 -5389 0
-5413 5412 5391 0
-5413 -5412 -5391 0
5413 -5412 5391 0
5413 5412 -5391 0
-5414 5413 5393 0
-5414 -5413 -5393 0
5414 -5413 5393 0
5414 5413 -5393 0
-5415 5414 5393 0
-5415 -5414 -5393 0
5415 -5414 5393 0
5415 5414 -5393 0
-5416 5415 5395 0
-5416 -5415 -5395 0
5416 -5415 5395 0
5416 5415 -5395 0
-5417 5416 5397 0
-5417 -5416 -5397 0
5417 -5416 5397 0
5417 5416 -5397 0
-5418 5417 5397 0
-5418 -5417 -5397 0
5418 -5417 5397 0
5418 5417 -5397 0
-5419 5418 5399 0
-5419 -5418 -5399 0
5419 -5418 5399 0
5419 5418 -5399 0
-5420 5419 5401 0
-5420 -5419 -5401 0
5420 -5419 5401 0
5420 5419 -5401 0
-5421 5420 5401 0
-5421 -5420 -5401 0
5421 -5420 5401 0
5421 5420 -5401 0
-5422 5421 5403 0
-5422 -5421 -5403 0
5422 -5421 5403 0
5422 5421 -5403 0
-5423 5422 5405 0
-5423 -5422 -5405 0
5423 -5422 5405 0
5423 5422 -5405 0
-5424 5423 5405 0
-5424 -5423 -5405 0
5424 -5423 5405 0
5424 5423 -5405 0
-5425 5424 5407 0
-5425 -5424 -5407 0
5425 -5424 5407 0
5425 5424 -5407 0
-5426 5425 5409 0
-5426 -5425 -5409 0
5426 -5425 5409 0
5426 5425 -5409 0
-5427 5426 5411 0
-5427 -5426 -5411 0
5427 -5426 5411 0
5427 5426 -5411 0
-5427 0
-5428 5388 0
-5428 34 0
5428 -5388 -34 0
-5429 5390 0
-5429 35 0
5429 -5390 -35 0
-5430 5392 0
-5430 37 0
5430 -5392 -37 0
-5431 5394 0
-5431 41 0
5431 -5394 -41 0
-5432 5396 0
-5432 82 0
5432 -5396 -82 0
-5433 5398 0
-5433 83 0
5433 -5398 -83 0
-5434 5400 0
-5434 85 0
5434 -5400 -85 0
-5435 5402 0
-5435 89 0
5435 -5402 -89 0
-5436 5404 0
-5436 130 0
5436 -5404 -130 0
-5437 5406 0
-5437 131 0
5437 -5406 -131 0
-5438 5408 0
-5438 178 0
5438 -5408 -178 0
-5439 5410 0
-5439 181 0
5439 -5410 -181 0
-5440 5428 5428 0
-5440 -5428 -5428 0
5440 -5428 5428 0
5440 5428 -5428 0
-5441 5440 5429 0
-5441 -5440 -5429 0
5441 -5440 5429 0
5441 5440 -5429 0
-5442 5441 5430 0
-5442 -5441 -5430 0
5442 -5441 5430 0
5442 5441 -5430 0
-5443 5442 5430 0
-5443 -5442 -5430 0
5443 -5442 5430 0
5443 5442 -5430 0
-5444 5443 5431 0
-5444 -5443 -5431 0
5444 -5443 5431 0
5444 5443 -5431 0
-5445 5444 5432 0
-5445 -5444 -5432 0
5445 -5444 5432 0
5445 5444 -5432 0
-5446 5445 5432 0
-5446 -5445 -5432 0
5446 -5445 5432 0
5446 5445 -5432 0
-5447 5446 5433 0
-5447 -5446 -5433 0
5447 -5446 5433 0
5447 5446 -5433 0
-5448 5447 5434 0
-5448 -5447 -5434 0
5448 -5447 5434 0
5448 5447 -5434 0
-5449 5448 5434 0
-5449 -5448 -5434 0
5449 -5448 5434 0
5449 5448 -5434 0
-5450 5449 5435 0
-5450 -5449 -5435 0
5450 -5449 5435 0
5450 5449 -5435 0
-5451 5450 5436 0
-5451 -5450 -5436 0
5451 -5450 5436 0
5451 5450 -5436 0
-5452 5451 5436 0
-5452 -5451 -5436 0
5452 -5451 5436 0
5452 5451 -5436 0
-5453 5452 5437 0
-5453 -5452 -5437 0
5453 -5452 5437 0
5453 5452 -5437 0
-5454 5453 5438 0
-5454 -5453 -5438 0
5454 -5453 5438 0
5454 5453 -5438 0
-5455 5454 5439 0
-5455 -5454 -5439 0
5455 -5454 5439 0
5455 5454 -5439 0
-5455 0
-5456 5388 0
-5456 35 0
5456 -5388 -35 0
-5457 5388 0
-5457 36 0
5457 -5388 -36 0
-5458 5390 0
-5458 36 0
5458 -5390 -36 0
-5459 5392 0
-5459 41 0
5459 -5392 -41 0
-5460 5392 0
-5460 45 0
5460 -5392 -45 0
-5461 5394 0
-5461 45 0
5461 -5394 -45 0
-5462 5396 0
-5462 83 0
5462 -5396 -83 0
-5463 5396 0
-5463 84 0
5463 -5396 -84 0
-5464 5398 0
-5464 84 0
5464 -5398 -84 0
-5465 5400 0
-5465 89 0
5465 -5400 -89 0
-5466 5400 0
-5466 93 0
5466 -5400 -93 0
-5467 5402 0
-5467 93 0
5467 -5402 -93 0
-5468 5404 0
-5468 131 0
5468 -5404 -131 0
-5469 5404 0
-5469 132 0
5469 -5404 -132 0
-5470 5406 0
-5470 132 0
5470 -5406 -132 0
-5471 5408 0
-5471 179 0
5471 -5408 -179 0
-5472 5410 0
-5472 185 0
5472 -5410 -185 0
-5473 5456 5457 0
-5473 -5456 -5457 0
5473 -5456 5457 0
5473 5456 -5457 0
-5474 5473 5458 0
-5474 -5473 -5458 0
5474 -5473 5458 0
5474 5473 -5458 0
-5475 5474 5459 0
-5475 -5474 -5459 0
5475 -5474 5459 0
5475 5474 -5459 0
-5476 5475 5460 0
-5476 -5475 -5460 0
5476 -5475 5460 0
5476 5475 -5460 0
-5477 5476 5461 0
-5477 -5476 -5461 0
5477 -5476 5461 0
5477 5476 -5461 0
-5478 5477 5462 0
-5478 -5477 -5462 0
5478 -5477 5462 0
5478 5477 -5462 0
-5479 5478 5463 0
-5479 -5478 -5463 0
5479 -5478 5463 0
5479 5478 -5463 0
-5480 5479 5464 0
-5480 -5479 -5464 0
5480 -5479 5464 0
5480 5479 -5464 0
-5481 5480 5465 0
-5481 -5480 -5465 0
5481 -5480 5465 0
5481 5480 -5465 0
-5482 5481 5466 0
-5482 -5481 -5466 0
5482 -5481 5466 0
5482 5481 -5466 0
-5483 5482 5467 0
-5483 -5482 -5467 0
5483 -5482 5467 0
5483 5482 -5467 0
-5484 5483 5468 0
-5484 -5483 -5468 0
5484 -5483 5468 0
5484 5483 -5468 0
-5485 5484 5469 0
-5485 -5484 -5469 0
5485 -5484 5469 0
5485 5484 -5469 0
-5486 5485 5470 0
-5486 -5485 -5470 0
5486 -5485 5470 0
5486 5485 -5470 0
-5487 5486 5471 0
-5487 -5486 -5471 0
5487 -5486 5471 0
5487 5486 -5471 0
-5488 5487 5472 0
-5488 -5487 -5472 0
5488 -5487 5472 0
5488 5487 -5472 0
-5488 0
-5489 5388 0
-5489 37 0
5489 -5388 -37 0
-5490 5390 0
-5490 41 0
5490 -5390 -41 0
-5491 5392 0
-5491 34 0
5491 -5392 -34 0
-5492 5394 0
-5492 35 0
5492 -5394 -35 0
-5493 5396 0
-5493 85 0
5493 -5396 -85 0
-5494 5398 0
-5494 89 0
5494 -5398 -89 0
-5495 5400 0
-5495 82 0
5495 -5400 -82 0
-5496 5402 0
-5496 83 0
5496 -5402 -83 0
-5497 5404 0
-5497 133 0
5497 -5404 -133 0
-5498 5406 0
-5498 137 0
5498 -5406 -137 0
-5499 5408 0
-5499 181 0
5499 -5408 -181 0
-5500 5410 0
-5500 178 0
5500 -5410 -178 0
-5501 5489 5489 0
-5501 -5489 -5489 0
5501 -5489 5489 0
5501 5489 -5489 0
-5502 5501 5490 0
-5502 -5501 -5490 0
5502 -5501 5490 0
5502 5501 -5490 0
-5503 5502 5491 0
-5503 -5502 -5491 0
5503 -5502 5491 0
5503 5502 -5491 0
-5504 5503 5491 0
-5504 -5503 -5491 0
5504 -5503 5491 0
5504 5503 -5491 0
-5505 5504 5492 0
-5505 -5504 -5492 0
5505 -5504 5492 0
5505 5504 -5492 0
-5506 5505 5493 0
-5506 -5505 -5493 0
5506 -5505 5493 0
5506 5505 -5493 0
-5507 5506 5493 0
-5507 -5506 -5493 0
5507 -5506 5493 0
5507 5506 -5493 0
-5508 5507 5494 0
-5508 -5507 -5494 0
5508 -5507 5494 0
5508 5507 -5494 0
-5509 5508 5495 0
-5509 -5508 -5495 0
5509 -5508 5495 0
5509 5508 -5495 0
-5510 5509 5495 0
-5510 -5509 -5495 0
5510 -5509 5495 0
5510 5509 -5495 0
-5511 5510 5496 0
-5511 -5510 -5496 0
5511 -5510 5496 0
5511 5510 -5496 0
-5512 5511 5497 0
-5512 -5511 -5497 0
5512 -5511 5497 0
5512 5511 -5497 0
-5513 5512 5497 0
-5513 -5512 -5497 0
5513 -5512 5497 0
5513 5512 -5497 0
-5514 5513 5498 0
-5514 -5513 -5498 0
5514 -5513 5498 0
5514 5513 -5498 0
-5515 5514 5499 0
-5515 -5514 -5499 0
5515 -5514 5499 0
5515 5514 -5499 0
-5516 5515 5500 0
-5516 -5515 -5500 0
5516 -5515 5500 0
5516 5515 -5500 0
-5516 0
-5517 5388 0
-5517 38 0
5517 -5388 -38 0
-5518 5390 0
-5518 43 0
5518 -5390 -43 0
-5519 5392 0
-5519 38 0
5519 -5392 -38 0
-5520 5394 0
-5520 43 0
5520 -5394 -43 0
-5521 5396 0
-5521 86 0
5521 -5396 -86 0
-5522 5398 0
-5522 91 0
5522 -5398 -91 0
-5523 5400 0
-5523 86 0
5523 -5400 -86 0
-5524 5402 0
-5524 91 0
5524 -5402 -91 0
-5525 5404 0
-5525 134 0
5525 -5404 -134 0
-5526 5406 0
-5526 139 0
5526 -5406 -139 0
-5527 5408 0
-5527 182 0
5527 -5408 -182 0
-5528 5410 0
-5528 182 0
5528 -5410 -182 0
-5529 5517 5517 0
-5529 -5517 -5517 0
5529 -5517 5517 0
5529 5517 -5517 0
-5530 5529 5518 0
-5530 -5529 -5518 0
5530 -5529 5518 0
5530 5529 -5518 0
-5531 5530 5519 0
-5531 -5530 -5519 0
5531 -5530 5519 0
5531 5530 -5519 0
-5532 5531 5519 0
-5532 -5531 -5519 0
5532 -5531 5519 0
5532 5531 -5519 0
-5533 5532 5520 0
-5533 -5532 -5520 0
5533 -5532 5520 0
5533 5532 -5520 0
-5534 5533 5521 0
-5534 -5533 -5521 0
5534 -5533 5521 0
5534 5533 -5521 0
-5535 5534 5521 0
-5535 -5534 -5521 0
5535 -5534 5521 0
5535 5534 -5521 0
-5536 5535 5522 0
-5536 -5535 -5522 0
5536 -5535 5522 0
5536 5535 -5522 0
-5537 5536 5523 0
-5537 -5536 -5523 0
5537 -5536 5523 0
5537 5536 -5523 0
-5538 5537 5523 0
-5538 -5537 -5523 0
5538 -5537 5523 0
5538 5537 -5523 0
-5539 5538 5524 0
-5539 -5538 -5524 0
5539 -5538 5524 0
5539 5538 -5524 0
-5540 5539 5525 0
-5540 -5539 -5525 0
5540 -5539 5525 0
5540 5539 -5525 0
-5541 5540 5525 0
-5541 -5540 -5525 0
5541 -5540 5525 0
5541 5540 -5525 0
-5542 5541 5526 0
-5542 -5541 -5526 0
5542 -5541 5526 0
5542 5541 -5526 0
-5543 5542 5527 0
-5543 -5542 -5527 0
5543 -5542 5527 0
5543 5542 -5527 0
-5544 5543 5528 0
-5544 -5543 -5528 0
5544 -5543 5528 0
5544 5543 -5528 0
-5544 0
-5545 5388 0
-5545 39 0
5545 -5388 -39 0
-5546 5388 0
-5546 40 0
5546 -5388 -40 0
-5547 5390 0
-5547 44 0
5547 -5390 -44 0
-5548 5392 0
-5548 42 0
5548 -5392 -42 0
-5549 5392 0
-5549 46 0
5549 -5392 -46 0
-5550 5394 0
-5550 47 0
5550 -5394 -47 0
-5551 5396 0
-5551 87 0
5551 -5396 -87 0
-5552 5396 0
-5552 88 0
5552 -5396 -88 0
-5553 5398 0
-5553 92 0
5553 -5398 -92 0
-5554 5400 0
-5554 90 0
5554 -5400 -90 0
-5555 5400 0
-5555 94 0
5555 -5400 -94 0
-5556 5402 0
-5556 95 0
5556 -5402 -95 0
-5557 5404 0
-5557 135 0
5557 -5404 -135 0
-5558 5404 0
-5558 136 0
5558 -5404 -136 0
-5559 5406 0
-5559 140 0
5559 -5406 -140 0
-5560 5408 0
-5560 183 0
5560 -5408 -183 0
-5561 5410 0
-5561 186 0
5561 -5410 -186 0
-5562 5545 5546 0
-5562 -5545 -5546 0
5562 -5545 5546 0
5562 5545 -5546 0
-5563 5562 5547 0
-5563 -5562 -5547 0
5563 -5562 5547 0
5563 5562 -5547 0
-5564 5563 5548 0
-5564 -5563 -5548 0
5564 -5563 5548 0
5564 5563 -5548 0
-5565 5564 5549 0
-5565 -5564 -5549 0
5565 -5564 5549 0
5565 5564 -5549 0
-5566 5565 5550 0
-5566 -5565 -5550 0
5566 -5565 5550 0
5566 5565 -5550 0
-5567 5566 5551 0
-5567 -5566 -5551 0
5567 -5566 5551 0
5567 5566 -5551 0
-5568 5567 5552 0
-5568 -5567 -5552 0
5568 -5567 5552 0
5568 5567 -5552 0
-5569 5568 5553 0
-5569 -5568 -5553 0
5569 -5568 5553 0
5569 5568 -5553 0
-5570 5569 5554 0
-5570 -5569 -5554 0
5570 -5569 5554 0
5570 5569 -5554 0
-5571 5570 5555 0
-5571 -5570 -5555 0
5571 -5570 5555 0
5571 5570 -5555 0
-5572 5571 5556 0
-5572 -5571 -5556 0
5572 -5571 5556 0
5572 5571 -5556 0
-5573 5572 5557 0
-5573 -5572 -5557 0
5573 -5572 5557 0
5573 5572 -5557 0
-5574 5573 5558 0
-5574 -5573 -5558 0
5574 -5573 5558 0
5574 5573 -5558 0
-5575 5574 5559 0
-5575 -5574 -5559 0
5575 -5574 5559 0
5575 5574 -5559 0
-5576 5575 5560 0
-5576 -5575 -5560 0
5576 -5575 5560 0
5576 5575 -5560 0
-5577 5576 5561 0
-5577 -5576 -5561 0
5577 -5576 5561 0
5577 5576 -5561 0
-5577 0
-5578 5388 0
-5578 41 0
5578 -5388 -41 0
-5579 5388 0
-5579 45 0
5579 -5388 -45 0
-5580 5390 0
-5580 45 0
5580 -5390 -45 0
-5581 5392 0
-5581 35 0
5581 -5392 -35 0
-5582 5392 0
-5582 36 0
5582 -5392 -36 0
-5583 5394 0
-5583 36 0
5583 -5394 -36 0
-5584 5396 0
-5584 89 0
5584 -5396 -89 0
-5585 5396 0
-5585 93 0
5585 -5396 -93 0
-5586 5398 0
-5586 93 0
5586 -5398 -93 0
-5587 5400 0
-5587 83 0
5587 -5400 -83 0
-5588 5400 0
-5588 84 0
5588 -5400 -84 0
-5589 5402 0
-5589 84 0
5589 -5402 -84 0
-5590 5404 0
-5590 137 0
5590 -5404 -137 0
-5591 5404 0
-5591 141 0
5591 -5404 -141 0
-5592 5406 0
-5592 141 0
5592 -5406 -141 0
-5593 5408 0
-5593 185 0
5593 -5408 -185 0
-5594 5410 0
-5594 179 0
5594 -5410 -179 0
-5595 5578 5579 0
-5595 -5578 -5579 0
5595 -5578 5579 0
5595 5578 -5579 0
-5596 5595 5580 0
-5596 -5595 -5580 0
5596 -5595 5580 0
5596 5595 -5580 0
-5597 5596 5581 0
-5597 -5596 -5581 0
5597 -5596 5581 0
5597 5596 -5581 0
-5598 5597 5582 0
-5598 -5597 -5582 0
5598 -5597 5582 0
5598 5597 -5582 0
-5599 5598 5583 0
-5599 -5598 -5583 0
5599 -5598 5583 0
5599 5598 -5583 0
-5600 5599 5584 0
-5600 -5599 -5584 0
5600 -5599 5584 0
5600 5599 -5584 0
-5601 5600 5585 0
-5601 -5600 -5585 0
5601 -5600 5585 0
5601 5600 -5585 0
-5602 5601 5586 0
-5602 -5601 -5586 0
5602 -5601 5586 0
5602 5601 -5586 0
-5603 5602 5587 0
-5603 -5602 -5587 0
5603 -5602 5587 0
5603 5602 -5587 0
-5604 5603 5588 0
-5604 -5603 -5588 0
5604 -5603 5588 0
5604 5603 -5588 0
-5605 5604 5589 0
-5605 -5604 -5589 0
5605 -5604 5589 0
5605 5604 -5589 0
-5606 5605 5590 0
-5606 -5605 -5590 0
5606 -5605 5590 0
5606 5605 -5590 0
-5607 5606 5591 0
-5607 -5606 -5591 0
5607 -5606 5591 0
5607 5606 -5591 0
-5608 5607 5592 0
-5608 -5607 -5592 0
5608 -5607 5592 0
5608 5607 -5592 0
-5609 5608 5593 0
-5609 -5608 -5593 0
5609 -5608 5593 0
5609 5608 -5593 0
-5610 5609 5594 0
-5610 -5609 -5594 0
5610 -5609 5594 0
5610 5609 -5594 0
-5610 0
-5611 5388 0
-5611 42 0
5611 -5388 -42 0
-5612 5388 0
-5612 46 0
5612 -5388 -46 0
-5613 5390 0
-5613 47 0
5613 -5390 -47 0
-5614 5392 0
-5614 39 0
5614 -5392 -39 0
-5615 5392 0
-5615 40 0
5615 -5392 -40 0
-5616 5394 0
-5616 44 0
5616 -5394 -44 0
-5617 5396 0
-5617 90 0
5617 -5396 -90 0
-5618 5396 0
-5618 94 0
5618 -5396 -94 0
-5619 5398 0
-5619 95 0
5619 -5398 -95 0
-5620 5400 0
-5620 87 0
5620 -5400 -87 0
-5621 5400 0
-5621 88 0
5621 -5400 -88 0
-5622 5402 0
-5622 92 0
5622 -5402 -92 0
-5623 5404 0
-5623 138 0
5623 -5404 -138 0
-5624 5404 0
-5624 142 0
5624 -5404 -142 0
-5625 5406 0
-5625 143 0
5625 -5406 -143 0
-5626 5408 0
-5626 186 0
5626 -5408 -186 0
-5627 5410 0
-5627 183 0
5627 -5410 -183 0
-5628 5611 5612 0
-5628 -5611 -5612 0
5628 -5611 5612 0
5628 5611 -5612 0
-5629 5628 5613 0
-5629 -5628 -5613 0
5629 -5628 5613 0
5629 5628 -5613 0
-5630 5629 5614 0
-5630 -5629 -5614 0
5630 -5629 5614 0
5630 5629 -5614 0
-5631 5630 5615 0
-5631 -5630 -5615 0
5631 -5630 5615 0
5631 5630 -5615 0
-5632 5631 5616 0
-5632 -5631 -5616 0
5632 -5631 5616 0
5632 5631 -5616 0
-5633 5632 5617 0
-5633 -5632 -5617 0
5633 -5632 5617 0
5633 5632 -5617 0
-5634 5633 5618 0
-5634 -5633 -5618 0
5634 -5633 5618 0
5634 5633 -5618 0
-5635 5634 5619 0
-5635 -5634 -5619 0
5635 -5634 5619 0
5635 5634 -5619 0
-5636 5635 5620 0
-5636 -5635 -5620 0
5636 -5635 5620 0
5636 5635 -5620 0
-5637 5636 5621 0
-5637 -5636 -5621 0
5637 -5636 5621 0
5637 5636 -5621 0
-5638 5637 5622 0
-5638 -5637 -5622 0
5638 -5637 5622 0
5638 5637 -5622 0
-5639 5638 5623 0
-5639 -5638 -5623 0
5639 -5638 5623 0
5639 5638 -5623 0
-5640 5639 5624 0
-5640 -5639 -5624 0
5640 -5639 5624 0
5640 5639 -5624 0
-5641 5640 5625 0
-5641 -5640 -5625 0
5641 -5640 5625 0
5641 5640 -5625 0
-5642 5641 5626 0
-5642 -5641 -5626 0
5642 -5641 5626 0
5642 5641 -5626 0
-5643 5642 5627 0
-5643 -5642 -5627 0
5643 -5642 5627 0
5643 5642 -5627 0
-5643 0
-5644 5388 0
-5644 43 0
5644 -5388 -43 0
-5645 5388 0
-5645 48 0
5645 -5388 -48 0
-5646 5390 0
-5646 48 0
5646 -5390 -48 0
-5647 5392 0
-5647 43 0
5647 -5392 -43 0
-5648 5392 0
-5648 48 0
5648 -5392 -48 0
-5649 5394 0
-5649 48 0
5649 -5394 -48 0
-5650 5396 0
-5650 91 0
5650 -5396 -91 0
-5651 5396 0
-5651 96 0
5651 -5396 -96 0
-5652 5398 0
-5652 96 0
5652 -5398 -96 0
-5653 5400 0
-5653 91 0
5653 -5400 -91 0
-5654 5400 0
-5654 96 0
5654 -5400 -96 0
-5655 5402 0
-5655 96 0
5655 -5402 -96 0
-5656 5404 0
-5656 139 0
5656 -5404 -139 0
-5657 5404 0
-5657 144 0
5657 -5404 -144 0
-5658 5406 0
-5658 144 0
5658 -5406 -144 0
-5659 5408 0
-5659 187 0
5659 -5408 -187 0
-5660 5410 0
-5660 187 0
5660 -5410 -187 0
-5661 5644 5645 0
-5661 -5644 -5645 0
5661 -5644 5645 0
5661 5644 -5645 0
-5662 5661 5646 0
-5662 -5661 -5646 0
5662 -5661 5646 0
5662 5661 -5646 0
-5663 5662 5647 0
-5663 -5662 -5647 0
5663 -5662 5647 0
5663 5662 -5647 0
-5664 5663 5648 0
-5664 -5663 -5648 0
5664 -5663 5648 0
5664 5663 -5648 0
-5665 5664 5649 0
-5665 -5664 -5649 0
5665 -5664 5649 0
5665 5664 -5649 0
-5666 5665 5650 0
-5666 -5665 -5650 0
5666 -5665 5650 0
5666 5665 -5650 0
-5667 5666 5651 0
-5667 -5666 -5651 0
5667 -5666 5651 0
5667 5666 -5651 0
-5668 5667 5652 0
-5668 -5667 -5652 0
5668 -5667 5652 0
5668 5667 -5652 0
-5669 5668 5653 0
-5669 -5668 -5653 0
5669 -5668 5653 0
5669 5668 -5653 0
-5670 5669 5654 0
-5670 -5669 -5654 0
5670 -5669 5654 0
5670 5669 -5654 0
-5671 5670 5655 0
-5671 -5670 -5655 0
5671 -5670 5655 0
5671 5670 -5655 0
-5672 5671 5656 0
-5672 -5671 -5656 0
5672 -5671 5656 0
5672 5671 -5656 0
-5673 5672 5657 0
-5673 -5672 -5657 0
5673 -5672 5657 0
5673 5672 -5657 0
-5674 5673 5658 0
-5674 -5673 -5658 0
5674 -5673 5658 0
5674 5673 -5658 0
-5675 5674 5659 0
-5675 -5674 -5659 0
5675 -5674 5659 0
5675 5674 -5659 0
-5676 5675 5660 0
-5676 -5675 -5660 0
5676 -5675 5660 0
5676 5675 -5660 0
-5676 0
-5677 5388 0
-5677 44 0
5677 -5388 -44 0
-5678 5388 0
-5678 47 0
5678 -5388 -47 0
-5679 5390 0
-5679 46 0
5679 -5390 -46 0
-5680 5392 0
-5680 47 0
5680 -5392 -47 0
-5681 5392 0
-5681 44 0
5681 -5392 -44 0
-5682 5394 0
-5682 40 0
5682 -5394 -40 0
-5683 5396 0
-5683 92 0
5683 -5396 -92 0
-5684 5396 0
-5684 95 0
5684 -5396 -95 0
-5685 5398 0
-5685 94 0
5685 -5398 -94 0
-5686 5400 0
-5686 95 0
5686 -5400 -95 0
-5687 5400 0
-5687 92 0
5687 -5400 -92 0
-5688 5402 0
-5688 88 0
5688 -5402 -88 0
-5689 5404 0
-5689 140 0
5689 -5404 -140 0
-5690 5404 0
-5690 143 0
5690 -5404 -143 0
-5691 5406 0
-5691 142 0
5691 -5406 -142 0
-5692 5408 0
-5692 188 0
5692 -5408 -188 0
-5693 5410 0
-5693 191 0
5693 -5410 -191 0
-5694 5677 5678 0
-5694 -5677 -5678 0
5694 -5677 5678 0
5694 5677 -5678 0
-5695 5694 5679 0
-5695 -5694 -5679 0
5695 -5694 5679 0
5695 5694 -5679 0
-5696 5695 5680 0
-5696 -5695 -5680 0
5696 -5695 5680 0
5696 5695 -5680 0
-5697 5696 5681 0
-5697 -5696 -5681 0
5697 -5696 5681 0
5697 5696 -5681 0
-5698 5697 5682 0
-5698 -5697 -5682 0
5698 -5697 5682 0
5698 5697 -5682 0
-5699 5698 5683 0
-5699 -5698 -5683 0
5699 -5698 5683 0
5699 5698 -5683 0
-5700 5699 5684 0
-5700 -5699 -5684 0
5700 -5699 5684 0
5700 5699 -5684 0
-5701 5700 5685 0
-5701 -5700 -5685 0
5701 -5700 5685 0
5701 5700 -5685 0
-5702 5701 5686 0
-5702 -5701 -5686 0
5702 -5701 5686 0
5702 5701 -5686 0
-5703 5702 5687 0
-5703 -5702 -5687 0
5703 -5702 5687 0
5703 5702 -5687 0
-5704 5703 5688 0
-5704 -5703 -5688 0
5704 -5703 5688 0
5704 5703 -5688 0
-5705 5704 5689 0
-5705 -5704 -5689 0
5705 -5704 5689 0
5705 5704 -5689 0
-5706 5705 5690 0
-5706 -5705 -5690 0
5706 -5705 5690 0
5706 5705 -5690 0
-5707 5706 5691 0
-5707 -5706 -5691 0
5707 -5706 5691 0
5707 5706 -5691 0
-5708 5707 5692 0
-5708 -5707 -5692 0
5708 -5707 5692 0
5708 5707 -5692 0
-5709 5708 5693 0
-5709 -5708 -5693 0
5709 -5708 5693 0
5709 5708 -5693 0
-5709 0
-5710 5 0
-5710 18 0
5710 -5 -18 0
-5711 5710 0
-5711 33 0
5711 -5710 -33 0
-5712 6 0
-5712 22 0
5712 -6 -22 0
-5713 5712 0
-5713 33 0
5713 -5712 -33 0
-5714 10 0
-5714 23 0
5714 -10 -23 0
-5715 5714 0
-5715 33 0
5715 -5714 -33 0
-5716 53 0
-5716 66 0
5716 -53 -66 0
-5717 5716 0
-5717 81 0
5717 -5716 -81 0
-5718 54 0
-5718 70 0
5718 -54 -70 0
-5719 5718 0
-5719 81 0
5719 -5718 -81 0
-5720 58 0
-5720 71 0
5720 -58 -71 0
-5721 5720 0
-5721 81 0
5721 -5720 -81 0
-5722 101 0
-5722 114 0
5722 -101 -114 0
-5723 5722 0
-5723 129 0
5723 -5722 -129 0
-5724 102 0
-5724 118 0
5724 -102 -118 0
-5725 5724 0
-5725 129 0
5725 -5724 -129 0
-5726 106 0
-5726 119 0
5726 -106 -119 0
-5727 5726 0
-5727 129 0
5727 -5726 -129 0
-5728 149 0
-5728 162 0
5728 -149 -162 0
-5729 5728 0
-5729 177 0
5729 -5728 -177 0
-5730 5711 5713 0
-5730 -5711 -5713 0
5730 -5711 5713 0
5730 5711 -5713 0
-5731 5730 5715 0
-5731 -5730 -5715 0
5731 -5730 5715 0
5731 5730 -5715 0
-5732 5731 5711 0
-5732 -5731 -5711 0
5732 -5731 5711 0
5732 5731 -5711 0
-5733 5732 5713 0
-5733 -5732 -5713 0
5733 -5732 5713 0
5733 5732 -5713 0
-5734 5733 5715 0
-5734 -5733 -5715 0
5734 -5733 5715 0
5734 5733 -5715 0
-5735 5734 5717 0
-5735 -5734 -5717 0
5735 -5734 5717 0
5735 5734 -5717 0
-5736 5735 5719 0
-5736 -5735 -5719 0
5736 -5735 5719 0
5736 5735 -5719 0
-5737 5736 5721 0
-5737 -5736 -5721 0
5737 -5736 5721 0
5737 5736 -5721 0
-5738 5737 5717 0
-5738 -5737 -5717 0
5738 -5737 5717 0
5738 5737 -5717 0
-5739 5738 5719 0
-5739 -5738 -5719 0
5739 -5738 5719 0
5739 5738 -5719 0
-5740 5739 5721 0
-5740 -5739 -5721 0
5740 -5739 5721 0
5740 5739 -5721 0
-5741 5740 5723 0
-5741 -5740 -5723 0
5741 -5740 5723 0
5741 5740 -5723 0
-5742 5741 5725 0
-5742 -5741 -5725 0
5742 -5741 5725 0
5742 5741 -5725 0
-5743 5742 5727 0
-5743 -5742 -5727 0
5743 -5742 5727 0
5743 5742 -5727 0
-5744 5743 5729 0
-5744 -5743 -5729 0
5744 -5743 5729 0
5744 5743 -5729 0
-5745 5744 5729 0
-5745 -5744 -5729 0
5745 -5744 5729 0
5745 5744 -5729 0
-5745 0
-5746 5710 0
-5746 34 0
5746 -5710 -34 0
-5747 5712 0
-5747 34 0
5747 -5712 -34 0
-5748 5714 0
-5748 35 0
5748 -5714 -35 0
-5749 5710 0
-5749 37 0
5749 -5710 -37 0
-5750 5712 0
-5750 37 0
5750 -5712 -37 0
-5751 5714 0
-5751 41 0
5751 -5714 -41 0
-5752 5716 0
-5752 82 0
5752 -5716 -82 0
-5753 5718 0
-5753 82 0
5753 -5718 -82 0
-5754 5720 0
-5754 83 0
5754 -5720 -83 0
-5755 5716 0
-5755 85 0
5755 -5716 -85 0
-5756 5718 0
-5756 85 0
5756 -5718 -85 0
-5757 5720 0
-5757 89 0
5757 -5720 -89 0
-5758 5722 0
-5758 130 0
5758 -5722 -130 0
-5759 5724 0
-5759 130 0
5759 -5724 -130 0
-5760 5726 0
-5760 131 0
5760 -5726 -131 0
-5761 5728 0
-5761 178 0
5761 -5728 -178 0
-5762 5728 0
-5762 181 0
5762 -5728 -181 0
-5763 5746 5747 0
-5763 -5746 -5747 0
5763 -5746 5747 0
5763 5746 -5747 0
-5764 5763 5748 0
-5764 -5763 -5748 0
5764 -5763 5748 0
5764 5763 -5748 0
-5765 5764 5749 0
-5765 -5764 -5749 0
5765 -5764 5749 0
5765 5764 -5749 0
-5766 5765 5750 0
-5766 -5765 -5750 0
5766 -5765 5750 0
5766 5765 -5750 0
-5767 5766 5751 0
-5767 -5766 -5751 0
5767 -5766 5751 0
5767 5766 -5751 0
-5768 5767 5752 0
-5768 -5767 -5752 0
5768 -5767 5752 0
5768 5767 -5752 0
-5769 5768 5753 0
-5769 -5768 -5753 0
5769 -5768 5753 0
5769 5768 -5753 0
-5770 5769 5754 0
-5770 -5769 -5754 0
5770 -5769 5754 0
5770 5769 -5754 0
-5771 5770 5755 0
-5771 -5770 -5755 0
5771 -5770 5755 0
5771 5770 -5755 0
-5772 5771 5756 0
-5772 -5771 -5756 0
5772 -5771 5756 0
5772 5771 -5756 0
-5773 5772 5757 0
-5773 -5772 -5757 0
5773 -5772 5757 0
5773 5772 -5757 0
-5774 5773 5758 0
-5774 -5773 -5758 0
5774 -5773 5758 0
5774 5773 -5758 0
-5775 5774 5759 0
-5775 -5774 -5759 0
5775 -5774 5759 0
5775 5774 -5759 0
-5776 5775 5760 0
-5776 -5775 -5760 0
5776 -5775 5760 0
5776 5775 -5760 0
-5777 5776 5761 0
-5777 -5776 -5761 0
5777 -5776 5761 0
5777 5776 -5761 0
-5778 5777 5762 0
-5778 -5777 -5762 0
5778 -5777 5762 0
5778 5777 -5762 0
-5778 0
-5779 5710 0
-5779 35 0
5779 -5710 -35 0
-5780 5712 0
-5780 36 0
5780 -5712 -36 0
-5781 5714 0
-5781 36 0
5781 -5714 -36 0
-5782 5710 0
-5782 41 0
5782 -5710 -41 0
-5783 5712 0
-5783 45 0
5783 -5712 -45 0
-5784 5714 0
-5784 45 0
5784 -5714 -45 0
-5785 5716 0
-5785 83 0
5785 -5716 -83 0
-5786 5718 0
-5786 84 0
5786 -5718 -84 0
-5787 5720 0
-5787 84 0
5787 -5720 -84 0
-5788 5716 0
-5788 89 0
5788 -5716 -89 0
-5789 5718 0
-5789 93 0
5789 -5718 -93 0
-5790 5720 0
-5790 93 0
5790 -5720 -93 0
-5791 5722 0
-5791 131 0
5791 -5722 -131 0
-5792 5724 0
-5792 132 0
5792 -5724 -132 0
-5793 5726 0
-5793 132 0
5793 -5726 -132 0
-5794 5728 0
-5794 179 0
5794 -5728 -179 0
-5795 5728 0
-5795 185 0
5795 -5728 -185 0
-5796 5779 5780 0
-5796 -5779 -5780 0
5796 -5779 5780 0
5796 5779 -5780 0
-5797 5796 5781 0
-5797 -5796 -5781 0
5797 -5796 5781 0
5797 5796 -5781 0
-5798 5797 5782 0
-5798 -5797 -5782 0
5798 -5797 5782 0
5798 5797 -5782 0
-5799 5798 5783 0
-5799 -5798 -5783 0
5799 -5798 5783 0
5799 5798 -5783 0
-5800 5799 5784 0
-5800 -5799 -5784 0
5800 -5799 5784 0
5800 5799 -5784 0
-5801 5800 5785 0
-5801 -5800 -5785 0
5801 -5800 5785 0
5801 5800 -5785 0
-5802 5801 5786 0
-5802 -5801 -5786 0
5802 -5801 5786 0
5802 5801 -5786 0
-5803 5802 5787 0
-5803 -5802 -5787 0
5803 -5802 5787 0
5803 5802 -5787 0
-5804 5803 5788 0
-5804 -5803 -5788 0
5804 -5803 5788 0
5804 5803 -5788 0
-5805 5804 5789 0
-5805 -5804 -5789 0
5805 -5804 5789 0
5805 5804 -5789 0
-5806 5805 5790 0
-5806 -5805 -5790 0
5806 -5805 5790 0
5806 5805 -5790 0
-5807 5806 5791 0
-5807 -5806 -5791 0
5807 -5806 5791 0
5807 5806 -5791 0
-5808 5807 5792 0
-5808 -5807 -5792 0
5808 -5807 5792 0
5808 5807 -5792 0
-5809 5808 5793 0
-5809 -5808 -5793 0
5809 -5808 5793 0
5809 5808 -5793 0
-5810 5809 5794 0
-5810 -5809 -5794 0
5810 -5809 5794 0
5810 5809 -5794 0
-5811 5810 5795 0
-5811 -5810 -5795 0
5811 -5810 5795 0
5811 5810 -5795 0
-5811 0
-5812 5710 0
-5812 36 0
5812 -5710 -36 0
-5813 5712 0
-5813 35 0
5813 -5712 -35 0
-5814 5714 0
-5814 34 0
5814 -5714 -34 0
-5815 5710 0
-5815 45 0
5815 -5710 -45 0
-5816 5712 0
-5816 41 0
5816 -5712 -41 0
-5817 5714 0
-5817 37 0
5817 -5714 -37 0
-5818 5716 0
-5818 84 0
5818 -5716 -84 0
-5819 5718 0
-5819 83 0
5819 -5718 -83 0
-5820 5720 0
-5820 82 0
5820 -5720 -82 0
-5821 5716 0
-5821 93 0
5821 -5716 -93 0
-5822 5718 0
-5822 89 0
5822 -5718 -89 0
-5823 5720 0
-5823 85 0
5823 -5720 -85 0
-5824 5722 0
-5824 132 0
5824 -5722 -132 0
-5825 5724 0
-5825 131 0
5825 -5724 -131 0
-5826 5726 0
-5826 130 0
5826 -5726 -130 0
-5827 5728 0
-5827 180 0
5827 -5728 -180 0
-5828 5728 0
-5828 189 0
5828 -5728 -189 0
-5829 5812 5813 0
-5829 -5812 -5813 0
5829 -5812 5813 0
5829 5812 -5813 0
-5830 5829 5814 0
-5830 -5829 -5814 0
5830 -5829 5814 0
5830 5829 -5814 0
-5831 5830 5815 0
-5831 -5830 -5815 0
5831 -5830 5815 0
5831 5830 -5815 0
-5832 5831 5816 0
-5832 -5831 -5816 0
5832 -5831 5816 0
5832 5831 -5816 0
-5833 5832 5817 0
-5833 -5832 -5817 0
5833 -5832 5817 0
5833 5832 -5817 0
-5834 5833 5818 0
-5834 -5833 -5818 0
5834 -5833 5818 0
5834 5833 -5818 0
-5835 5834 5819 0
-5835 -5834 -5819 0
5835 -5834 5819 0
5835 5834 -5819 0
-5836 5835 5820 0
-5836 -5835 -5820 0
5836 -5835 5820 0
5836 5835 -5820 0
-5837 5836 5821 0
-5837 -5836 -5821 0
5837 -5836 5821 0
5837 5836 -5821 0
-5838 5837 5822 0
-5838 -5837 -5822 0
5838 -5837 5822 0
5838 5837 -5822 0
-5839 5838 5823 0
-5839 -5838 -5823 0
5839 -5838 5823 0
5839 5838 -5823 0
-5840 5839 5824 0
-5840 -5839 -5824 0
5840 -5839 5824 0
5840 5839 -5824 0
-5841 5840 5825 0
-5841 -5840 -5825 0
5841 -5840 5825 0
5841 5840 -5825 0
-5842 5841 5826 0
-5842 -5841 -5826 0
5842 -5841 5826 0
5842 5841 -5826 0
-5843 5842 5827 0
-5843 -5842 -5827 0
5843 -5842 5827 0
5843 5842 -5827 0
-5844 5843 5828 0
-5844 -5843 -5828 0
5844 -5843 5828 0
5844 5843 -5828 0
-5844 0
-5845 5710 0
-5845 38 0
5845 -5710 -38 0
-5846 5712 0
-5846 38 0
5846 -5712 -38 0
-5847 5714 0
-5847 43 0
5847 -5714 -43 0
-5848 5716 0
-5848 86 0
5848 -5716 -86 0
-5849 5718 0
-5849 86 0
5849 -5718 -86 0
-5850 5720 0
-5850 91 0
5850 -5720 -91 0
-5851 5722 0
-5851 134 0
5851 -5722 -134 0
-5852 5724 0
-5852 134 0
5852 -5724 -134 0
-5853 5726 0
-5853 139 0
5853 -5726 -139 0
-5854 5728 0
-5854 182 0
5854 -5728 -182 0
-5855 5845 5846 0
-5855 -5845 -5846 0
5855 -5845 5846 0
5855 5845 -5846 0
-5856 5855 5847 0
-5856 -5855 -5847 0
5856 -5855 5847 0
5856 5855 -5847 0
-5857 5856 5845 0
-5857 -5856 -5845 0
5857 -5856 5845 0
5857 5856 -5845 0
-5858 5857 5846 0
-5858 -5857 -5846 0
5858 -5857 5846 0
5858 5857 -5846 0
-5859 5858 5847 0
-5859 -5858 -5847 0
5859 -5858 5847 0
5859 5858 -5847 0
-5860 5859 5848 0
-5860 -5859 -5848 0
5860 -5859 5848 0
5860 5859 -5848 0
-5861 5860 5849 0
-5861 -5860 -5849 0
5861 -5860 5849 0
5861 5860 -5849 0
-5862 5861 5850 0
-5862 -5861 -5850 0
5862 -5861 5850 0
5862 5861 -5850 0
-5863 5862 5848 0
-5863 -5862 -5848 0
5863 -5862 5848 0
5863 5862 -5848 0
-5864 5863 5849 0
-5864 -5863 -5849 0
5864 -5863 5849 0
5864 5863 -5849 0
-5865 5864 5850 0
-5865 -5864 -5850 0
5865 -5864 5850 0
5865 5864 -5850 0
-5866 5865 5851 0
-5866 -5865 -5851 0
5866 -5865 5851 0
5866 5865 -5851 0
-5867 5866 5852 0
-5867 -5866 -5852 0
5867 -5866 5852 0
5867 5866 -5852 0
-5868 5867 5853 0
-5868 -5867 -5853 0
5868 -5867 5853 0
5868 5867 -5853 0
-5869 5868 5854 0
-5869 -5868 -5854 0
5869 -5868 5854 0
5869 5868 -5854 0
-5870 5869 5854 0
-5870 -5869 -5854 0
5870 -5869 5854 0
5870 5869 -5854 0
-5870 0
-5871 5710 0
-5871 39 0
5871 -5710 -39 0
-5872 5712 0
-5872 40 0
5872 -5712 -40 0
-5873 5714 0
-5873 44 0
5873 -5714 -44 0
-5874 5710 0
-5874 42 0
5874 -5710 -42 0
-5875 5712 0
-5875 46 0
5875 -5712 -46 0
-5876 5714 0
-5876 47 0
5876 -5714 -47 0
-5877 5716 0
-5877 87 0
5877 -5716 -87 0
-5878 5718 0
-5878 88 0
5878 -5718 -88 0
-5879 5720 0
-5879 92 0
5879 -5720 -92 0
-5880 5716 0
-5880 90 0
5880 -5716 -90 0
-5881 5718 0
-5881 94 0
5881 -5718 -94 0
-5882 5720 0
-5882 95 0
5882 -5720 -95 0
-5883 5722 0
-5883 135 0
5883 -5722 -135 0
-5884 5724 0
-5884 136 0
5884 -5724 -136 0
-5885 5726 0
-5885 140 0
5885 -5726 -140 0
-5886 5728 0
-5886 183 0
5886 -5728 -183 0
-5887 5728 0
-5887 186 0
5887 -5728 -186 0
-5888 5871 5872 0
-5888 -5871 -5872 0
5888 -5871 5872 0
5888 5871 -5872 0
-5889 5888 5873 0
-5889 -5888 -5873 0
5889 -5888 5873 0
5889 5888 -5873 0
-5890 5889 5874 0
-5890 -5889 -5874 0
5890 -5889 5874 0
5890 5889 -5874 0
-5891 5890 5875 0
-5891 -5890 -5875 0
5891 -5890 5875 0
5891 5890 -5875 0
-5892 5891 5876 0
-5892 -5891 -5876 0
5892 -5891 5876 0
5892 5891 -5876 0
-5893 5892 5877 0
-5893 -5892 -5877 0
5893 -5892 5877 0
5893 5892 -5877 0
-5894 5893 5878 0
-5894 -5893 -5878 0
5894 -5893 5878 0
5894 5893 -5878 0
-5895 5894 5879 0
-5895 -5894 -5879 0
5895 -5894 5879 0
5895 5894 -5879 0
-5896 5895 5880 0
-5896 -5895 -5880 0
5896 -5895 5880 0
5896 5895 -5880 0
-5897 5896 5881 0
-5897 -5896 -5881 0
5897 -5896 5881 0
5897 5896 -5881 0
-5898 5897 5882 0
-5898 -5897 -5882 0
5898 -5897 5882 0
5898 5897 -5882 0
-5899 5898 5883 0
-5899 -5898 -5883 0
5899 -5898 5883 0
5899 5898 -5883 0
-5900 5899 5884 0
-5900 -5899 -5884 0
5900 -5899 5884 0
5900 5899 -5884 0
-5901 5900 5885 0
-5901 -5900 -5885 0
5901 -5900 5885 0
5901 5900 -5885 0
-5902 5901 5886 0
-5902 -5901 -5886 0
5902 -5901 5886 0
5902 5901 -5886 0
-5903 5902 5887 0
-5903 -5902 -5887 0
5903 -5902 5887 0
5903 5902 -5887 0
-5903 0
-5904 5710 0
-5904 40 0
5904 -5710 -40 0
-5905 5712 0
-5905 39 0
5905 -5712 -39 0
-5906 5714 0
-5906 42 0
5906 -5714 -42 0
-5907 5710 0
-5907 46 0
5907 -5710 -46 0
-5908 5712 0
-5908 42 0
5908 -5712 -42 0
-5909 5714 0
-5909 39 0
5909 -5714 -39 0
-5910 5716 0
-5910 88 0
5910 -5716 -88 0
-5911 5718 0
-5911 87 0
5911 -5718 -87 0
-5912 5720 0
-5912 90 0
5912 -5720 -90 0
-5913 5716 0
-5913 94 0
5913 -5716 -94 0
-5914 5718 0
-5914 90 0
5914 -5718 -90 0
-5915 5720 0
-5915 87 0
5915 -5720 -87 0
-5916 5722 0
-5916 136 0
5916 -5722 -136 0
-5917 5724 0
-5917 135 0
5917 -5724 -135 0
-5918 5726 0
-5918 138 0
5918 -5726 -138 0
-5919 5728 0
-5919 184 0
5919 -5728 -184 0
-5920 5728 0
-5920 190 0
5920 -5728 -190 0
-5921 5904 5905 0
-5921 -5904 -5905 0
5921 -5904 5905 0
5921 5904 -5905 0
-5922 5921 5906 0
-5922 -5921 -5906 0
5922 -5921 5906 0
5922 5921 -5906 0
-5923 5922 5907 0
-5923 -5922 -5907 0
5923 -5922 5907 0
5923 5922 -5907 0
-5924 5923 5908 0
-5924 -5923 -5908 0
5924 -5923 5908 0
5924 5923 -5908 0
-5925 5924 5909 0
-5925 -5924 -5909 0
5925 -5924 5909 0
5925 5924 -5909 0
-5926 5925 5910 0
-5926 -5925 -5910 0
5926 -5925 5910 0
5926 5925 -5910 0
-5927 5926 5911 0
-5927 -5926 -5911 0
5927 -5926 5911 0
5927 5926 -5911 0
-5928 5927 5912 0
-5928 -5927 -5912 0
5928 -5927 5912 0
5928 5927 -5912 0
-5929 5928 5913 0
-5929 -5928 -5913 0
5929 -5928 5913 0
5929 5928 -5913 0
-5930 5929 5914 0
-5930 -5929 -5914 0
5930 -5929 5914 0
5930 5929 -5914 0
-5931 5930 5915 0
-5931 -5930 -5915 0
5931 -5930 5915 0
5931 5930 -5915 0
-5932 5931 5916 0
-5932 -5931 -5916 0
5932 -5931 5916 0
5932 5931 -5916 0
-5933 5932 5917 0
-5933 -5932 -5917 0
5933 -5932 5917 0
5933 5932 -5917 0
-5934 5933 5918 0
-5934 -5933 -5918 0
5934 -5933 5918 0
5934 5933 -5918 0
-5935 5934 5919 0
-5935 -5934 -5919 0
5935 -5934 5919 0
5935 5934 -5919 0
-5936 5935 5920 0
-5936 -5935 -5920 0
5936 -5935 5920 0
5936 5935 -5920 0
-5936 0
-5937 5710 0
-5937 43 0
5937 -5710 -43 0
-5938 5712 0
-5938 48 0
5938 -5712 -48 0
-5939 5714 0
-5939 48 0
5939 -5714 -48 0
-5940 5716 0
-5940 91 0
5940 -5716 -91 0
-5941 5718 0
-5941 96 0
5941 -5718 -96 0
-5942 5720 0
-5942 96 0
5942 -5720 -96 0
-5943 5722 0
-5943 139 0
5943 -5722 -139 0
-5944 5724 0
-5944 144 0
5944 -5724 -144 0
-5945 5726 0
-5945 144 0
5945 -5726 -144 0
-5946 5728 0
-5946 187 0
5946 -5728 -187 0
-5947 5937 5938 0
-5947 -5937 -5938 0
5947 -5937 5938 0
5947 5937 -5938 0
-5948 5947 5939 0
-5948 -5947 -5939 0
5948 -5947 5939 0
5948 5947 -5939 0
-5949 5948 5937 0
-5949 -5948 -5937 0
5949 -5948 5937 0
5949 5948 -5937 0
-5950 5949 5938 0
-5950 -5949 -5938 0
5950 -5949 5938 0
5950 5949 -5938 0
-5951 5950 5939 0
-5951 -5950 -5939 0
5951 -5950 5939 0
5951 5950 -5939 0
-5952 5951 5940 0
-5952 -5951 -5940 0
5952 -5951 5940 0
5952 5951 -5940 0
-5953 5952 5941 0
-5953 -5952 -5941 0
5953 -5952 5941 0
5953 5952 -5941 0
-5954 5953 5942 0
-5954 -5953 -5942 0
5954 -5953 5942 0
5954 5953 -5942 0
-5955 5954 5940 0
-5955 -5954 -5940 0
5955 -5954 5940 0
5955 5954 -5940 0
-5956 5955 5941 0
-5956 -5955 -5941 0
5956 -5955 5941 0
5956 5955 -5941 0
-5957 5956 5942 0
-5957 -5956 -5942 0
5957 -5956 5942 0
5957 5956 -5942 0
-5958 5957 5943 0
-5958 -5957 -5943 0
5958 -5957 5943 0
5958 5957 -5943 0
-5959 5958 5944 0
-5959 -5958 -5944 0
5959 -5958 5944 0
5959 5958 -5944 0
-5960 5959 5945 0
-5960 -5959 -5945 0
5960 -5959 5945 0
5960 5959 -5945 0
-5961 5960 5946 0
-5961 -5960 -5946 0
5961 -5960 5946 0
5961 5960 -5946 0
-5962 5961 5946 0
-5962 -5961 -5946 0
5962 -5961 5946 0
5962 5961 -5946 0
-5962 0
-5963 5710 0
-5963 44 0
5963 -5710 -44 0
-5964 5712 0
-5964 47 0
5964 -5712 -47 0
-5965 5714 0
-5965 46 0
5965 -5714 -46 0
-5966 5710 0
-5966 47 0
5966 -5710 -47 0
-5967 5712 0
-5967 44 0
5967 -5712 -44 0
-5968 5714 0
-5968 40 0
5968 -5714 -40 0
-5969 5716 0
-5969 92 0
5969 -5716 -92 0
-5970 5718 0
-5970 95 0
5970 -5718 -95 0
-5971 5720 0
-5971 94 0
5971 -5720 -94 0
-5972 5716 0
-5972 95 0
5972 -5716 -95 0
-5973 5718 0
-5973 92 0
5973 -5718 -92 0
-5974 5720 0
-5974 88 0
5974 -5720 -88 0
-5975 5722 0
-5975 140 0
5975 -5722 -140 0
-5976 5724 0
-5976 143 0
5976 -5724 -143 0
-5977 5726 0
-5977 142 0
5977 -5726 -142 0
-5978 5728 0
-5978 188 0
5978 -5728 -188 0
-5979 5728 0
-5979 191 0
5979 -5728 -191 0
-5980 5963 5964 0
-5980 -5963 -5964 0
5980 -5963 5964 0
5980 5963 -5964 0
-5981 5980 5965 0
-5981 -5980 -5965 0
5981 -5980 5965 0
5981 5980 -5965 0
-5982 5981 5966 0
-5982 -5981 -5966 0
5982 -5981 5966 0
5982 5981 -5966 0
-5983 5982 5967 0
-5983 -5982 -5967 0
5983 -5982 5967 0
5983 5982 -5967 0
-5984 5983 5968 0
-5984 -5983 -5968 0
5984 -5983 5968 0
5984 5983 -5968 0
-5985 5984 5969 0
-5985 -5984 -5969 0
5985 -5984 5969 0
5985 5984 -5969 0
-5986 5985 5970 0
-5986 -5985 -5970 0
5986 -5985 5970 0
5986 5985 -5970 0
-5987 5986 5971 0
-5987 -5986 -5971 0
5987 -5986 5971 0
5987 5986 -5971 0
-5988 5987 5972 0
-5988 -5987 -5972 0
5988 -5987 5972 0
5988 5987 -5972 0
-5989 5988 5973 0
-5989 -5988 -5973 0
5989 -5988 5973 0
5989 5988 -5973 0
-5990 5989 5974 0
-5990 -5989 -5974 0
5990 -5989 5974 0
5990 5989 -5974 0
-5991 5990 5975 0
-5991 -5990 -5975 0
5991 -5990 5975 0
5991 5990 -5975 0
-5992 5991 5976 0
-5992 -5991 -5976 0
5992 -5991 5976 0
5992 5991 -5976 0
-5993 5992 5977 0
-5993 -5992 -5977 0
5993 -5992 5977 0
5993 5992 -5977 0
-5994 5993 5978 0
-5994 -5993 -5978 0
5994 -5993 5978 0
5994 5993 -5978 0
-5995 5994 5979 0
-5995 -5994 -5979 0
5995 -5994 5979 0
5995 5994 -5979 0
-5995 0
-5996 5710 0
-5996 48 0
5996 -5710 -48 0
-5997 5712 0
-5997 43 0
5997 -5712 -43 0
-5998 5714 0
-5998 38 0
5998 -5714 -38 0
-5999 5716 0
-5999 96 0
5999 -5716 -96 0
-6000 5718 0
-6000 91 0
6000 -5718 -91 0
-6001 5720 0
-6001 86 0
6001 -5720 -86 0
-6002 5722 0
-6002 144 0
6002 -5722 -144 0
-6003 5724 0
-6003 139 0
6003 -5724 -139 0
-6004 5726 0
-6004 134 0
6004 -5726 -134 0
-6005 5728 0
-6005 192 0
6005 -5728 -192 0
-6006 5996 5997 0
-6006 -5996 -5997 0
6006 -5996 5997 0
6006 5996 -5997 0
-6007 6006 5998 0
-6007 -6006 -5998 0
6007 -6006 5998 0
6007 6006 -5998 0
-6008 6007 5996 0
-6008 -6007 -5996 0
6008 -6007 5996 0
6008 6007 -5996 0
-6009 6008 5997 0
-6009 -6008 -5997 0
6009 -6008 5997 0
6009 6008 -5997 0
-6010 6009 5998 0
-6010 -6009 -5998 0
6010 -6009 5998 0
6010 6009 -5998 0
-6011 6010 5999 0
-6011 -6010 -5999 0
6011 -6010 5999 0
6011 6010 -5999 0
-6012 6011 6000 0
-6012 -6011 -6000 0
6012 -6011 6000 0
6012 6011 -6000 0
-6013 6012 6001 0
-6013 -6012 -6001 0
6013 -6012 6001 0
6013 6012 -6001 0
-6014 6013 5999 0
-6014 -6013 -5999 0
6014 -6013 5999 0
6014 6013 -5999 0
-6015 6014 6000 0
-6015 -6014 -6000 0
6015 -6014 6000 0
6015 6014 -6000 0
-6016 6015 6001 0
-6016 -6015 -6001 0
6016 -6015 6001 0
6016 6015 -6001 0
-6017 6016 6002 0
-6017 -6016 -6002 0
6017 -6016 6002 0
6017 6016 -6002 0
-6018 6017 6003 0
-6018 -6017 -6003 0
6018 -6017 6003 0
6018 6017 -6003 0
-6019 6018 6004 0
-6019 -6018 -6004 0
6019 -6018 6004 0
6019 6018 -6004 0
-6020 6019 6005 0
-6020 -6019 -6005 0
6020 -6019 6005 0
6020 6019 -6005 0
-6021 6020 6005 0
-6021 -6020 -6005 0
6021 -6020 6005 0
6021 6020 -6005 0
-6021 0
-6022 5 0
-6022 19 0
6022 -5 -19 0
-6023 6022 0
-6023 33 0
6023 -6022 -33 0
-6024 6 0
-6024 24 0
6024 -6 -24 0
-6025 6024 0
-6025 33 0
6025 -6024 -33 0
-6026 10 0
-6026 24 0
6026 -10 -24 0
-6027 6026 0
-6027 33 0
6027 -6026 -33 0
-6028 18 0
-6028 9 0
6028 -18 -9 0
-6029 6028 0
-6029 33 0
6029 -6028 -33 0
-6030 22 0
-6030 14 0
6030 -22 -14 0
-6031 6030 0
-6031 33 0
6031 -6030 -33 0
-6032 23 0
-6032 14 0
6032 -23 -14 0
-6033 6032 0
-6033 33 0
6033 -6032 -33 0
-6034 53 0
-6034 67 0
6034 -53 -67 0
-6035 6034 0
-6035 81 0
6035 -6034 -81 0
-6036 54 0
-6036 72 0
6036 -54 -72 0
-6037 6036 0
-6037 81 0
6037 -6036 -81 0
-6038 58 0
-6038 72 0
6038 -58 -72 0
-6039 6038 0
-6039 81 0
6039 -6038 -81 0
-6040 66 0
-6040 57 0
6040 -66 -57 0
-6041 6040 0
-6041 81 0
6041 -6040 -81 0
-6042 70 0
-6042 62 0
6042 -70 -62 0
-6043 6042 0
-6043 81 0
6043 -6042 -81 0
-6044 71 0
-6044 62 0
6044 -71 -62 0
-6045 6044 0
-6045 81 0
6045 -6044 -81 0
-6046 101 0
-6046 115 0
6046 -101 -115 0
-6047 6046 0
-6047 129 0
6047 -6046 -129 0
-6048 102 0
-6048 120 0
6048 -102 -120 0
-6049 6048 0
-6049 129 0
6049 -6048 -129 0
-6050 106 0
-6050 120 0
6050 -106 -120 0
-6051 6050 0
-6051 129 0
6051 -6050 -129 0
-6052 149 0
-6052 163 0
6052 -149 -163 0
-6053 6052 0
-6053 177 0
6053 -6052 -177 0
-6054 162 0
-6054 153 0
6054 -162 -153 0
-6055 6054 0
-6055 177 0
6055 -6054 -177 0
-6056 6023 6025 0
-6056 -6023 -6025 0
6056 -6023 6025 0
6056 6023 -6025 0
-6057 6056 6027 0
-6057 -6056 -6027 0
6057 -6056 6027 0
6057 6056 -6027 0
-6058 6057 6029 0
-6058 -6057 -6029 0
6058 -6057 6029 0
6058 6057 -6029 0
-6059 6058 6031 0
-6059 -6058 -6031 0
6059 -6058 6031 0
6059 6058 -6031 0
-6060 6059 6033 0
-6060 -6059 -6033 0
6060 -6059 6033 0
6060 6059 -6033 0
-6061 6060 6035 0
-6061 -6060 -6035 0
6061 -6060 6035 0
6061 6060 -6035 0
-6062 6061 6037 0
-6062 -6061 -6037 0
6062 -6061 6037 0
6062 6061 -6037 0
-6063 6062 6039 0
-6063 -6062 -6039 0
6063 -6062 6039 0
6063 6062 -6039 0
-6064 6063 6041 0
-6064 -6063 -6041 0
6064 -6063 6041 0
6064 6063 -6041 0
-6065 6064 6043 0
-6065 -6064 -6043 0
6065 -6064 6043 0
6065 6064 -6043 0
-6066 6065 6045 0
-6066 -6065 -6045 0
6066 -6065 6045 0
6066 6065 -6045 0
-6067 6066 6047 0
-6067 -6066 -6047 0
6067 -6066 6047 0
6067 6066 -6047 0
-6068 6067 6049 0
-6068 -6067 -6049 0
6068 -6067 6049 0
6068 6067 -6049 0
-6069 6068 6051 0
-6069 -6068 -6051 0
6069 -6068 6051 0
6069 6068 -6051 0
-6070 6069 6053 0
-6070 -6069 -6053 0
6070 -6069 6053 0
6070 6069 -6053 0
-6071 6070 6055 0
-6071 -6070 -6055 0
6071 -6070 6055 0
6071 6070 -6055 0
-6071 0
-6072 6022 0
-6072 34 0
6072 -6022 -34 0
-6073 6024 0
-6073 34 0
6073 -6024 -34 0
-6074 6026 0
-6074 35 0
6074 -6026 -35 0
-6075 6028 0
-6075 37 0
6075 -6028 -37 0
-6076 6030 0
-6076 37 0
6076 -6030 -37 0
-6077 6032 0
-6077 41 0
6077 -6032 -41 0
-6078 6034 0
-6078 82 0
6078 -6034 -82 0
-6079 6036 0
-6079 82 0
6079 -6036 -82 0
-6080 6038 0
-6080 83 0
6080 -6038 -83 0
-6081 6040 0
-6081 85 0
6081 -6040 -85 0
-6082 6042 0
-6082 85 0
6082 -6042 -85 0
-6083 6044 0
-6083 89 0
6083 -6044 -89 0
-6084 6046 0
-6084 130 0
6084 -6046 -130 0
-6085 6048 0
-6085 130 0
6085 -6048 -130 0
-6086 6050 0
-6086 131 0
6086 -6050 -131 0
-6087 6052 0
-6087 178 0
6087 -6052 -178 0
-6088 6054 0
-6088 181 0
6088 -6054 -181 0
-6089 6072 6073 0
-6089 -6072 -6073 0
6089 -6072 6073 0
6089 6072 -6073 0
-6090 6089 6074 0
-6090 -6089 -6074 0
6090 -6089 6074 0
6090 6089 -6074 0
-6091 6090 6075 0
-6091 -6090 -6075 0
6091 -6090 6075 0
6091 6090 -6075 0
-6092 6091 6076 0
-6092 -6091 -6076 0
6092 -6091 6076 0
6092 6091 -6076 0
-6093 6092 6077 0
-6093 -6092 -6077 0
6093 -6092 6077 0
6093 6092 -6077 0
-6094 6093 6078 0
-6094 -6093 -6078 0
6094 -6093 6078 0
6094 6093 -6078 0
-6095 6094 6079 0
-6095 -6094 -6079 0
6095 -6094 6079 0
6095 6094 -6079 0
-6096 6095 6080 0
-6096 -6095 -6080 0
6096 -6095 6080 0
6096 6095 -6080 0
-6097 6096 6081 0
-6097 -6096 -6081 0
6097 -6096 6081 0
6097 6096 -6081 0
-6098 6097 6082 0
-6098 -6097 -6082 0
6098 -6097 6082 0
6098 6097 -6082 0
-6099 6098 6083 0
-6099 -6098 -6083 0
6099 -6098 6083 0
6099 6098 -6083 0
-6100 6099 6084 0
-6100 -6099 -6084 0
6100 -6099 6084 0
6100 6099 -6084 0
-6101 6100 6085 0
-6101 -6100 -6085 0
6101 -6100 6085 0
6101 6100 -6085 0
-6102 6101 6086 0
-6102 -6101 -6086 0
6102 -6101 6086 0
6102 6101 -6086 0
-6103 6102 6087 0
-6103 -6102 -6087 0
6103 -6102 6087 0
6103 6102 -6087 0
-6104 6103 6088 0
-6104 -6103 -6088 0
6104 -6103 6088 0
6104 6103 -6088 0
6104 0
-6105 6022 0
-6105 35 0
6105 -6022 -35 0
-6106 6024 0
-6106 36 0
6106 -6024 -36 0
-6107 6026 0
-6107 36 0
6107 -6026 -36 0
-6108 6028 0
-6108 41 0
6108 -6028 -41 0
-6109 6030 0
-6109 45 0
6109 -6030 -45 0
-6110 6032 0
-6110 45 0
6110 -6032 -45 0
-6111 6034 0
-6111 83 0
6111 -6034 -83 0
-6112 6036 0
-6112 84 0
6112 -6036 -84 0
-6113 6038 0
-6113 84 0
6113 -6038 -84 0
-6114 6040 0
-6114 89 0
6114 -6040 -89 0
-6115 6042 0
-6115 93 0
6115 -6042 -93 0
-6116 6044 0
-6116 93 0
6116 -6044 -93 0
-6117 6046 0
-6117 131 0
6117 -6046 -131 0
-6118 6048 0
-6118 132 0
6118 -6048 -132 0
-6119 6050 0
-6119 132 0
6119 -6050 -132 0
-6120 6052 0
-6120 179 0
6120 -6052 -179 0
-6121 6054 0
-6121 185 0
6121 -6054 -185 0
-6122 6105 6106 0
-6122 -6105 -6106 0
6122 -6105 6106 0
6122 6105 -6106 0
-6123 6122 6107 0
-6123 -6122 -6107 0
6123 -6122 6107 0
6123 6122 -6107 0
-6124 6123 6108 0
-6124 -6123 -6108 0
6124 -6123 6108 0
6124 6123 -6108 0
-6125 6124 6109 0
-6125 -6124 -6109 0
6125 -6124 6109 0
6125 6124 -6109 0
-6126 6125 6110 0
-6126 -6125 -6110 0
6126 -6125 6110 0
6126 6125 -6110 0
-6127 6126 6111 0
-6127 -6126 -6111 0
6127 -6126 6111 0
6127 6126 -6111 0
-6128 6127 6112 0
-6128 -6127 -6112 0
6128 -6127 6112 0
6128 6127 -6112 0
-6129 6128 6113 0
-6129 -6128 -6113 0
6129 -6128 6113 0
6129 6128 -6113 0
-6130 6129 6114 0
-6130 -6129 -6114 0
6130 -6129 6114 0
6130 6129 -6114 0
-6131 6130 6115 0
-6131 -6130 -6115 0
6131 -6130 6115 0
6131 6130 -6115 0
-6132 6131 6116 0
-6132 -6131 -6116 0
6132 -6131 6116 0
6132 6131 -6116 0
-6133 6132 6117 0
-6133 -6132 -6117 0
6133 -6132 6117 0
6133 6132 -6117 0
-6134 6133 6118 0
-6134 -6133 -6118 0
6134 -6133 6118 0
6134 6133 -6118 0
-6135 6134 6119 0
-6135 -6134 -6119 0
6135 -6134 6119 0
6135 6134 -6119 0
-6136 6135 6120 0
-6136 -6135 -6120 0
6136 -6135 6120 0
6136 6135 -6120 0
-6137 6136 6121 0
-6137 -6136 -6121 0
6137 -6136 6121 0
6137 6136 -6121 0
-6137 0
-6138 6022 0
-6138 36 0
6138 -6022 -36 0
-6139 6024 0
-6139 35 0
6139 -6024 -35 0
-6140 6026 0
-6140 34 0
6140 -6026 -34 0
-6141 6028 0
-6141 45 0
6141 -6028 -45 0
-6142 6030 0
-6142 41 0
6142 -6030 -41 0
-6143 6032 0
-6143 37 0
6143 -6032 -37 0
-6144 6034 0
-6144 84 0
6144 -6034 -84 0
-6145 6036 0
-6145 83 0
6145 -6036 -83 0
-6146 6038 0
-6146 82 0
6146 -6038 -82 0
-6147 6040 0
-6147 93 0
6147 -6040 -93 0
-6148 6042 0
-6148 89 0
6148 -6042 -89 0
-6149 6044 0
-6149 85 0
6149 -6044 -85 0
-6150 6046 0
-6150 132 0
6150 -6046 -132 0
-6151 6048 0
-6151 131 0
6151 -6048 -131 0
-6152 6050 0
-6152 130 0
6152 -6050 -130 0
-6153 6052 0
-6153 180 0
6153 -6052 -180 0
-6154 6054 0
-6154 189 0
6154 -6054 -189 0
-6155 6138 6139 0
-6155 -6138 -6139 0
6155 -6138 6139 0
6155 6138 -6139 0
-6156 6155 6140 0
-6156 -6155 -6140 0
6156 -6155 6140 0
6156 6155 -6140 0
-6157 6156 6141 0
-6157 -6156 -6141 0
6157 -6156 6141 0
6157 6156 -6141 0
-6158 6157 6142 0
-6158 -6157 -6142 0
6158 -6157 6142 0
6158 6157 -6142 0
-6159 6158 6143 0
-6159 -6158 -6143 0
6159 -6158 6143 0
6159 6158 -6143 0
-6160 6159 6144 0
-6160 -6159 -6144 0
6160 -6159 6144 0
6160 6159 -6144 0
-6161 6160 6145 0
-6161 -6160 -6145 0
6161 -6160 6145 0
6161 6160 -6145 0
-6162 6161 6146 0
-6162 -6161 -6146 0
6162 -6161 6146 0
6162 6161 -6146 0
-6163 6162 6147 0
-6163 -6162 -6147 0
6163 -6162 6147 0
6163 6162 -6147 0
-6164 6163 6148 0
-6164 -6163 -6148 0
6164 -6163 6148 0
6164 6163 -6148 0
-6165 6164 6149 0
-6165 -6164 -6149 0
6165 -6164 6149 0
6165 6164 -6149 0
-6166 6165 6150 0
-6166 -6165 -6150 0
6166 -6165 6150 0
6166 6165 -6150 0
-6167 6166 6151 0
-6167 -6166 -6151 0
6167 -6166 6151 0
6167 6166 -6151 0
-6168 6167 6152 0
-6168 -6167 -6152 0
6168 -6167 6152 0
6168 6167 -6152 0
-6169 6168 6153 0
-6169 -6168 -6153 0
6169 -6168 6153 0
6169 6168 -6153 0
-6170 6169 6154 0
-6170 -6169 -6154 0
6170 -6169 6154 0
6170 6169 -6154 0
-6170 0
-6171 6022 0
-6171 37 0
6171 -6022 -37 0
-6172 6024 0
-6172 37 0
6172 -6024 -37 0
-6173 6026 0
-6173 41 0
6173 -6026 -41 0
-6174 6028 0
-6174 34 0
6174 -6028 -34 0
-6175 6030 0
-6175 34 0
6175 -6030 -34 0
-6176 6032 0
-6176 35 0
6176 -6032 -35 0
-6177 6034 0
-6177 85 0
6177 -6034 -85 0
-6178 6036 0
-6178 85 0
6178 -6036 -85 0
-6179 6038 0
-6179 89 0
6179 -6038 -89 0
-6180 6040 0
-6180 82 0
6180 -6040 -82 0
-6181 6042 0
-6181 82 0
6181 -6042 -82 0
-6182 6044 0
-6182 83 0
6182 -6044 -83 0
-6183 6046 0
-6183 133 0
6183 -6046 -133 0
-6184 6048 0
-6184 133 0
6184 -6048 -133 0
-6185 6050 0
-6185 137 0
6185 -6050 -137 0
-6186 6052 0
-6186 181 0
6186 -6052 -181 0
-6187 6054 0
-6187 178 0
6187 -6054 -178 0
-6188 6171 6172 0
-6188 -6171 -6172 0
6188 -6171 6172 0
6188 6171 -6172 0
-6189 6188 6173 0
-6189 -6188 -6173 0
6189 -6188 6173 0
6189 6188 -6173 0
-6190 6189 6174 0
-6190 -6189 -6174 0
6190 -6189 6174 0
6190 6189 -6174 0
-6191 6190 6175 0
-6191 -6190 -6175 0
6191 -6190 6175 0
6191 6190 -6175 0
-6192 6191 6176 0
-6192 -6191 -6176 0
6192 -6191 6176 0
6192 6191 -6176 0
-6193 6192 6177 0
-6193 -6192 -6177 0
6193 -6192 6177 0
6193 6192 -6177 0
-6194 6193 6178 0
-6194 -6193 -6178 0
6194 -6193 6178 0
6194 6193 -6178 0
-6195 6194 6179 0
-6195 -6194 -6179 0
6195 -6194 6179 0
6195 6194 -6179 0
-6196 6195 6180 0
-6196 -6195 -6180 0
6196 -6195 6180 0
6196 6195 -6180 0
-6197 6196 6181 0
-6197 -6196 -6181 0
6197 -6196 6181 0
6197 6196 -6181 0
-6198 6197 6182 0
-6198 -6197 -6182 0
6198 -6197 6182 0
6198 6197 -6182 0
-6199 6198 6183 0
-6199 -6198 -6183 0
6199 -6198 6183 0
6199 6198 -6183 0
-6200 6199 6184 0
-6200 -6199 -6184 0
6200 -6199 6184 0
6200 6199 -6184 0
-6201 6200 6185 0
-6201 -6200 -6185 0
6201 -6200 6185 0
6201 6200 -6185 0
-6202 6201 6186 0
-6202 -6201 -6186 0
6202 -6201 6186 0
6202 6201 -6186 0
-6203 6202 6187 0
-6203 -6202 -6187 0
6203 -6202 6187 0
6203 6202 -6187 0
-6203 0
-6204 6022 0
-6204 38 0
6204 -6022 -38 0
-6205 6024 0
-6205 38 0
6205 -6024 -38 0
-6206 6026 0
-6206 43 0
6206 -6026 -43 0
-6207 6028 0
-6207 38 0
6207 -6028 -38 0
-6208 6030 0
-6208 38 0
6208 -6030 -38 0
-6209 6032 0
-6209 43 0
6209 -6032 -43 0
-6210 6034 0
-6210 86 0
6210 -6034 -86 0
-6211 6036 0
-6211 86 0
6211 -6036 -86 0
-6212 6038 0
-6212 91 0
6212 -6038 -91 0
-6213 6040 0
-6213 86 0
6213 -6040 -86 0
-6214 6042 0
-6214 86 0
6214 -6042 -86 0
-6215 6044 0
-6215 91 0
6215 -6044 -91 0
-6216 6046 0
-6216 134 0
6216 -6046 -134 0
-6217 6048 0
-6217 134 0
6217 -6048 -134 0
-6218 6050 0
-6218 139 0
6218 -6050 -139 0
-6219 6052 0
-6219 182 0
6219 -6052 -182 0
-6220 6054 0
-6220 182 0
6220 -6054 -182 0
-6221 6204 6205 0
-6221 -6204 -6205 0
6221 -6204 6205 0
6221 6204 -6205 0
-6222 6221 6206 0
-6222 -6221 -6206 0
6222 -6221 6206 0
6222 6221 -6206 0
-6223 6222 6207 0
-6223 -6222 -6207 0
6223 -6222 6207 0
6223 6222 -6207 0
-6224 6223 6208 0
-6224 -6223 -6208 0
6224 -6223 6208 0
6224 6223 -6208 0
-6225 6224 6209 0
-6225 -6224 -6209 0
6225 -6224 6209 0
6225 6224 -6209 0
-6226 6225 6210 0
-6226 -6225 -6210 0
6226 -6225 6210 0
6226 6225 -6210 0
-6227 6226 6211 0
-6227 -6226 -6211 0
6227 -6226 6211 0
6227 6226 -6211 0
-6228 6227 6212 0
-6228 -6227 -6212 0
6228 -6227 6212 0
6228 6227 -6212 0
-6229 6228 6213 0
-6229 -6228 -6213 0
6229 -6228 6213 0
6229 6228 -6213 0
-6230 6229 6214 0
-6230 -6229 -6214 0
6230 -6229 6214 0
6230 6229 -6214 0
-6231 6230 6215 0
-6231 -6230 -6215 0
6231 -6230 6215 0
6231 6230 -6215 0
-6232 6231 6216 0
-6232 -6231 -6216 0
6232 -6231 6216 0
6232 6231 -6216 0
-6233 6232 6217 0
-6233 -6232 -6217 0
6233 -6232 6217 0
6233 6232 -6217 0
-6234 6233 6218 0
-6234 -6233 -6218 0
6234 -6233 6218 0
6234 6233 -6218 0
-6235 6234 6219 0
-6235 -6234 -6219 0
6235 -6234 6219 0
6235 6234 -6219 0
-6236 6235 6220 0
-6236 -6235 -6220 0
6236 -6235 6220 0
6236 6235 -6220 0
-6236 0
-6237 6022 0
-6237 39 0
6237 -6022 -39 0
-6238 6024 0
-6238 40 0
6238 -6024 -40 0
-6239 6026 0
-6239 44 0
6239 -6026 -44 0
-6240 6028 0
-6240 42 0
6240 -6028 -42 0
-6241 6030 0
-6241 46 0
6241 -6030 -46 0
-6242 6032 0
-6242 47 0
6242 -6032 -47 0
-6243 6034 0
-6243 87 0
6243 -6034 -87 0
-6244 6036 0
-6244 88 0
6244 -6036 -88 0
-6245 6038 0
-6245 92 0
6245 -6038 -92 0
-6246 6040 0
-6246 90 0
6246 -6040 -90 0
-6247 6042 0
-6247 94 0
6247 -6042 -94 0
-6248 6044 0
-6248 95 0
6248 -6044 -95 0
-6249 6046 0
-6249 135 0
6249 -6046 -135 0
-6250 6048 0
-6250 136 0
6250 -6048 -136 0
-6251 6050 0
-6251 140 0
6251 -6050 -140 0
-6252 6052 0
-6252 183 0
6252 -6052 -183 0
-6253 6054 0
-6253 186 0
6253 -6054 -186 0
-6254 6237 6238 0
-6254 -6237 -6238 0
6254 -6237 6238 0
6254 6237 -6238 0
-6255 6254 6239 0
-6255 -6254 -6239 0
6255 -6254 6239 0
6255 6254 -6239 0
-6256 6255 6240 0
-6256 -6255 -6240 0
6256 -6255 6240 0
6256 6255 -6240 0
-6257 6256 6241 0
-6257 -6256 -6241 0
6257 -6256 6241 0
6257 6256 -6241 0
-6258 6257 6242 0
-6258 -6257 -6242 0
6258 -6257 6242 0
6258 6257 -6242 0
-6259 6258 6243 0
-6259 -6258 -6243 0
6259 -6258 6243 0
6259 6258 -6243 0
-6260 6259 6244 0
-6260 -6259 -6244 0
6260 -6259 6244 0
6260 6259 -6244 0
-6261 6260 6245 0
-6261 -6260 -6245 0
6261 -6260 6245 0
6261 6260 -6245 0
-6262 6261 6246 0
-6262 -6261 -6246 0
6262 -6261 6246 0
6262 6261 -6246 0
-6263 6262 6247 0
-6263 -6262 -6247 0
6263 -6262 6247 0
6263 6262 -6247 0
-6264 6263 6248 0
-6264 -6263 -6248 0
6264 -6263 6248 0
6264 6263 -6248 0
-6265 6264 6249 0
-6265 -6264 -6249 0
6265 -6264 6249 0
6265 6264 -6249 0
-6266 6265 6250 0
-6266 -6265 -6250 0
6266 -6265 6250 0
6266 6265 -6250 0
-6267 6266 6251 0
-6267 -6266 -6251 0
6267 -6266 6251 0
6267 6266 -6251 0
-6268 6267 6252 0
-6268 -6267 -6252 0
6268 -6267 6252 0
6268 6267 -6252 0
-6269 6268 6253 0
-6269 -6268 -6253 0
6269 -6268 6253 0
6269 6268 -6253 0
-6269 0
-6270 6022 0
-6270 40 0
6270 -6022 -40 0
-6271 6024 0
-6271 39 0
6271 -6024 -39 0
-6272 6026 0
-6272 42 0
6272 -6026 -42 0
-6273 6028 0
-6273 46 0
6273 -6028 -46 0
-6274 6030 0
-6274 42 0
6274 -6030 -42 0
-6275 6032 0
-6275 39 0
6275 -6032 -39 0
-6276 6034 0
-6276 88 0
6276 -6034 -88 0
-6277 6036 0
-6277 87 0
6277 -6036 -87 0
-6278 6038 0
-6278 90 0
6278 -6038 -90 0
-6279 6040 0
-6279 94 0
6279 -6040 -94 0
-6280 6042 0
-6280 90 0
6280 -6042 -90 0
-6281 6044 0
-6281 87 0
6281 -6044 -87 0
-6282 6046 0
-6282 136 0
6282 -6046 -136 0
-6283 6048 0
-6283 135 0
6283 -6048 -135 0
-6284 6050 0
-6284 138 0
6284 -6050 -138 0
-6285 6052 0
-6285 184 0
6285 -6052 -184 0
-6286 6054 0
-6286 190 0
6286 -6054 -190 0
-6287 6270 6271 0
-6287 -6270 -6271 0
6287 -6270 6271 0
6287 6270 -6271 0
-6288 6287 6272 0
-6288 -6287 -6272 0
6288 -6287 6272 0
6288 6287 -6272 0
-6289 6288 6273 0
-6289 -6288 -6273 0
6289 -6288 6273 0
6289 6288 -6273 0
-6290 6289 6274 0
-6290 -6289 -6274 0
6290 -6289 6274 0
6290 6289 -6274 0
-6291 6290 6275 0
-6291 -6290 -6275 0
6291 -6290 6275 0
6291 6290 -6275 0
-6292 6291 6276 0
-6292 -6291 -6276 0
6292 -6291 6276 0
6292 6291 -6276 0
-6293 6292 6277 0
-6293 -6292 -6277 0
6293 -6292 6277 0
6293 6292 -6277 0
-6294 6293 6278 0
-6294 -6293 -6278 0
6294 -6293 6278 0
6294 6293 -6278 0
-6295 6294 6279 0
-6295 -6294 -6279 0
6295 -6294 6279 0
6295 6294 -6279 0
-6296 6295 6280 0
-6296 -6295 -6280 0
6296 -6295 6280 0
6296 6295 -6280 0
-6297 6296 6281 0
-6297 -6296 -6281 0
6297 -6296 6281 0
6297 6296 -6281 0
-6298 6297 6282 0
-6298 -6297 -6282 0
6298 -6297 6282 0
6298 6297 -6282 0
-6299 6298 6283 0
-6299 -6298 -6283 0
6299 -6298 6283 0
6299 6298 -6283 0
-6300 6299 6284 0
-6300 -6299 -6284 0
6300 -6299 6284 0
6300 6299 -6284 0
-6301 6300 6285 0
-6301 -6300 -6285 0
6301 -6300 6285 0
6301 6300 -6285 0
-6302 6301 6286 0
-6302 -6301 -6286 0
6302 -6301 6286 0
6302 6301 -6286 0
-6302 0
-6303 6022 0
-6303 41 0
6303 -6022 -41 0
-6304 6024 0
-6304 45 0
6304 -6024 -45 0
-6305 6026 0
-6305 45 0
6305 -6026 -45 0
-6306 6028 0
-6306 35 0
6306 -6028 -35 0
-6307 6030 0
-6307 36 0
6307 -6030 -36 0
-6308 6032 0
-6308 36 0
6308 -6032 -36 0
-6309 6034 0
-6309 89 0
6309 -6034 -89 0
-6310 6036 0
-6310 93 0
6310 -6036 -93 0
-6311 6038 0
-6311 93 0
6311 -6038 -93 0
-6312 6040 0
-6312 83 0
6312 -6040 -83 0
-6313 6042 0
-6313 84 0
6313 -6042 -84 0
-6314 6044 0
-6314 84 0
6314 -6044 -84 0
-6315 6046 0
-6315 137 0
6315 -6046 -137 0
-6316 6048 0
-6316 141 0
6316 -6048 -141 0
-6317 6050 0
-6317 141 0
6317 -6050 -141 0
-6318 6052 0
-6318 185 0
6318 -6052 -185 0
-6319 6054 0
-6319 179 0
6319 -6054 -179 0
-6320 6303 6304 0
-6320 -6303 -6304 0
6320 -6303 6304 0
6320 6303 -6304 0
-6321 6320 6305 0
-6321 -6320 -6305 0
6321 -6320 6305 0
6321 6320 -6305 0
-6322 6321 6306 0
-6322 -6321 -6306 0
6322 -6321 6306 0
6322 6321 -6306 0
-6323 6322 6307 0
-6323 -6322 -6307 0
6323 -6322 6307 0
6323 6322 -6307 0
-6324 6323 6308 0
-6324 -6323 -6308 0
6324 -6323 6308 0
6324 6323 -6308 0
-6325 6324 6309 0
-6325 -6324 -6309 0
6325 -6324 6309 0
6325 6324 -6309 0
-6326 6325 6310 0
-6326 -6325 -6310 0
6326 -6325 6310 0
6326 6325 -6310 0
-6327 6326 6311 0
-6327 -6326 -6311 0
6327 -6326 6311 0
6327 6326 -6311 0
-6328 6327 6312 0
-6328 -6327 -6312 0
6328 -6327 6312 0
6328 6327 -6312 0
-6329 6328 6313 0
-6329 -6328 -6313 0
6329 -6328 6313 0
6329 6328 -6313 0
-6330 6329 6314 0
-6330 -6329 -6314 0
6330 -6329 6314 0
6330 6329 -6314 0
-6331 6330 6315 0
-6331 -6330 -6315 0
6331 -6330 6315 0
6331 6330 -6315 0
-6332 6331 6316 0
-6332 -6331 -6316 0
6332 -6331 6316 0
6332 6331 -6316 0
-6333 6332 6317 0
-6333 -6332 -6317 0
6333 -6332 6317 0
6333 6332 -6317 0
-6334 6333 6318 0
-6334 -6333 -6318 0
6334 -6333 6318 0
6334 6333 -6318 0
-6335 6334 6319 0
-6335 -6334 -6319 0
6335 -6334 6319 0
6335 6334 -6319 0
6335 0
-6336 6022 0
-6336 42 0
6336 -6022 -42 0
-6337 6024 0
-6337 46 0
6337 -6024 -46 0
-6338 6026 0
-6338 47 0
6338 -6026 -47 0
-6339 6028 0
-6339 39 0
6339 -6028 -39 0
-6340 6030 0
-6340 40 0
6340 -6030 -40 0
-6341 6032 0
-6341 44 0
6341 -6032 -44 0
-6342 6034 0
-6342 90 0
6342 -6034 -90 0
-6343 6036 0
-6343 94 0
6343 -6036 -94 0
-6344 6038 0
-6344 95 0
6344 -6038 -95 0
-6345 6040 0
-6345 87 0
6345 -6040 -87 0
-6346 6042 0
-6346 88 0
6346 -6042 -88 0
-6347 6044 0
-6347 92 0
6347 -6044 -92 0
-6348 6046 0
-6348 138 0
6348 -6046 -138 0
-6349 6048 0
-6349 142 0
6349 -6048 -142 0
-6350 6050 0
-6350 143 0
6350 -6050 -143 0
-6351 6052 0
-6351 186 0
6351 -6052 -186 0
-6352 6054 0
-6352 183 0
6352 -6054 -183 0
-6353 6336 6337 0
-6353 -6336 -6337 0
6353 -6336 6337 0
6353 6336 -6337 0
-6354 6353 6338 0
-6354 -6353 -6338 0
6354 -6353 6338 0
6354 6353 -6338 0
-6355 6354 6339 0
-6355 -6354 -6339 0
6355 -6354 6339 0
6355 6354 -6339 0
-6356 6355 6340 0
-6356 -6355 -6340 0
6356 -6355 6340 0
6356 6355 -6340 0
-6357 6356 6341 0
-6357 -6356 -6341 0
6357 -6356 6341 0
6357 6356 -6341 0
-6358 6357 6342 0
-6358 -6357 -6342 0
6358 -6357 6342 0
6358 6357 -6342 0
-6359 6358 6343 0
-6359 -6358 -6343 0
6359 -6358 6343 0
6359 6358 -6343 0
-6360 6359 6344 0
-6360 -6359 -6344 0
6360 -6359 6344 0
6360 6359 -6344 0
-6361 6360 6345 0
-6361 -6360 -6345 0
6361 -6360 6345 0
6361 6360 -6345 0
-6362 6361 6346 0
-6362 -6361 -6346 0
6362 -6361 6346 0
6362 6361 -6346 0
-6363 6362 6347 0
-6363 -6362 -6347 0
6363 -6362 6347 0
6363 6362 -6347 0
-6364 6363 6348 0
-6364 -6363 -6348 0
6364 -6363 6348 0
6364 6363 -6348 0
-6365 6364 6349 0
-6365 -6364 -6349 0
6365 -6364 6349 0
6365 6364 -6349 0
-6366 6365 6350 0
-6366 -6365 -6350 0
6366 -6365 6350 0
6366 6365 -6350 0
-6367 6366 6351 0
-6367 -6366 -6351 0
6367 -6366 6351 0
6367 6366 -6351 0
-6368 6367 6352 0
-6368 -6367 -6352 0
6368 -6367 6352 0
6368 6367 -6352 0
6368 0
-6369 6022 0
-6369 43 0
6369 -6022 -43 0
-6370 6024 0
-6370 48 0
6370 -6024 -48 0
-6371 6026 0
-6371 48 0
6371 -6026 -48 0
-6372 6028 0
-6372 43 0
6372 -6028 -43 0
-6373 6030 0
-6373 48 0
6373 -6030 -48 0
-6374 6032 0
-6374 48 0
6374 -6032 -48 0
-6375 6034 0
-6375 91 0
6375 -6034 -91 0
-6376 6036 0
-6376 96 0
6376 -6036 -96 0
-6377 6038 0
-6377 96 0
6377 -6038 -96 0
-6378 6040 0
-6378 91 0
6378 -6040 -91 0
-6379 6042 0
-6379 96 0
6379 -6042 -96 0
-6380 6044 0
-6380 96 0
6380 -6044 -96 0
-6381 6046 0
-6381 139 0
6381 -6046 -139 0
-6382 6048 0
-6382 144 0
6382 -6048 -144 0
-6383 6050 0
-6383 144 0
6383 -6050 -144 0
-6384 6052 0
-6384 187 0
6384 -6052 -187 0
-6385 6054 0
-6385 187 0
6385 -6054 -187 0
-6386 6369 6370 0
-6386 -6369 -6370 0
6386 -6369 6370 0
6386 6369 -6370 0
-6387 6386 6371 0
-6387 -6386 -6371 0
6387 -6386 6371 0
6387 6386 -6371 0
-6388 6387 6372 0
-6388 -6387 -6372 0
6388 -6387 6372 0
6388 6387 -6372 0
-6389 6388 6373 0
-6389 -6388 -6373 0
6389 -6388 6373 0
6389 6388 -6373 0
-6390 6389 6374 0
-6390 -6389 -6374 0
6390 -6389 6374 0
6390 6389 -6374 0
-6391 6390 6375 0
-6391 -6390 -6375 0
6391 -6390 6375 0
6391 6390 -6375 0
-6392 6391 6376 0
-6392 -6391 -6376 0
6392 -6391 6376 0
6392 6391 -6376 0
-6393 6392 6377 0
-6393 -6392 -6377 0
6393 -6392 6377 0
6393 6392 -6377 0
-6394 6393 6378 0
-6394 -6393 -6378 0
6394 -6393 6378 0
6394 6393 -6378 0
-6395 6394 6379 0
-6395 -6394 -6379 0
6395 -6394 6379 0
6395 6394 -6379 0
-6396 6395 6380 0
-6396 -6395 -6380 0
6396 -6395 6380 0
6396 6395 -6380 0
-6397 6396 6381 0
-6397 -6396 -6381 0
6397 -6396 6381 0
6397 6396 -6381 0
-6398 6397 6382 0
-6398 -6397 -6382 0
6398 -6397 6382 0
6398 6397 -6382 0
-6399 6398 6383 0
-6399 -6398 -6383 0
6399 -6398 6383 0
6399 6398 -6383 0
-6400 6399 6384 0
-6400 -6399 -6384 0
6400 -6399 6384 0
6400 6399 -6384 0
-6401 6400 6385 0
-6401 -6400 -6385 0
6401 -6400 6385 0
6401 6400 -6385 0
6401 0
-6402 6022 0
-6402 44 0
6402 -6022 -44 0
-6403 6024 0
-6403 47 0
6403 -6024 -47 0
-6404 6026 0
-6404 46 0
6404 -6026 -46 0
-6405 6028 0
-6405 47 0
6405 -6028 -47 0
-6406 6030 0
-6406 44 0
6406 -6030 -44 0
-6407 6032 0
-6407 40 0
6407 -6032 -40 0
-6408 6034 0
-6408 92 0
6408 -6034 -92 0
-6409 6036 0
-6409 95 0
6409 -6036 -95 0
-6410 6038 0
-6410 94 0
6410 -6038 -94 0
-6411 6040 0
-6411 95 0
6411 -6040 -95 0
-6412 6042 0
-6412 92 0
6412 -6042 -92 0
-6413 6044 0
-6413 88 0
6413 -6044 -88 0
-6414 6046 0
-6414 140 0
6414 -6046 -140 0
-6415 6048 0
-6415 143 0
6415 -6048 -143 0
-6416 6050 0
-6416 142 0
6416 -6050 -142 0
-6417 6052 0
-6417 188 0
6417 -6052 -188 0
-6418 6054 0
-6418 191 0
6418 -6054 -191 0
-6419 6402 6403 0
-6419 -6402 -6403 0
6419 -6402 6403 0
6419 6402 -6403 0
-6420 6419 6404 0
-6420 -6419 -6404 0
6420 -6419 6404 0
6420 6419 -6404 0
-6421 6420 6405 0
-6421 -6420 -6405 0
6421 -6420 6405 0
6421 6420 -6405 0
-6422 6421 6406 0
-6422 -6421 -6406 0
6422 -6421 6406 0
6422 6421 -6406 0
-6423 6422 6407 0
-6423 -6422 -6407 0
6423 -6422 6407 0
6423 6422 -6407 0
-6424 6423 6408 0
-6424 -6423 -6408 0
6424 -6423 6408 0
6424 6423 -6408 0
-6425 6424 6409 0
-6425 -6424 -6409 0
6425 -6424 6409 0
6425 6424 -6409 0
-6426 6425 6410 0
-6426 -6425 -6410 0
6426 -6425 6410 0
6426 6425 -6410 0
-6427 6426 6411 0
-6427 -6426 -6411 0
6427 -6426 6411 0
6427 6426 -6411 0
-6428 6427 6412 0
-6428 -6427 -6412 0
6428 -6427 6412 0
6428 6427 -6412 0
-6429 6428 6413 0
-6429 -6428 -6413 0
6429 -6428 6413 0
6429 6428 -6413 0
-6430 6429 6414 0
-6430 -6429 -6414 0
6430 -6429 6414 0
6430 6429 -6414 0
-6431 6430 6415 0
-6431 -6430 -6415 0
6431 -6430 6415 0
6431 6430 -6415 0
-6432 6431 6416 0
-6432 -6431 -6416 0
6432 -6431 6416 0
6432 6431 -6416 0
-6433 6432 6417 0
-6433 -6432 -6417 0
6433 -6432 6417 0
6433 6432 -6417 0
-6434 6433 6418 0
-6434 -6433 -6418 0
6434 -6433 6418 0
6434 6433 -6418 0
-6434 0
-6435 6022 0
-6435 45 0
6435 -6022 -45 0
-6436 6024 0
-6436 41 0
6436 -6024 -41 0
-6437 6026 0
-6437 37 0
6437 -6026 -37 0
-6438 6028 0
-6438 36 0
6438 -6028 -36 0
-6439 6030 0
-6439 35 0
6439 -6030 -35 0
-6440 6032 0
-6440 34 0
6440 -6032 -34 0
-6441 6034 0
-6441 93 0
6441 -6034 -93 0
-6442 6036 0
-6442 89 0
6442 -6036 -89 0
-6443 6038 0
-6443 85 0
6443 -6038 -85 0
-6444 6040 0
-6444 84 0
6444 -6040 -84 0
-6445 6042 0
-6445 83 0
6445 -6042 -83 0
-6446 6044 0
-6446 82 0
6446 -6044 -82 0
-6447 6046 0
-6447 141 0
6447 -6046 -141 0
-6448 6048 0
-6448 137 0
6448 -6048 -137 0
-6449 6050 0
-6449 133 0
6449 -6050 -133 0
-6450 6052 0
-6450 189 0
6450 -6052 -189 0
-6451 6054 0
-6451 180 0
6451 -6054 -180 0
-6452 6435 6436 0
-6452 -6435 -6436 0
6452 -6435 6436 0
6452 6435 -6436 0
-6453 6452 6437 0
-6453 -6452 -6437 0
6453 -6452 6437 0
6453 6452 -6437 0
-6454 6453 6438 0
-6454 -6453 -6438 0
6454 -6453 6438 0
6454 6453 -6438 0
-6455 6454 6439 0
-6455 -6454 -6439 0
6455 -6454 6439 0
6455 6454 -6439 0
-6456 6455 6440 0
-6456 -6455 -6440 0
6456 -6455 6440 0
6456 6455 -6440 0
-6457 6456 6441 0
-6457 -6456 -6441 0
6457 -6456 6441 0
6457 6456 -6441 0
-6458 6457 6442 0
-6458 -6457 -6442 0
6458 -6457 6442 0
6458 6457 -6442 0
-6459 6458 6443 0
-6459 -6458 -6443 0
6459 -6458 6443 0
6459 6458 -6443 0
-6460 6459 6444 0
-6460 -6459 -6444 0
6460 -6459 6444 0
6460 6459 -6444 0
-6461 6460 6445 0
-6461 -6460 -6445 0
6461 -6460 6445 0
6461 6460 -6445 0
-6462 6461 6446 0
-6462 -6461 -6446 0
6462 -6461 6446 0
6462 6461 -6446 0
-6463 6462 6447 0
-6463 -6462 -6447 0
6463 -6462 6447 0
6463 6462 -6447 0
-6464 6463 6448 0
-6464 -6463 -6448 0
6464 -6463 6448 0
6464 6463 -6448 0
-6465 6464 6449 0
-6465 -6464 -6449 0
6465 -6464 6449 0
6465 6464 -6449 0
-6466 6465 6450 0
-6466 -6465 -6450 0
6466 -6465 6450 0
6466 6465 -6450 0
-6467 6466 6451 0
-6467 -6466 -6451 0
6467 -6466 6451 0
6467 6466 -6451 0
-6467 0
-6468 6022 0
-6468 46 0
6468 -6022 -46 0
-6469 6024 0
-6469 42 0
6469 -6024 -42 0
-6470 6026 0
-6470 39 0
6470 -6026 -39 0
-6471 6028 0
-6471 40 0
6471 -6028 -40 0
-6472 6030 0
-6472 39 0
6472 -6030 -39 0
-6473 6032 0
-6473 42 0
6473 -6032 -42 0
-6474 6034 0
-6474 94 0
6474 -6034 -94 0
-6475 6036 0
-6475 90 0
6475 -6036 -90 0
-6476 6038 0
-6476 87 0
6476 -6038 -87 0
-6477 6040 0
-6477 88 0
6477 -6040 -88 0
-6478 6042 0
-6478 87 0
6478 -6042 -87 0
-6479 6044 0
-6479 90 0
6479 -6044 -90 0
-6480 6046 0
-6480 142 0
6480 -6046 -142 0
-6481 6048 0
-6481 138 0
6481 -6048 -138 0
-6482 6050 0
-6482 135 0
6482 -6050 -135 0
-6483 6052 0
-6483 190 0
6483 -6052 -190 0
-6484 6054 0
-6484 184 0
6484 -6054 -184 0
-6485 6468 6469 0
-6485 -6468 -6469 0
6485 -6468 6469 0
6485 6468 -6469 0
-6486 6485 6470 0
-6486 -6485 -6470 0
6486 -6485 6470 0
6486 6485 -6470 0
-6487 6486 6471 0
-6487 -6486 -6471 0
6487 -6486 6471 0
6487 6486 -6471 0
-6488 6487 6472 0
-6488 -6487 -6472 0
6488 -6487 6472 0
6488 6487 -6472 0
-6489 6488 6473 0
-6489 -6488 -6473 0
6489 -6488 6473 0
6489 6488 -6473 0
-6490 6489 6474 0
-6490 -6489 -6474 0
6490 -6489 6474 0
6490 6489 -6474 0
-6491 6490 6475 0
-6491 -6490 -6475 0
6491 -6490 6475 0
6491 6490 -6475 0
-6492 6491 6476 0
-6492 -6491 -6476 0
6492 -6491 6476 0
6492 6491 -6476 0
-6493 6492 6477 0
-6493 -6492 -6477 0
6493 -6492 6477 0
6493 6492 -6477 0
-6494 6493 6478 0
-6494 -6493 -6478 0
6494 -6493 6478 0
6494 6493 -6478 0
-6495 6494 6479 0
-6495 -6494 -6479 0
6495 -6494 6479 0
6495 6494 -6479 0
-6496 6495 6480 0
-6496 -6495 -6480 0
6496 -6495 6480 0
6496 6495 -6480 0
-6497 6496 6481 0
-6497 -6496 -6481 0
6497 -6496 6481 0
6497 6496 -6481 0
-6498 6497 6482 0
-6498 -6497 -6482 0
6498 -6497 6482 0
6498 6497 -6482 0
-6499 6498 6483 0
-6499 -6498 -6483 0
6499 -6498 6483 0
6499 6498 -6483 0
-6500 6499 6484 0
-6500 -6499 -6484 0
6500 -6499 6484 0
6500 6499 -6484 0
-6500 0
-6501 6022 0
-6501 47 0
6501 -6022 -47 0
-6502 6024 0
-6502 44 0
6502 -6024 -44 0
-6503 6026 0
-6503 40 0
6503 -6026 -40 0
-6504 6028 0
-6504 44 0
6504 -6028 -44 0
-6505 6030 0
-6505 47 0
6505 -6030 -47 0
-6506 6032 0
-6506 46 0
6506 -6032 -46 0
-6507 6034 0
-6507 95 0
6507 -6034 -95 0
-6508 6036 0
-6508 92 0
6508 -6036 -92 0
-6509 6038 0
-6509 88 0
6509 -6038 -88 0
-6510 6040 0
-6510 92 0
6510 -6040 -92 0
-6511 6042 0
-6511 95 0
6511 -6042 -95 0
-6512 6044 0
-6512 94 0
6512 -6044 -94 0
-6513 6046 0
-6513 143 0
6513 -6046 -143 0
-6514 6048 0
-6514 140 0
6514 -6048 -140 0
-6515 6050 0
-6515 136 0
6515 -6050 -136 0
-6516 6052 0
-6516 191 0
6516 -6052 -191 0
-6517 6054 0
-6517 188 0
6517 -6054 -188 0
-6518 6501 6502 0
-6518 -6501 -6502 0
6518 -6501 6502 0
6518 6501 -6502 0
-6519 6518 6503 0
-6519 -6518 -6503 0
6519 -6518 6503 0
6519 6518 -6503 0
-6520 6519 6504 0
-6520 -6519 -6504 0
6520 -6519 6504 0
6520 6519 -6504 0
-6521 6520 6505 0
-6521 -6520 -6505 0
6521 -6520 6505 0
6521 6520 -6505 0
-6522 6521 6506 0
-6522 -6521 -6506 0
6522 -6521 6506 0
6522 6521 -6506 0
-6523 6522 6507 0
-6523 -6522 -6507 0
6523 -6522 6507 0
6523 6522 -6507 0
-6524 6523 6508 0
-6524 -6523 -6508 0
6524 -6523 6508 0
6524 6523 -6508 0
-6525 6524 6509 0
-6525 -6524 -6509 0
6525 -6524 6509 0
6525 6524 -6509 0
-6526 6525 6510 0
-6526 -6525 -6510 0
6526 -6525 6510 0
6526 6525 -6510 0
-6527 6526 6511 0
-6527 -6526 -6511 0
6527 -6526 6511 0
6527 6526 -6511 0
-6528 6527 6512 0
-6528 -6527 -6512 0
6528 -6527 6512 0
6528 6527 -6512 0
-6529 6528 6513 0
-6529 -6528 -6513 0
6529 -6528 6513 0
6529 6528 -6513 0
-6530 6529 6514 0
-6530 -6529 -6514 0
6530 -6529 6514 0
6530 6529 -6514 0
-6531 6530 6515 0
-6531 -6530 -6515 0
6531 -6530 6515 0
6531 6530 -6515 0
-6532 6531 6516 0
-6532 -6531 -6516 0
6532 -6531 6516 0
6532 6531 -6516 0
-6533 6532 6517 0
-6533 -6532 -6517 0
6533 -6532 6517 0
6533 6532 -6517 0
-6533 0
-6534 6022 0
-6534 48 0
6534 -6022 -48 0
-6535 6024 0
-6535 43 0
6535 -6024 -43 0
-6536 6026 0
-6536 38 0
6536 -6026 -38 0
-6537 6028 0
-6537 48 0
6537 -6028 -48 0
-6538 6030 0
-6538 43 0
6538 -6030 -43 0
-6539 6032 0
-6539 38 0
6539 -6032 -38 0
-6540 6034 0
-6540 96 0
6540 -6034 -96 0
-6541 6036 0
-6541 91 0
6541 -6036 -91 0
-6542 6038 0
-6542 86 0
6542 -6038 -86 0
-6543 6040 0
-6543 96 0
6543 -6040 -96 0
-6544 6042 0
-6544 91 0
6544 -6042 -91 0
-6545 6044 0
-6545 86 0
6545 -6044 -86 0
-6546 6046 0
-6546 144 0
6546 -6046 -144 0
-6547 6048 0
-6547 139 0
6547 -6048 -139 0
-6548 6050 0
-6548 134 0
6548 -6050 -134 0
-6549 6052 0
-6549 192 0
6549 -6052 -192 0
-6550 6054 0
-6550 192 0
6550 -6054 -192 0
-6551 6534 6535 0
-6551 -6534 -6535 0
6551 -6534 6535 0
6551 6534 -6535 0
-6552 6551 6536 0
-6552 -6551 -6536 0
6552 -6551 6536 0
6552 6551 -6536 0
-6553 6552 6537 0
-6553 -6552 -6537 0
6553 -6552 6537 0
6553 6552 -6537 0
-6554 6553 6538 0
-6554 -6553 -6538 0
6554 -6553 6538 0
6554 6553 -6538 0
-6555 6554 6539 0
-6555 -6554 -6539 0
6555 -6554 6539 0
6555 6554 -6539 0
-6556 6555 6540 0
-6556 -6555 -6540 0
6556 -6555 6540 0
6556 6555 -6540 0
-6557 6556 6541 0
-6557 -6556 -6541 0
6557 -6556 6541 0
6557 6556 -6541 0
-6558 6557 6542 0
-6558 -6557 -6542 0
6558 -6557 6542 0
6558 6557 -6542 0
-6559 6558 6543 0
-6559 -6558 -6543 0
6559 -6558 6543 0
6559 6558 -6543 0
-6560 6559 6544 0
-6560 -6559 -6544 0
6560 -6559 6544 0
6560 6559 -6544 0
-6561 6560 6545 0
-6561 -6560 -6545 0
6561 -6560 6545 0
6561 6560 -6545 0
-6562 6561 6546 0
-6562 -6561 -6546 0
6562 -6561 6546 0
6562 6561 -6546 0
-6563 6562 6547 0
-6563 -6562 -6547 0
6563 -6562 6547 0
6563 6562 -6547 0
-6564 6563 6548 0
-6564 -6563 -6548 0
6564 -6563 6548 0
6564 6563 -6548 0
-6565 6564 6549 0
-6565 -6564 -6549 0
6565 -6564 6549 0
6565 6564 -6549 0
-6566 6565 6550 0
-6566 -6565 -6550 0
6566 -6565 6550 0
6566 6565 -6550 0
-6566 0
-6567 5 0
-6567 20 0
6567 -5 -20 0
-6568 6567 0
-6568 33 0
6568 -6567 -33 0
-6569 6 0
-6569 23 0
6569 -6 -23 0
-6570 6569 0
-6570 33 0
6570 -6569 -33 0
-6571 10 0
-6571 22 0
6571 -10 -22 0
-6572 6571 0
-6572 33 0
6572 -6571 -33 0
-6573 18 0
-6573 13 0
6573 -18 -13 0
-6574 6573 0
-6574 33 0
6574 -6573 -33 0
-6575 53 0
-6575 68 0
6575 -53 -68 0
-6576 6575 0
-6576 81 0
6576 -6575 -81 0
-6577 54 0
-6577 71 0
6577 -54 -71 0
-6578 6577 0
-6578 81 0
6578 -6577 -81 0
-6579 58 0
-6579 70 0
6579 -58 -70 0
-6580 6579 0
-6580 81 0
6580 -6579 -81 0
-6581 66 0
-6581 61 0
6581 -66 -61 0
-6582 6581 0
-6582 81 0
6582 -6581 -81 0
-6583 101 0
-6583 116 0
6583 -101 -116 0
-6584 6583 0
-6584 129 0
6584 -6583 -129 0
-6585 102 0
-6585 119 0
6585 -102 -119 0
-6586 6585 0
-6586 129 0
6586 -6585 -129 0
-6587 106 0
-6587 118 0
6587 -106 -118 0
-6588 6587 0
-6588 129 0
6588 -6587 -129 0
-6589 149 0
-6589 164 0
6589 -149 -164 0
-6590 6589 0
-6590 177 0
6590 -6589 -177 0
-6591 162 0
-6591 157 0
6591 -162 -157 0
-6592 6591 0
-6592 177 0
6592 -6591 -177 0
-6593 6568 6570 0
-6593 -6568 -6570 0
6593 -6568 6570 0
6593 6568 -6570 0
-6594 6593 6572 0
-6594 -6593 -6572 0
6594 -6593 6572 0
6594 6593 -6572 0
-6595 6594 6574 0
-6595 -6594 -6574 0
6595 -6594 6574 0
6595 6594 -6574 0
-6596 6595 6572 0
-6596 -6595 -6572 0
6596 -6595 6572 0
6596 6595 -6572 0
-6597 6596 6570 0
-6597 -6596 -6570 0
6597 -6596 6570 0
6597 6596 -6570 0
-6598 6597 6576 0
-6598 -6597 -6576 0
6598 -6597 6576 0
6598 6597 -6576 0
-6599 6598 6578 0
-6599 -6598 -6578 0
6599 -6598 6578 0
6599 6598 -6578 0
-6600 6599 6580 0
-6600 -6599 -6580 0
6600 -6599 6580 0
6600 6599 -6580 0
-6601 6600 6582 0
-6601 -6600 -6582 0
6601 -6600 6582 0
6601 6600 -6582 0
-6602 6601 6580 0
-6602 -6601 -6580 0
6602 -6601 6580 0
6602 6601 -6580 0
-6603 6602 6578 0
-6603 -6602 -6578 0
6603 -6602 6578 0
6603 6602 -6578 0
-6604 6603 6584 0
-6604 -6603 -6584 0
6604 -6603 6584 0
6604 6603 -6584 0
-6605 6604 6586 0
-6605 -6604 -6586 0
6605 -6604 6586 0
6605 6604 -6586 0
-6606 6605 6588 0
-6606 -6605 -6588 0
6606 -6605 6588 0
6606 6605 -6588 0
-6607 6606 6590 0
-6607 -6606 -6590 0
6607 -6606 6590 0
6607 6606 -6590 0
-6608 6607 6592 0
-6608 -6607 -6592 0
6608 -6607 6592 0
6608 6607 -6592 0
-6608 0
-6609 6567 0
-6609 34 0
6609 -6567 -34 0
-6610 6569 0
-6610 34 0
6610 -6569 -34 0
-6611 6571 0
-6611 35 0
6611 -6571 -35 0
-6612 6573 0
-6612 37 0
6612 -6573 -37 0
-6613 6571 0
-6613 37 0
6613 -6571 -37 0
-6614 6569 0
-6614 41 0
6614 -6569 -41 0
-6615 6575 0
-6615 82 0
6615 -6575 -82 0
-6616 6577 0
-6616 82 0
6616 -6577 -82 0
-6617 6579 0
-6617 83 0
6617 -6579 -83 0
-6618 6581 0
-6618 85 0
6618 -6581 -85 0
-6619 6579 0
-6619 85 0
6619 -6579 -85 0
-6620 6577 0
-6620 89 0
6620 -6577 -89 0
-6621 6583 0
-6621 130 0
6621 -6583 -130 0
-6622 6585 0
-6622 130 0
6622 -6585 -130 0
-6623 6587 0
-6623 131 0
6623 -6587 -131 0
-6624 6589 0
-6624 178 0
6624 -6589 -178 0
-6625 6591 0
-6625 181 0
6625 -6591 -181 0
-6626 6609 6610 0
-6626 -6609 -6610 0
6626 -6609 6610 0
6626 6609 -6610 0
-6627 6626 6611 0
-6627 -6626 -6611 0
6627 -6626 6611 0
6627 6626 -6611 0
-6628 6627 6612 0
-6628 -6627 -6612 0
6628 -6627 6612 0
6628 6627 -6612 0
-6629 6628 6613 0
-6629 -6628 -6613 0
6629 -6628 6613 0
6629 6628 -6613 0
-6630 6629 6614 0
-6630 -6629 -6614 0
6630 -6629 6614 0
6630 6629 -6614 0
-6631 6630 6615 0
-6631 -6630 -6615 0
6631 -6630 6615 0
6631 6630 -6615 0
-6632 6631 6616 0
-6632 -6631 -6616 0
6632 -6631 6616 0
6632 6631 -6616 0
-6633 6632 6617 0
-6633 -6632 -6617 0
6633 -6632 6617 0
6633 6632 -6617 0
-6634 6633 6618 0
-6634 -6633 -6618 0
6634 -6633 6618 0
6634 6633 -6618 0
-6635 6634 6619 0
-6635 -6634 -6619 0
6635 -6634 6619 0
6635 6634 -6619 0
-6636 6635 6620 0
-6636 -6635 -6620 0
6636 -6635 6620 0
6636 6635 -6620 0
-6637 6636 6621 0
-6637 -6636 -6621 0
6637 -6636 6621 0
6637 6636 -6621 0
-6638 6637 6622 0
-6638 -6637 -6622 0
6638 -6637 6622 0
6638 6637 -6622 0
-6639 6638 6623 0
-6639 -6638 -6623 0
6639 -6638 6623 0
6639 6638 -6623 0
-6640 6639 6624 0
-6640 -6639 -6624 0
6640 -6639 6624 0
6640 6639 -6624 0
-6641 6640 6625 0
-6641 -6640 -6625 0
6641 -6640 6625 0
6641 6640 -6625 0
6641 0
-6642 6567 0
-6642 35 0
6642 -6567 -35 0
-6643 6569 0
-6643 36 0
6643 -6569 -36 0
-6644 6571 0
-6644 36 0
6644 -6571 -36 0
-6645 6573 0
-6645 41 0
6645 -6573 -41 0
-6646 6571 0
-6646 45 0
6646 -6571 -45 0
-6647 6569 0
-6647 45 0
6647 -6569 -45 0
-6648 6575 0
-6648 83 0
6648 -6575 -83 0
-6649 6577 0
-6649 84 0
6649 -6577 -84 0
-6650 6579 0
-6650 84 0
6650 -6579 -84 0
-6651 6581 0
-6651 89 0
6651 -6581 -89 0
-6652 6579 0
-6652 93 0
6652 -6579 -93 0
-6653 6577 0
-6653 93 0
6653 -6577 -93 0
-6654 6583 0
-6654 131 0
6654 -6583 -131 0
-6655 6585 0
-6655 132 0
6655 -6585 -132 0
-6656 6587 0
-6656 132 0
6656 -6587 -132 0
-6657 6589 0
-6657 179 0
6657 -6589 -179 0
-6658 6591 0
-6658 185 0
6658 -6591 -185 0
-6659 6642 6643 0
-6659 -6642 -6643 0
6659 -6642 6643 0
6659 6642 -6643 0
-6660 6659 6644 0
-6660 -6659 -6644 0
6660 -6659 6644 0
6660 6659 -6644 0
-6661 6660 6645 0
-6661 -6660 -6645 0
6661 -6660 6645 0
6661 6660 -6645 0
-6662 6661 6646 0
-6662 -6661 -6646 0
6662 -6661 6646 0
6662 6661 -6646 0
-6663 6662 6647 0
-6663 -6662 -6647 0
6663 -6662 6647 0
6663 6662 -6647 0
-6664 6663 6648 0
-6664 -6663 -6648 0
6664 -6663 6648 0
6664 6663 -6648 0
-6665 6664 6649 0
-6665 -6664 -6649 0
6665 -6664 6649 0
6665 6664 -6649 0
-6666 6665 6650 0
-6666 -6665 -6650 0
6666 -6665 6650 0
6666 6665 -6650 0
-6667 6666 6651 0
-6667 -6666 -6651 0
6667 -6666 6651 0
6667 6666 -6651 0
-6668 6667 6652 0
-6668 -6667 -6652 0
6668 -6667 6652 0
6668 6667 -6652 0
-6669 6668 6653 0
-6669 -6668 -6653 0
6669 -6668 6653 0
6669 6668 -6653 0
-6670 6669 6654 0
-6670 -6669 -6654 0
6670 -6669 6654 0
6670 6669 -6654 0
-6671 6670 6655 0
-6671 -6670 -6655 0
6671 -6670 6655 0
6671 6670 -6655 0
-6672 6671 6656 0
-6672 -6671 -6656 0
6672 -6671 6656 0
6672 6671 -6656 0
-6673 6672 6657 0
-6673 -6672 -6657 0
6673 -6672 6657 0
6673 6672 -6657 0
-6674 6673 6658 0
-6674 -6673 -6658 0
6674 -6673 6658 0
6674 6673 -6658 0
-6674 0
-6675 6567 0
-6675 36 0
6675 -6567 -36 0
-6676 6569 0
-6676 35 0
6676 -6569 -35 0
-6677 6571 0
-6677 34 0
6677 -6571 -34 0
-6678 6573 0
-6678 45 0
6678 -6573 -45 0
-6679 6571 0
-6679 41 0
6679 -6571 -41 0
-6680 6569 0
-6680 37 0
6680 -6569 -37 0
-6681 6575 0
-6681 84 0
6681 -6575 -84 0
-6682 6577 0
-6682 83 0
6682 -6577 -83 0
-6683 6579 0
-6683 82 0
6683 -6579 -82 0
-6684 6581 0
-6684 93 0
6684 -6581 -93 0
-6685 6579 0
-6685 89 0
6685 -6579 -89 0
-6686 6577 0
-6686 85 0
6686 -6577 -85 0
-6687 6583 0
-6687 132 0
6687 -6583 -132 0
-6688 6585 0
-6688 131 0
6688 -6585 -131 0
-6689 6587 0
-6689 130 0
6689 -6587 -130 0
-6690 6589 0
-6690 180 0
6690 -6589 -180 0
-6691 6591 0
-6691 189 0
6691 -6591 -189 0
-6692 6675 6676 0
-6692 -6675 -6676 0
6692 -6675 6676 0
6692 6675 -6676 0
-6693 6692 6677 0
-6693 -6692 -6677 0
6693 -6692 6677 0
6693 6692 -6677 0
-6694 6693 6678 0
-6694 -6693 -6678 0
6694 -6693 6678 0
6694 6693 -6678 0
-6695 6694 6679 0
-6695 -6694 -6679 0
6695 -6694 6679 0
6695 6694 -6679 0
-6696 6695 6680 0
-6696 -6695 -6680 0
6696 -6695 6680 0
6696 6695 -6680 0
-6697 6696 6681 0
-6697 -6696 -6681 0
6697 -6696 6681 0
6697 6696 -6681 0
-6698 6697 6682 0
-6698 -6697 -6682 0
6698 -6697 6682 0
6698 6697 -6682 0
-6699 6698 6683 0
-6699 -6698 -6683 0
6699 -6698 6683 0
6699 6698 -6683 0
-6700 6699 6684 0
-6700 -6699 -6684 0
6700 -6699 6684 0
6700 6699 -6684 0
-6701 6700 6685 0
-6701 -6700 -6685 0
6701 -6700 6685 0
6701 6700 -6685 0
-6702 6701 6686 0
-6702 -6701 -6686 0
6702 -6701 6686 0
6702 6701 -6686 0
-6703 6702 6687 0
-6703 -6702 -6687 0
6703 -6702 6687 0
6703 6702 -6687 0
-6704 6703 6688 0
-6704 -6703 -6688 0
6704 -6703 6688 0
6704 6703 -6688 0
-6705 6704 6689 0
-6705 -6704 -6689 0
6705 -6704 6689 0
6705 6704 -6689 0
-6706 6705 6690 0
-6706 -6705 -6690 0
6706 -6705 6690 0
6706 6705 -6690 0
-6707 6706 6691 0
-6707 -6706 -6691 0
6707 -6706 6691 0
6707 6706 -6691 0
-6707 0
-6708 6567 0
-6708 38 0
6708 -6567 -38 0
-6709 6569 0
-6709 38 0
6709 -6569 -38 0
-6710 6571 0
-6710 43 0
6710 -6571 -43 0
-6711 6573 0
-6711 38 0
6711 -6573 -38 0
-6712 6571 0
-6712 38 0
6712 -6571 -38 0
-6713 6569 0
-6713 43 0
6713 -6569 -43 0
-6714 6575 0
-6714 86 0
6714 -6575 -86 0
-6715 6577 0
-6715 86 0
6715 -6577 -86 0
-6716 6579 0
-6716 91 0
6716 -6579 -91 0
-6717 6581 0
-6717 86 0
6717 -6581 -86 0
-6718 6579 0
-6718 86 0
6718 -6579 -86 0
-6719 6577 0
-6719 91 0
6719 -6577 -91 0
-6720 6583 0
-6720 134 0
6720 -6583 -134 0
-6721 6585 0
-6721 134 0
6721 -6585 -134 0
-6722 6587 0
-6722 139 0
6722 -6587 -139 0
-6723 6589 0
-6723 182 0
6723 -6589 -182 0
-6724 6591 0
-6724 182 0
6724 -6591 -182 0
-6725 6708 6709 0
-6725 -6708 -6709 0
6725 -6708 6709 0
6725 6708 -6709 0
-6726 6725 6710 0
-6726 -6725 -6710 0
6726 -6725 6710 0
6726 6725 -6710 0
-6727 6726 6711 0
-6727 -6726 -6711 0
6727 -6726 6711 0
6727 6726 -6711 0
-6728 6727 6712 0
-6728 -6727 -6712 0
6728 -6727 6712 0
6728 6727 -6712 0
-6729 6728 6713 0
-6729 -6728 -6713 0
6729 -6728 6713 0
6729 6728 -6713 0
-6730 6729 6714 0
-6730 -6729 -6714 0
6730 -6729 6714 0
6730 6729 -6714 0
-6731 6730 6715 0
-6731 -6730 -6715 0
6731 -6730 6715 0
6731 6730 -6715 0
-6732 6731 6716 0
-6732 -6731 -6716 0
6732 -6731 6716 0
6732 6731 -6716 0
-6733 6732 6717 0
-6733 -6732 -6717 0
6733 -6732 6717 0
6733 6732 -6717 0
-6734 6733 6718 0
-6734 -6733 -6718 0
6734 -6733 6718 0
6734 6733 -6718 0
-6735 6734 6719 0
-6735 -6734 -6719 0
6735 -6734 6719 0
6735 6734 -6719 0
-6736 6735 6720 0
-6736 -6735 -6720 0
6736 -6735 6720 0
6736 6735 -6720 0
-6737 6736 6721 0
-6737 -6736 -6721 0
6737 -6736 6721 0
6737 6736 -6721 0
-6738 6737 6722 0
-6738 -6737 -6722 0
6738 -6737 6722 0
6738 6737 -6722 0
-6739 6738 6723 0
-6739 -6738 -6723 0
6739 -6738 6723 0
6739 6738 -6723 0
-6740 6739 6724 0
-6740 -6739 -6724 0
6740 -6739 6724 0
6740 6739 -6724 0
-6740 0
-6741 6567 0
-6741 39 0
6741 -6567 -39 0
-6742 6569 0
-6742 40 0
6742 -6569 -40 0
-6743 6571 0
-6743 44 0
6743 -6571 -44 0
-6744 6573 0
-6744 42 0
6744 -6573 -42 0
-6745 6571 0
-6745 46 0
6745 -6571 -46 0
-6746 6569 0
-6746 47 0
6746 -6569 -47 0
-6747 6575 0
-6747 87 0
6747 -6575 -87 0
-6748 6577 0
-6748 88 0
6748 -6577 -88 0
-6749 6579 0
-6749 92 0
6749 -6579 -92 0
-6750 6581 0
-6750 90 0
6750 -6581 -90 0
-6751 6579 0
-6751 94 0
6751 -6579 -94 0
-6752 6577 0
-6752 95 0
6752 -6577 -95 0
-6753 6583 0
-6753 135 0
6753 -6583 -135 0
-6754 6585 0
-6754 136 0
6754 -6585 -136 0
-6755 6587 0
-6755 140 0
6755 -6587 -140 0
-6756 6589 0
-6756 183 0
6756 -6589 -183 0
-6757 6591 0
-6757 186 0
6757 -6591 -186 0
-6758 6741 6742 0
-6758 -6741 -6742 0
6758 -6741 6742 0
6758 6741 -6742 0
-6759 6758 6743 0
-6759 -6758 -6743 0
6759 -6758 6743 0
6759 6758 -6743 0
-6760 6759 6744 0
-6760 -6759 -6744 0
6760 -6759 6744 0
6760 6759 -6744 0
-6761 6760 6745 0
-6761 -6760 -6745 0
6761 -6760 6745 0
6761 6760 -6745 0
-6762 6761 6746 0
-6762 -6761 -6746 0
6762 -6761 6746 0
6762 6761 -6746 0
-6763 6762 6747 0
-6763 -6762 -6747 0
6763 -6762 6747 0
6763 6762 -6747 0
-6764 6763 6748 0
-6764 -6763 -6748 0
6764 -6763 6748 0
6764 6763 -6748 0
-6765 6764 6749 0
-6765 -6764 -6749 0
6765 -6764 6749 0
6765 6764 -6749 0
-6766 6765 6750 0
-6766 -6765 -6750 0
6766 -6765 6750 0
6766 6765 -6750 0
-6767 6766 6751 0
-6767 -6766 -6751 0
6767 -6766 6751 0
6767 6766 -6751 0
-6768 6767 6752 0
-6768 -6767 -6752 0
6768 -6767 6752 0
6768 6767 -6752 0
-6769 6768 6753 0
-6769 -6768 -6753 0
6769 -6768 6753 0
6769 6768 -6753 0
-6770 6769 6754 0
-6770 -6769 -6754 0
6770 -6769 6754 0
6770 6769 -6754 0
-6771 6770 6755 0
-6771 -6770 -6755 0
6771 -6770 6755 0
6771 6770 -6755 0
-6772 6771 6756 0
-6772 -6771 -6756 0
6772 -6771 6756 0
6772 6771 -6756 0
-6773 6772 6757 0
-6773 -6772 -6757 0
6773 -6772 6757 0
6773 6772 -6757 0
-6773 0
-6774 6567 0
-6774 40 0
6774 -6567 -40 0
-6775 6569 0
-6775 39 0
6775 -6569 -39 0
-6776 6571 0
-6776 42 0
6776 -6571 -42 0
-6777 6573 0
-6777 46 0
6777 -6573 -46 0
-6778 6575 0
-6778 88 0
6778 -6575 -88 0
-6779 6577 0
-6779 87 0
6779 -6577 -87 0
-6780 6579 0
-6780 90 0
6780 -6579 -90 0
-6781 6581 0
-6781 94 0
6781 -6581 -94 0
-6782 6583 0
-6782 136 0
6782 -6583 -136 0
-6783 6585 0
-6783 135 0
6783 -6585 -135 0
-6784 6587 0
-6784 138 0
6784 -6587 -138 0
-6785 6589 0
-6785 184 0
6785 -6589 -184 0
-6786 6591 0
-6786 190 0
6786 -6591 -190 0
-6787 6774 6775 0
-6787 -6774 -6775 0
6787 -6774 6775 0
6787 6774 -6775 0
-6788 6787 6776 0
-6788 -6787 -6776 0
6788 -6787 6776 0
6788 6787 -6776 0
-6789 6788 6777 0
-6789 -6788 -6777 0
6789 -6788 6777 0
6789 6788 -6777 0
-6790 6789 6776 0
-6790 -6789 -6776 0
6790 -6789 6776 0
6790 6789 -6776 0
-6791 6790 6775 0
-6791 -6790 -6775 0
6791 -6790 6775 0
6791 6790 -6775 0
-6792 6791 6778 0
-6792 -6791 -6778 0
6792 -6791 6778 0
6792 6791 -6778 0
-6793 6792 6779 0
-6793 -6792 -6779 0
6793 -6792 6779 0
6793 6792 -6779 0
-6794 6793 6780 0
-6794 -6793 -6780 0
6794 -6793 6780 0
6794 6793 -6780 0
-6795 6794 6781 0
-6795 -6794 -6781 0
6795 -6794 6781 0
6795 6794 -6781 0
-6796 6795 6780 0
-6796 -6795 -6780 0
6796 -6795 6780 0
6796 6795 -6780 0
-6797 6796 6779 0
-6797 -6796 -6779 0
6797 -6796 6779 0
6797 6796 -6779 0
-6798 6797 6782 0
-6798 -6797 -6782 0
6798 -6797 6782 0
6798 6797 -6782 0
-6799 6798 6783 0
-6799 -6798 -6783 0
6799 -6798 6783 0
6799 6798 -6783 0
-6800 6799 6784 0
-6800 -6799 -6784 0
6800 -6799 6784 0
6800 6799 -6784 0
-6801 6800 6785 0
-6801 -6800 -6785 0
6801 -6800 6785 0
6801 6800 -6785 0
-6802 6801 6786 0
-6802 -6801 -6786 0
6802 -6801 6786 0
6802 6801 -6786 0
-6802 0
-6803 6567 0
-6803 42 0
6803 -6567 -42 0
-6804 6569 0
-6804 46 0
6804 -6569 -46 0
-6805 6571 0
-6805 47 0
6805 -6571 -47 0
-6806 6573 0
-6806 39 0
6806 -6573 -39 0
-6807 6571 0
-6807 40 0
6807 -6571 -40 0
-6808 6569 0
-6808 44 0
6808 -6569 -44 0
-6809 6575 0
-6809 90 0
6809 -6575 -90 0
-6810 6577 0
-6810 94 0
6810 -6577 -94 0
-6811 6579 0
-6811 95 0
6811 -6579 -95 0
-6812 6581 0
-6812 87 0
6812 -6581 -87 0
-6813 6579 0
-6813 88 0
6813 -6579 -88 0
-6814 6577 0
-6814 92 0
6814 -6577 -92 0
-6815 6583 0
-6815 138 0
6815 -6583 -138 0
-6816 6585 0
-6816 142 0
6816 -6585 -142 0
-6817 6587 0
-6817 143 0
6817 -6587 -143 0
-6818 6589 0
-6818 186 0
6818 -6589 -186 0
-6819 6591 0
-6819 183 0
6819 -6591 -183 0
-6820 6803 6804 0
-6820 -6803 -6804 0
6820 -6803 6804 0
6820 6803 -6804 0
-6821 6820 6805 0
-6821 -6820 -6805 0
6821 -6820 6805 0
6821 6820 -6805 0
-6822 6821 6806 0
-6822 -6821 -6806 0
6822 -6821 6806 0
6822 6821 -6806 0
-6823 6822 6807 0
-6823 -6822 -6807 0
6823 -6822 6807 0
6823 6822 -6807 0
-6824 6823 6808 0
-6824 -6823 -6808 0
6824 -6823 6808 0
6824 6823 -6808 0
-6825 6824 6809 0
-6825 -6824 -6809 0
6825 -6824 6809 0
6825 6824 -6809 0
-6826 6825 6810 0
-6826 -6825 -6810 0
6826 -6825 6810 0
6826 6825 -6810 0
-6827 6826 6811 0
-6827 -6826 -6811 0
6827 -6826 6811 0
6827 6826 -6811 0
-6828 6827 6812 0
-6828 -6827 -6812 0
6828 -6827 6812 0
6828 6827 -6812 0
-6829 6828 6813 0
-6829 -6828 -6813 0
6829 -6828 6813 0
6829 6828 -6813 0
-6830 6829 6814 0
-6830 -6829 -6814 0
6830 -6829 6814 0
6830 6829 -6814 0
-6831 6830 6815 0
-6831 -6830 -6815 0
6831 -6830 6815 0
6831 6830 -6815 0
-6832 6831 6816 0
-6832 -6831 -6816 0
6832 -6831 6816 0
6832 6831 -6816 0
-6833 6832 6817 0
-6833 -6832 -6817 0
6833 -6832 6817 0
6833 6832 -6817 0
-6834 6833 6818 0
-6834 -6833 -6818 0
6834 -6833 6818 0
6834 6833 -6818 0
-6835 6834 6819 0
-6835 -6834 -6819 0
6835 -6834 6819 0
6835 6834 -6819 0
6835 0
-6836 6567 0
-6836 43 0
6836 -6567 -43 0
-6837 6569 0
-6837 48 0
6837 -6569 -48 0
-6838 6571 0
-6838 48 0
6838 -6571 -48 0
-6839 6573 0
-6839 43 0
6839 -6573 -43 0
-6840 6575 0
-6840 91 0
6840 -6575 -91 0
-6841 6577 0
-6841 96 0
6841 -6577 -96 0
-6842 6579 0
-6842 96 0
6842 -6579 -96 0
-6843 6581 0
-6843 91 0
6843 -6581 -91 0
-6844 6583 0
-6844 139 0
6844 -6583 -139 0
-6845 6585 0
-6845 144 0
6845 -6585 -144 0
-6846 6587 0
-6846 144 0
6846 -6587 -144 0
-6847 6589 0
-6847 187 0
6847 -6589 -187 0
-6848 6591 0
-6848 187 0
6848 -6591 -187 0
-6849 6836 6837 0
-6849 -6836 -6837 0
6849 -6836 6837 0
6849 6836 -6837 0
-6850 6849 6838 0
-6850 -6849 -6838 0
6850 -6849 6838 0
6850 6849 -6838 0
-6851 6850 6839 0
-6851 -6850 -6839 0
6851 -6850 6839 0
6851 6850 -6839 0
-6852 6851 6838 0
-6852 -6851 -6838 0
6852 -6851 6838 0
6852 6851 -6838 0
-6853 6852 6837 0
-6853 -6852 -6837 0
6853 -6852 6837 0
6853 6852 -6837 0
-6854 6853 6840 0
-6854 -6853 -6840 0
6854 -6853 6840 0
6854 6853 -6840 0
-6855 6854 6841 0
-6855 -6854 -6841 0
6855 -6854 6841 0
6855 6854 -6841 0
-6856 6855 6842 0
-6856 -6855 -6842 0
6856 -6855 6842 0
6856 6855 -6842 0
-6857 6856 6843 0
-6857 -6856 -6843 0
6857 -6856 6843 0
6857 6856 -6843 0
-6858 6857 6842 0
-6858 -6857 -6842 0
6858 -6857 6842 0
6858 6857 -6842 0
-6859 6858 6841 0
-6859 -6858 -6841 0
6859 -6858 6841 0
6859 6858 -6841 0
-6860 6859 6844 0
-6860 -6859 -6844 0
6860 -6859 6844 0
6860 6859 -6844 0
-6861 6860 6845 0
-6861 -6860 -6845 0
6861 -6860 6845 0
6861 6860 -6845 0
-6862 6861 6846 0
-6862 -6861 -6846 0
6862 -6861 6846 0
6862 6861 -6846 0
-6863 6862 6847 0
-6863 -6862 -6847 0
6863 -6862 6847 0
6863 6862 -6847 0
-6864 6863 6848 0
-6864 -6863 -6848 0
6864 -6863 6848 0
6864 6863 -6848 0
-6864 0
-6865 6567 0
-6865 46 0
6865 -6567 -46 0
-6866 6569 0
-6866 42 0
6866 -6569 -42 0
-6867 6571 0
-6867 39 0
6867 -6571 -39 0
-6868 6573 0
-6868 40 0
6868 -6573 -40 0
-6869 6575 0
-6869 94 0
6869 -6575 -94 0
-6870 6577 0
-6870 90 0
6870 -6577 -90 0
-6871 6579 0
-6871 87 0
6871 -6579 -87 0
-6872 6581 0
-6872 88 0
6872 -6581 -88 0
-6873 6583 0
-6873 142 0
6873 -6583 -142 0
-6874 6585 0
-6874 138 0
6874 -6585 -138 0
-6875 6587 0
-6875 135 0
6875 -6587 -135 0
-6876 6589 0
-6876 190 0
6876 -6589 -190 0
-6877 6591 0
-6877 184 0
6877 -6591 -184 0
-6878 6865 6866 0
-6878 -6865 -6866 0
6878 -6865 6866 0
6878 6865 -6866 0
-6879 6878 6867 0
-6879 -6878 -6867 0
6879 -6878 6867 0
6879 6878 -6867 0
-6880 6879 6868 0
-6880 -6879 -6868 0
6880 -6879 6868 0
6880 6879 -6868 0
-6881 6880 6867 0
-6881 -6880 -6867 0
6881 -6880 6867 0
6881 6880 -6867 0
-6882 6881 6866 0
-6882 -6881 -6866 0
6882 -6881 6866 0
6882 6881 -6866 0
-6883 6882 6869 0
-6883 -6882 -6869 0
6883 -6882 6869 0
6883 6882 -6869 0
-6884 6883 6870 0
-6884 -6883 -6870 0
6884 -6883 6870 0
6884 6883 -6870 0
-6885 6884 6871 0
-6885 -6884 -6871 0
6885 -6884 6871 0
6885 6884 -6871 0
-6886 6885 6872 0
-6886 -6885 -6872 0
6886 -6885 6872 0
6886 6885 -6872 0
-6887 6886 6871 0
-6887 -6886 -6871 0
6887 -6886 6871 0
6887 6886 -6871 0
-6888 6887 6870 0
-6888 -6887 -6870 0
6888 -6887 6870 0
6888 6887 -6870 0
-6889 6888 6873 0
-6889 -6888 -6873 0
6889 -6888 6873 0
6889 6888 -6873 0
-6890 6889 6874 0
-6890 -6889 -6874 0
6890 -6889 6874 0
6890 6889 -6874 0
-6891 6890 6875 0
-6891 -6890 -6875 0
6891 -6890 6875 0
6891 6890 -6875 0
-6892 6891 6876 0
-6892 -6891 -6876 0
6892 -6891 6876 0
6892 6891 -6876 0
-6893 6892 6877 0
-6893 -6892 -6877 0
6893 -6892 6877 0
6893 6892 -6877 0
-6893 0
-6894 5 0
-6894 22 0
6894 -5 -22 0
-6895 6894 0
-6895 33 0
6895 -6894 -33 0
-6896 6 0
-6896 18 0
6896 -6 -18 0
-6897 6896 0
-6897 33 0
6897 -6896 -33 0
-6898 10 0
-6898 27 0
6898 -10 -27 0
-6899 6898 0
-6899 33 0
6899 -6898 -33 0
-6900 23 0
-6900 11 0
6900 -23 -11 0
-6901 6900 0
-6901 33 0
6901 -6900 -33 0
-6902 53 0
-6902 70 0
6902 -53 -70 0
-6903 6902 0
-6903 81 0
6903 -6902 -81 0
-6904 54 0
-6904 66 0
6904 -54 -66 0
-6905 6904 0
-6905 81 0
6905 -6904 -81 0
-6906 58 0
-6906 75 0
6906 -58 -75 0
-6907 6906 0
-6907 81 0
6907 -6906 -81 0
-6908 71 0
-6908 59 0
6908 -71 -59 0
-6909 6908 0
-6909 81 0
6909 -6908 -81 0
-6910 101 0
-6910 118 0
6910 -101 -118 0
-6911 6910 0
-6911 129 0
6911 -6910 -129 0
-6912 102 0
-6912 114 0
6912 -102 -114 0
-6913 6912 0
-6913 129 0
6913 -6912 -129 0
-6914 106 0
-6914 123 0
6914 -106 -123 0
-6915 6914 0
-6915 129 0
6915 -6914 -129 0
-6916 149 0
-6916 166 0
6916 -149 -166 0
-6917 6916 0
-6917 177 0
6917 -6916 -177 0
-6918 162 0
-6918 150 0
6918 -162 -150 0
-6919 6918 0
-6919 177 0
6919 -6918 -177 0
-6920 6895 6897 0
-6920 -6895 -6897 0
6920 -6895 6897 0
6920 6895 -6897 0
-6921 6920 6899 0
-6921 -6920 -6899 0
6921 -6920 6899 0
6921 6920 -6899 0
-6922 6921 6897 0
-6922 -6921 -6897 0
6922 -6921 6897 0
6922 6921 -6897 0
-6923 6922 6895 0
-6923 -6922 -6895 0
6923 -6922 6895 0
6923 6922 -6895 0
-6924 6923 6901 0
-6924 -6923 -6901 0
6924 -6923 6901 0
6924 6923 -6901 0
-6925 6924 6903 0
-6925 -6924 -6903 0
6925 -6924 6903 0
6925 6924 -6903 0
-6926 6925 6905 0
-6926 -6925 -6905 0
6926 -6925 6905 0
6926 6925 -6905 0
-6927 6926 6907 0
-6927 -6926 -6907 0
6927 -6926 6907 0
6927 6926 -6907 0
-6928 6927 6905 0
-6928 -6927 -6905 0
6928 -6927 6905 0
6928 6927 -6905 0
-6929 6928 6903 0
-6929 -6928 -6903 0
6929 -6928 6903 0
6929 6928 -6903 0
-6930 6929 6909 0
-6930 -6929 -6909 0
6930 -6929 6909 0
6930 6929 -6909 0
-6931 6930 6911 0
-6931 -6930 -6911 0
6931 -6930 6911 0
6931 6930 -6911 0
-6932 6931 6913 0
-6932 -6931 -6913 0
6932 -6931 6913 0
6932 6931 -6913 0
-6933 6932 6915 0
-6933 -6932 -6915 0
6933 -6932 6915 0
6933 6932 -6915 0
-6934 6933 6917 0
-6934 -6933 -6917 0
6934 -6933 6917 0
6934 6933 -6917 0
-6935 6934 6919 0
-6935 -6934 -6919 0
6935 -6934 6919 0
6935 6934 -6919 0
-6935 0
-6936 6894 0
-6936 34 0
6936 -6894 -34 0
-6937 6896 0
-6937 34 0
6937 -6896 -34 0
-6938 6898 0
-6938 35 0
6938 -6898 -35 0
-6939 6896 0
-6939 37 0
6939 -6896 -37 0
-6940 6894 0
-6940 37 0
6940 -6894 -37 0
-6941 6900 0
-6941 41 0
6941 -6900 -41 0
-6942 6902 0
-6942 82 0
6942 -6902 -82 0
-6943 6904 0
-6943 82 0
6943 -6904 -82 0
-6944 6906 0
-6944 83 0
6944 -6906 -83 0
-6945 6904 0
-6945 85 0
6945 -6904 -85 0
-6946 6902 0
-6946 85 0
6946 -6902 -85 0
-6947 6908 0
-6947 89 0
6947 -6908 -89 0
-6948 6910 0
-6948 130 0
6948 -6910 -130 0
-6949 6912 0
-6949 130 0
6949 -6912 -130 0
-6950 6914 0
-6950 131 0
6950 -6914 -131 0
-6951 6916 0
-6951 178 0
6951 -6916 -178 0
-6952 6918 0
-6952 181 0
6952 -6918 -181 0
-6953 6936 6937 0
-6953 -6936 -6937 0
6953 -6936 6937 0
6953 6936 -6937 0
-6954 6953 6938 0
-6954 -6953 -6938 0
6954 -6953 6938 0
6954 6953 -6938 0
-6955 6954 6939 0
-6955 -6954 -6939 0
6955 -6954 6939 0
6955 6954 -6939 0
-6956 6955 6940 0
-6956 -6955 -6940 0
6956 -6955 6940 0
6956 6955 -6940 0
-6957 6956 6941 0
-6957 -6956 -6941 0
6957 -6956 6941 0
6957 6956 -6941 0
-6958 6957 6942 0
-6958 -6957 -6942 0
6958 -6957 6942 0
6958 6957 -6942 0
-6959 6958 6943 0
-6959 -6958 -6943 0
6959 -6958 6943 0
6959 6958 -6943 0
-6960 6959 6944 0
-6960 -6959 -6944 0
6960 -6959 6944 0
6960 6959 -6944 0
-6961 6960 6945 0
-6961 -6960 -6945 0
6961 -6960 6945 0
6961 6960 -6945 0
-6962 6961 6946 0
-6962 -6961 -6946 0
6962 -6961 6946 0
6962 6961 -6946 0
-6963 6962 6947 0
-6963 -6962 -6947 0
6963 -6962 6947 0
6963 6962 -6947 0
-6964 6963 6948 0
-6964 -6963 -6948 0
6964 -6963 6948 0
6964 6963 -6948 0
-6965 6964 6949 0
-6965 -6964 -6949 0
6965 -6964 6949 0
6965 6964 -6949 0
-6966 6965 6950 0
-6966 -6965 -6950 0
6966 -6965 6950 0
6966 6965 -6950 0
-6967 6966 6951 0
-6967 -6966 -6951 0
6967 -6966 6951 0
6967 6966 -6951 0
-6968 6967 6952 0
-6968 -6967 -6952 0
6968 -6967 6952 0
6968 6967 -6952 0
-6968 0
-6969 6894 0
-6969 35 0
6969 -6894 -35 0
-6970 6896 0
-6970 36 0
6970 -6896 -36 0
-6971 6898 0
-6971 36 0
6971 -6898 -36 0
-6972 6896 0
-6972 41 0
6972 -6896 -41 0
-6973 6894 0
-6973 45 0
6973 -6894 -45 0
-6974 6900 0
-6974 45 0
6974 -6900 -45 0
-6975 6902 0
-6975 83 0
6975 -6902 -83 0
-6976 6904 0
-6976 84 0
6976 -6904 -84 0
-6977 6906 0
-6977 84 0
6977 -6906 -84 0
-6978 6904 0
-6978 89 0
6978 -6904 -89 0
-6979 6902 0
-6979 93 0
6979 -6902 -93 0
-6980 6908 0
-6980 93 0
6980 -6908 -93 0
-6981 6910 0
-6981 131 0
6981 -6910 -131 0
-6982 6912 0
-6982 132 0
6982 -6912 -132 0
-6983 6914 0
-6983 132 0
6983 -6914 -132 0
-6984 6916 0
-6984 179 0
6984 -6916 -179 0
-6985 6918 0
-6985 185 0
6985 -6918 -185 0
-6986 6969 6970 0
-6986 -6969 -6970 0
6986 -6969 6970 0
6986 6969 -6970 0
-6987 6986 6971 0
-6987 -6986 -6971 0
6987 -6986 6971 0
6987 6986 -6971 0
-6988 6987 6972 0
-6988 -6987 -6972 0
6988 -6987 6972 0
6988 6987 -6972 0
-6989 6988 6973 0
-6989 -6988 -6973 0
6989 -6988 6973 0
6989 6988 -6973 0
-6990 6989 6974 0
-6990 -6989 -6974 0
6990 -6989 6974 0
6990 6989 -6974 0
-6991 6990 6975 0
-6991 -6990 -6975 0
6991 -6990 6975 0
6991 6990 -6975 0
-6992 6991 6976 0
-6992 -6991 -6976 0
6992 -6991 6976 0
6992 6991 -6976 0
-6993 6992 6977 0
-6993 -6992 -6977 0
6993 -6992 6977 0
6993 6992 -6977 0
-6994 6993 6978 0
-6994 -6993 -6978 0
6994 -6993 6978 0
6994 6993 -6978 0
-6995 6994 6979 0
-6995 -6994 -6979 0
6995 -6994 6979 0
6995 6994 -6979 0
-6996 6995 6980 0
-6996 -6995 -6980 0
6996 -6995 6980 0
6996 6995 -6980 0
-6997 6996 6981 0
-6997 -6996 -6981 0
6997 -6996 6981 0
6997 6996 -6981 0
-6998 6997 6982 0
-6998 -6997 -6982 0
6998 -6997 6982 0
6998 6997 -6982 0
-6999 6998 6983 0
-6999 -6998 -6983 0
6999 -6998 6983 0
6999 6998 -6983 0
-7000 6999 6984 0
-7000 -6999 -6984 0
7000 -6999 6984 0
7000 6999 -6984 0
-7001 7000 6985 0
-7001 -7000 -6985 0
7001 -7000 6985 0
7001 7000 -6985 0
-7001 0
-7002 6894 0
-7002 36 0
7002 -6894 -36 0
-7003 6896 0
-7003 35 0
7003 -6896 -35 0
-7004 6898 0
-7004 34 0
7004 -6898 -34 0
-7005 6896 0
-7005 45 0
7005 -6896 -45 0
-7006 6894 0
-7006 41 0
7006 -6894 -41 0
-7007 6900 0
-7007 37 0
7007 -6900 -37 0
-7008 6902 0
-7008 84 0
7008 -6902 -84 0
-7009 6904 0
-7009 83 0
7009 -6904 -83 0
-7010 6906 0
-7010 82 0
7010 -6906 -82 0
-7011 6904 0
-7011 93 0
7011 -6904 -93 0
-7012 6902 0
-7012 89 0
7012 -6902 -89 0
-7013 6908 0
-7013 85 0
7013 -6908 -85 0
-7014 6910 0
-7014 132 0
7014 -6910 -132 0
-7015 6912 0
-7015 131 0
7015 -6912 -131 0
-7016 6914 0
-7016 130 0
7016 -6914 -130 0
-7017 6916 0
-7017 180 0
7017 -6916 -180 0
-7018 6918 0
-7018 189 0
7018 -6918 -189 0
-7019 7002 7003 0
-7019 -7002 -7003 0
7019 -7002 7003 0
7019 7002 -7003 0
-7020 7019 7004 0
-7020 -7019 -7004 0
7020 -7019 7004 0
7020 7019 -7004 0
-7021 7020 7005 0
-7021 -7020 -7005 0
7021 -7020 7005 0
7021 7020 -7005 0
-7022 7021 7006 0
-7022 -7021 -7006 0
7022 -7021 7006 0
7022 7021 -7006 0
-7023 7022 7007 0
-7023 -7022 -7007 0
7023 -7022 7007 0
7023 7022 -7007 0
-7024 7023 7008 0
-7024 -7023 -7008 0
7024 -7023 7008 0
7024 7023 -7008 0
-7025 7024 7009 0
-7025 -7024 -7009 0
7025 -7024 7009 0
7025 7024 -7009 0
-7026 7025 7010 0
-7026 -7025 -7010 0
7026 -7025 7010 0
7026 7025 -7010 0
-7027 7026 7011 0
-7027 -7026 -7011 0
7027 -7026 7011 0
7027 7026 -7011 0
-7028 7027 7012 0
-7028 -7027 -7012 0
7028 -7027 7012 0
7028 7027 -7012 0
-7029 7028 7013 0
-7029 -7028 -7013 0
7029 -7028 7013 0
7029 7028 -7013 0
-7030 7029 7014 0
-7030 -7029 -7014 0
7030 -7029 7014 0
7030 7029 -7014 0
-7031 7030 7015 0
-7031 -7030 -7015 0
7031 -7030 7015 0
7031 7030 -7015 0
-7032 7031 7016 0
-7032 -7031 -7016 0
7032 -7031 7016 0
7032 7031 -7016 0
-7033 7032 7017 0
-7033 -7032 -7017 0
7033 -7032 7017 0
7033 7032 -7017 0
-7034 7033 7018 0
-7034 -7033 -7018 0
7034 -7033 7018 0
7034 7033 -7018 0
-7034 0
-7035 6894 0
-7035 38 0
7035 -6894 -38 0
-7036 6896 0
-7036 38 0
7036 -6896 -38 0
-7037 6898 0
-7037 43 0
7037 -6898 -43 0
-7038 6900 0
-7038 43 0
7038 -6900 -43 0
-7039 6902 0
-7039 86 0
7039 -6902 -86 0
-7040 6904 0
-7040 86 0
7040 -6904 -86 0
-7041 6906 0
-7041 91 0
7041 -6906 -91 0
-7042 6908 0
-7042 91 0
7042 -6908 -91 0
-7043 6910 0
-7043 134 0
7043 -6910 -134 0
-7044 6912 0
-7044 134 0
7044 -6912 -134 0
-7045 6914 0
-7045 139 0
7045 -6914 -139 0
-7046 6916 0
-7046 182 0
7046 -6916 -182 0
-7047 6918 0
-7047 182 0
7047 -6918 -182 0
-7048 7035 7036 0
-7048 -7035 -7036 0
7048 -7035 7036 0
7048 7035 -7036 0
-7049 7048 7037 0
-7049 -7048 -7037 0
7049 -7048 7037 0
7049 7048 -7037 0
-7050 7049 7036 0
-7050 -7049 -7036 0
7050 -7049 7036 0
7050 7049 -7036 0
-7051 7050 7035 0
-7051 -7050 -7035 0
7051 -7050 7035 0
7051 7050 -7035 0
-7052 7051 7038 0
-7052 -7051 -7038 0
7052 -7051 7038 0
7052 7051 -7038 0
-7053 7052 7039 0
-7053 -7052 -7039 0
7053 -7052 7039 0
7053 7052 -7039 0
-7054 7053 7040 0
-7054 -7053 -7040 0
7054 -7053 7040 0
7054 7053 -7040 0
-7055 7054 7041 0
-7055 -7054 -7041 0
7055 -7054 7041 0
7055 7054 -7041 0
-7056 7055 7040 0
-7056 -7055 -7040 0
7056 -7055 7040 0
7056 7055 -7040 0
-7057 7056 7039 0
-7057 -7056 -7039 0
7057 -7056 7039 0
7057 7056 -7039 0
-7058 7057 7042 0
-7058 -7057 -7042 0
7058 -7057 7042 0
7058 7057 -7042 0
-7059 7058 7043 0
-7059 -7058 -7043 0
7059 -7058 7043 0
7059 7058 -7043 0
-7060 7059 7044 0
-7060 -7059 -7044 0
7060 -7059 7044 0
7060 7059 -7044 0
-7061 7060 7045 0
-7061 -7060 -7045 0
7061 -7060 7045 0
7061 7060 -7045 0
-7062 7061 7046 0
-7062 -7061 -7046 0
7062 -7061 7046 0
7062 7061 -7046 0
-7063 7062 7047 0
-7063 -7062 -7047 0
7063 -7062 7047 0
7063 7062 -7047 0
-7063 0
-7064 6894 0
-7064 39 0
7064 -6894 -39 0
-7065 6896 0
-7065 40 0
7065 -6896 -40 0
-7066 6898 0
-7066 44 0
7066 -6898 -44 0
-7067 6896 0
-7067 42 0
7067 -6896 -42 0
-7068 6894 0
-7068 46 0
7068 -6894 -46 0
-7069 6900 0
-7069 47 0
7069 -6900 -47 0
-7070 6902 0
-7070 87 0
7070 -6902 -87 0
-7071 6904 0
-7071 88 0
7071 -6904 -88 0
-7072 6906 0
-7072 92 0
7072 -6906 -92 0
-7073 6904 0
-7073 90 0
7073 -6904 -90 0
-7074 6902 0
-7074 94 0
7074 -6902 -94 0
-7075 6908 0
-7075 95 0
7075 -6908 -95 0
-7076 6910 0
-7076 135 0
7076 -6910 -135 0
-7077 6912 0
-7077 136 0
7077 -6912 -136 0
-7078 6914 0
-7078 140 0
7078 -6914 -140 0
-7079 6916 0
-7079 183 0
7079 -6916 -183 0
-7080 6918 0
-7080 186 0
7080 -6918 -186 0
-7081 7064 7065 0
-7081 -7064 -7065 0
7081 -7064 7065 0
7081 7064 -7065 0
-7082 7081 7066 0
-7082 -7081 -7066 0
7082 -7081 7066 0
7082 7081 -7066 0
-7083 7082 7067 0
-7083 -7082 -7067 0
7083 -7082 7067 0
7083 7082 -7067 0
-7084 7083 7068 0
-7084 -7083 -7068 0
7084 -7083 7068 0
7084 7083 -7068 0
-7085 7084 7069 0
-7085 -7084 -7069 0
7085 -7084 7069 0
7085 7084 -7069 0
-7086 7085 7070 0
-7086 -7085 -7070 0
7086 -7085 7070 0
7086 7085 -7070 0
-7087 7086 7071 0
-7087 -7086 -7071 0
7087 -7086 7071 0
7087 7086 -7071 0
-7088 7087 7072 0
-7088 -7087 -7072 0
7088 -7087 7072 0
7088 7087 -7072 0
-7089 7088 7073 0
-7089 -7088 -7073 0
7089 -7088 7073 0
7089 7088 -7073 0
-7090 7089 7074 0
-7090 -7089 -7074 0
7090 -7089 7074 0
7090 7089 -7074 0
-7091 7090 7075 0
-7091 -7090 -7075 0
7091 -7090 7075 0
7091 7090 -7075 0
-7092 7091 7076 0
-7092 -7091 -7076 0
7092 -7091 7076 0
7092 7091 -7076 0
-7093 7092 7077 0
-7093 -7092 -7077 0
7093 -7092 7077 0
7093 7092 -7077 0
-7094 7093 7078 0
-7094 -7093 -7078 0
7094 -7093 7078 0
7094 7093 -7078 0
-7095 7094 7079 0
-7095 -7094 -7079 0
7095 -7094 7079 0
7095 7094 -7079 0
-7096 7095 7080 0
-7096 -7095 -7080 0
7096 -7095 7080 0
7096 7095 -7080 0
-7096 0
-7097 6894 0
-7097 40 0
7097 -6894 -40 0
-7098 6896 0
-7098 39 0
7098 -6896 -39 0
-7099 6898 0
-7099 42 0
7099 -6898 -42 0
-7100 6896 0
-7100 46 0
7100 -6896 -46 0
-7101 6894 0
-7101 42 0
7101 -6894 -42 0
-7102 6900 0
-7102 39 0
7102 -6900 -39 0
-7103 6902 0
-7103 88 0
7103 -6902 -88 0
-7104 6904 0
-7104 87 0
7104 -6904 -87 0
-7105 6906 0
-7105 90 0
7105 -6906 -90 0
-7106 6904 0
-7106 94 0
7106 -6904 -94 0
-7107 6902 0
-7107 90 0
7107 -6902 -90 0
-7108 6908 0
-7108 87 0
7108 -6908 -87 0
-7109 6910 0
-7109 136 0
7109 -6910 -136 0
-7110 6912 0
-7110 135 0
7110 -6912 -135 0
-7111 6914 0
-7111 138 0
7111 -6914 -138 0
-7112 6916 0
-7112 184 0
7112 -6916 -184 0
-7113 6918 0
-7113 190 0
7113 -6918 -190 0
-7114 7097 7098 0
-7114 -7097 -7098 0
7114 -7097 7098 0
7114 7097 -7098 0
-7115 7114 7099 0
-7115 -7114 -7099 0
7115 -7114 7099 0
7115 7114 -7099 0
-7116 7115 7100 0
-7116 -7115 -7100 0
7116 -7115 7100 0
7116 7115 -7100 0
-7117 7116 7101 0
-7117 -7116 -7101 0
7117 -7116 7101 0
7117 7116 -7101 0
-7118 7117 7102 0
-7118 -7117 -7102 0
7118 -7117 7102 0
7118 7117 -7102 0
-7119 7118 7103 0
-7119 -7118 -7103 0
7119 -7118 7103 0
7119 7118 -7103 0
-7120 7119 7104 0
-7120 -7119 -7104 0
7120 -7119 7104 0
7120 7119 -7104 0
-7121 7120 7105 0
-7121 -7120 -7105 0
7121 -7120 7105 0
7121 7120 -7105 0
-7122 7121 7106 0
-7122 -7121 -7106 0
7122 -7121 7106 0
7122 7121 -7106 0
-7123 7122 7107 0
-7123 -7122 -7107 0
7123 -7122 7107 0
7123 7122 -7107 0
-7124 7123 7108 0
-7124 -7123 -7108 0
7124 -7123 7108 0
7124 7123 -7108 0
-7125 7124 7109 0
-7125 -7124 -7109 0
7125 -7124 7109 0
7125 7124 -7109 0
-7126 7125 7110 0
-7126 -7125 -7110 0
7126 -7125 7110 0
7126 7125 -7110 0
-7127 7126 7111 0
-7127 -7126 -7111 0
7127 -7126 7111 0
7127 7126 -7111 0
-7128 7127 7112 0
-7128 -7127 -7112 0
7128 -7127 7112 0
7128 7127 -7112 0
-7129 7128 7113 0
-7129 -7128 -7113 0
7129 -7128 7113 0
7129 7128 -7113 0
-7129 0
-7130 6894 0
-7130 43 0
7130 -6894 -43 0
-7131 6896 0
-7131 48 0
7131 -6896 -48 0
-7132 6898 0
-7132 48 0
7132 -6898 -48 0
-7133 6896 0
-7133 43 0
7133 -6896 -43 0
-7134 6894 0
-7134 48 0
7134 -6894 -48 0
-7135 6900 0
-7135 48 0
7135 -6900 -48 0
-7136 6902 0
-7136 91 0
7136 -6902 -91 0
-7137 6904 0
-7137 96 0
7137 -6904 -96 0
-7138 6906 0
-7138 96 0
7138 -6906 -96 0
-7139 6904 0
-7139 91 0
7139 -6904 -91 0
-7140 6902 0
-7140 96 0
7140 -6902 -96 0
-7141 6908 0
-7141 96 0
7141 -6908 -96 0
-7142 6910 0
-7142 139 0
7142 -6910 -139 0
-7143 6912 0
-7143 144 0
7143 -6912 -144 0
-7144 6914 0
-7144 144 0
7144 -6914 -144 0
-7145 6916 0
-7145 187 0
7145 -6916 -187 0
-7146 6918 0
-7146 187 0
7146 -6918 -187 0
-7147 7130 7131 0
-7147 -7130 -7131 0
7147 -7130 7131 0
7147 7130 -7131 0
-7148 7147 7132 0
-7148 -7147 -7132 0
7148 -7147 7132 0
7148 7147 -7132 0
-7149 7148 7133 0
-7149 -7148 -7133 0
7149 -7148 7133 0
7149 7148 -7133 0
-7150 7149 7134 0
-7150 -7149 -7134 0
7150 -7149 7134 0
7150 7149 -7134 0
-7151 7150 7135 0
-7151 -7150 -7135 0
7151 -7150 7135 0
7151 7150 -7135 0
-7152 7151 7136 0
-7152 -7151 -7136 0
7152 -7151 7136 0
7152 7151 -7136 0
-7153 7152 7137 0
-7153 -7152 -7137 0
7153 -7152 7137 0
7153 7152 -7137 0
-7154 7153 7138 0
-7154 -7153 -7138 0
7154 -7153 7138 0
7154 7153 -7138 0
-7155 7154 7139 0
-7155 -7154 -7139 0
7155 -7154 7139 0
7155 7154 -7139 0
-7156 7155 7140 0
-7156 -7155 -7140 0
7156 -7155 7140 0
7156 7155 -7140 0
-7157 7156 7141 0
-7157 -7156 -7141 0
7157 -7156 7141 0
7157 7156 -7141 0
-7158 7157 7142 0
-7158 -7157 -7142 0
7158 -7157 7142 0
7158 7157 -7142 0
-7159 7158 7143 0
-7159 -7158 -7143 0
7159 -7158 7143 0
7159 7158 -7143 0
-7160 7159 7144 0
-7160 -7159 -7144 0
7160 -7159 7144 0
7160 7159 -7144 0
-7161 7160 7145 0
-7161 -7160 -7145 0
7161 -7160 7145 0
7161 7160 -7145 0
-7162 7161 7146 0
-7162 -7161 -7146 0
7162 -7161 7146 0
7162 7161 -7146 0
-7162 0
-7163 6894 0
-7163 44 0
7163 -6894 -44 0
-7164 6896 0
-7164 47 0
7164 -6896 -47 0
-7165 6898 0
-7165 46 0
7165 -6898 -46 0
-7166 6900 0
-7166 40 0
7166 -6900 -40 0
-7167 6902 0
-7167 92 0
7167 -6902 -92 0
-7168 6904 0
-7168 95 0
7168 -6904 -95 0
-7169 6906 0
-7169 94 0
7169 -6906 -94 0
-7170 6908 0
-7170 88 0
7170 -6908 -88 0
-7171 6910 0
-7171 140 0
7171 -6910 -140 0
-7172 6912 0
-7172 143 0
7172 -6912 -143 0
-7173 6914 0
-7173 142 0
7173 -6914 -142 0
-7174 6916 0
-7174 188 0
7174 -6916 -188 0
-7175 6918 0
-7175 191 0
7175 -6918 -191 0
-7176 7163 7164 0
-7176 -7163 -7164 0
7176 -7163 7164 0
7176 7163 -7164 0
-7177 7176 7165 0
-7177 -7176 -7165 0
7177 -7176 7165 0
7177 7176 -7165 0
-7178 7177 7164 0
-7178 -7177 -7164 0
7178 -7177 7164 0
7178 7177 -7164 0
-7179 7178 7163 0
-7179 -7178 -7163 0
7179 -7178 7163 0
7179 7178 -7163 0
-7180 7179 7166 0
-7180 -7179 -7166 0
7180 -7179 7166 0
7180 7179 -7166 0
-7181 7180 7167 0
-7181 -7180 -7167 0
7181 -7180 7167 0
7181 7180 -7167 0
-7182 7181 7168 0
-7182 -7181 -7168 0
7182 -7181 7168 0
7182 7181 -7168 0
-7183 7182 7169 0
-7183 -7182 -7169 0
7183 -7182 7169 0
7183 7182 -7169 0
-7184 7183 7168 0
-7184 -7183 -7168 0
7184 -7183 7168 0
7184 7183 -7168 0
-7185 7184 7167 0
-7185 -7184 -7167 0
7185 -7184 7167 0
7185 7184 -7167 0
-7186 7185 7170 0
-7186 -7185 -7170 0
7186 -7185 7170 0
7186 7185 -7170 0
-7187 7186 7171 0
-7187 -7186 -7171 0
7187 -7186 7171 0
7187 7186 -7171 0
-7188 7187 7172 0
-7188 -7187 -7172 0
7188 -7187 7172 0
7188 7187 -7172 0
-7189 7188 7173 0
-7189 -7188 -7173 0
7189 -7188 7173 0
7189 7188 -7173 0
-7190 7189 7174 0
-7190 -7189 -7174 0
7190 -7189 7174 0
7190 7189 -7174 0
-7191 7190 7175 0
-7191 -7190 -7175 0
7191 -7190 7175 0
7191 7190 -7175 0
-7191 0
-7192 6894 0
-7192 47 0
7192 -6894 -47 0
-7193 6896 0
-7193 44 0
7193 -6896 -44 0
-7194 6898 0
-7194 40 0
7194 -6898 -40 0
-7195 6900 0
-7195 46 0
7195 -6900 -46 0
-7196 6902 0
-7196 95 0
7196 -6902 -95 0
-7197 6904 0
-7197 92 0
7197 -6904 -92 0
-7198 6906 0
-7198 88 0
7198 -6906 -88 0
-7199 6908 0
-7199 94 0
7199 -6908 -94 0
-7200 6910 0
-7200 143 0
7200 -6910 -143 0
-7201 6912 0
-7201 140 0
7201 -6912 -140 0
-7202 6914 0
-7202 136 0
7202 -6914 -136 0
-7203 6916 0
-7203 191 0
7203 -6916 -191 0
-7204 6918 0
-7204 188 0
7204 -6918 -188 0
-7205 7192 7193 0
-7205 -7192 -7193 0
7205 -7192 7193 0
7205 7192 -7193 0
-7206 7205 7194 0
-7206 -7205 -7194 0
7206 -7205 7194 0
7206 7205 -7194 0
-7207 7206 7193 0
-7207 -7206 -7193 0
7207 -7206 7193 0
7207 7206 -7193 0
-7208 7207 7192 0
-7208 -7207 -7192 0
7208 -7207 7192 0
7208 7207 -7192 0
-7209 7208 7195 0
-7209 -7208 -7195 0
7209 -7208 7195 0
7209 7208 -7195 0
-7210 7209 7196 0
-7210 -7209 -7196 0
7210 -7209 7196 0
7210 7209 -7196 0
-7211 7210 7197 0
-7211 -7210 -7197 0
7211 -7210 7197 0
7211 7210 -7197 0
-7212 7211 7198 0
-7212 -7211 -7198 0
7212 -7211 7198 0
7212 7211 -7198 0
-7213 7212 7197 0
-7213 -7212 -7197 0
7213 -7212 7197 0
7213 7212 -7197 0
-7214 7213 7196 0
-7214 -7213 -7196 0
7214 -7213 7196 0
7214 7213 -7196 0
-7215 7214 7199 0
-7215 -7214 -7199 0
7215 -7214 7199 0
7215 7214 -7199 0
-7216 7215 7200 0
-7216 -7215 -7200 0
7216 -7215 7200 0
7216 7215 -7200 0
-7217 7216 7201 0
-7217 -7216 -7201 0
7217 -7216 7201 0
7217 7216 -7201 0
-7218 7217 7202 0
-7218 -7217 -7202 0
7218 -7217 7202 0
7218 7217 -7202 0
-7219 7218 7203 0
-7219 -7218 -7203 0
7219 -7218 7203 0
7219 7218 -7203 0
-7220 7219 7204 0
-7220 -7219 -7204 0
7220 -7219 7204 0
7220 7219 -7204 0
-7220 0
-7221 5 0
-7221 23 0
7221 -5 -23 0
-7222 7221 0
-7222 33 0
7222 -7221 -33 0
-7223 6 0
-7223 20 0
7223 -6 -20 0
-7224 7223 0
-7224 33 0
7224 -7223 -33 0
-7225 10 0
-7225 28 0
7225 -10 -28 0
-7226 7225 0
-7226 33 0
7226 -7225 -33 0
-7227 18 0
-7227 10 0
7227 -18 -10 0
-7228 7227 0
-7228 33 0
7228 -7227 -33 0
-7229 22 0
-7229 13 0
7229 -22 -13 0
-7230 7229 0
-7230 33 0
7230 -7229 -33 0
-7231 23 0
-7231 15 0
7231 -23 -15 0
-7232 7231 0
-7232 33 0
7232 -7231 -33 0
-7233 53 0
-7233 71 0
7233 -53 -71 0
-7234 7233 0
-7234 81 0
7234 -7233 -81 0
-7235 54 0
-7235 68 0
7235 -54 -68 0
-7236 7235 0
-7236 81 0
7236 -7235 -81 0
-7237 58 0
-7237 76 0
7237 -58 -76 0
-7238 7237 0
-7238 81 0
7238 -7237 -81 0
-7239 66 0
-7239 58 0
7239 -66 -58 0
-7240 7239 0
-7240 81 0
7240 -7239 -81 0
-7241 70 0
-7241 61 0
7241 -70 -61 0
-7242 7241 0
-7242 81 0
7242 -7241 -81 0
-7243 71 0
-7243 63 0
7243 -71 -63 0
-7244 7243 0
-7244 81 0
7244 -7243 -81 0
-7245 101 0
-7245 119 0
7245 -101 -119 0
-7246 7245 0
-7246 129 0
7246 -7245 -129 0
-7247 102 0
-7247 116 0
7247 -102 -116 0
-7248 7247 0
-7248 129 0
7248 -7247 -129 0
-7249 106 0
-7249 124 0
7249 -106 -124 0
-7250 7249 0
-7250 129 0
7250 -7249 -129 0
-7251 149 0
-7251 167 0
7251 -149 -167 0
-7252 7251 0
-7252 177 0
7252 -7251 -177 0
-7253 162 0
-7253 154 0
7253 -162 -154 0
-7254 7253 0
-7254 177 0
7254 -7253 -177 0
-7255 7222 7224 0
-7255 -7222 -7224 0
7255 -7222 7224 0
7255 7222 -7224 0
-7256 7255 7226 0
-7256 -7255 -7226 0
7256 -7255 7226 0
7256 7255 -7226 0
-7257 7256 7228 0
-7257 -7256 -7228 0
7257 -7256 7228 0
7257 7256 -7228 0
-7258 7257 7230 0
-7258 -7257 -7230 0
7258 -7257 7230 0
7258 7257 -7230 0
-7259 7258 7232 0
-7259 -7258 -7232 0
7259 -7258 7232 0
7259 7258 -7232 0
-7260 7259 7234 0
-7260 -7259 -7234 0
7260 -7259 7234 0
7260 7259 -7234 0
-7261 7260 7236 0
-7261 -7260 -7236 0
7261 -7260 7236 0
7261 7260 -7236 0
-7262 7261 7238 0
-7262 -7261 -7238 0
7262 -7261 7238 0
7262 7261 -7238 0
-7263 7262 7240 0
-7263 -7262 -7240 0
7263 -7262 7240 0
7263 7262 -7240 0
-7264 7263 7242 0
-7264 -7263 -7242 0
7264 -7263 7242 0
7264 7263 -7242 0
-7265 7264 7244 0
-7265 -7264 -7244 0
7265 -7264 7244 0
7265 7264 -7244 0
-7266 7265 7246 0
-7266 -7265 -7246 0
7266 -7265 7246 0
7266 7265 -7246 0
-7267 7266 7248 0
-7267 -7266 -7248 0
7267 -7266 7248 0
7267 7266 -7248 0
-7268 7267 7250 0
-7268 -7267 -7250 0
7268 -7267 7250 0
7268 7267 -7250 0
-7269 7268 7252 0
-7269 -7268 -7252 0
7269 -7268 7252 0
7269 7268 -7252 0
-7270 7269 7254 0
-7270 -7269 -7254 0
7270 -7269 7254 0
7270 7269 -7254 0
-7270 0
-7271 7221 0
-7271 34 0
7271 -7221 -34 0
-7272 7223 0
-7272 34 0
7272 -7223 -34 0
-7273 7225 0
-7273 35 0
7273 -7225 -35 0
-7274 7227 0
-7274 37 0
7274 -7227 -37 0
-7275 7229 0
-7275 37 0
7275 -7229 -37 0
-7276 7231 0
-7276 41 0
7276 -7231 -41 0
-7277 7233 0
-7277 82 0
7277 -7233 -82 0
-7278 7235 0
-7278 82 0
7278 -7235 -82 0
-7279 7237 0
-7279 83 0
7279 -7237 -83 0
-7280 7239 0
-7280 85 0
7280 -7239 -85 0
-7281 7241 0
-7281 85 0
7281 -7241 -85 0
-7282 7243 0
-7282 89 0
7282 -7243 -89 0
-7283 7245 0
-7283 130 0
7283 -7245 -130 0
-7284 7247 0
-7284 130 0
7284 -7247 -130 0
-7285 7249 0
-7285 131 0
7285 -7249 -131 0
-7286 7251 0
-7286 178 0
7286 -7251 -178 0
-7287 7253 0
-7287 181 0
7287 -7253 -181 0
-7288 7271 7272 0
-7288 -7271 -7272 0
7288 -7271 7272 0
7288 7271 -7272 0
-7289 7288 7273 0
-7289 -7288 -7273 0
7289 -7288 7273 0
7289 7288 -7273 0
-7290 7289 7274 0
-7290 -7289 -7274 0
7290 -7289 7274 0
7290 7289 -7274 0
-7291 7290 7275 0
-7291 -7290 -7275 0
7291 -7290 7275 0
7291 7290 -7275 0
-7292 7291 7276 0
-7292 -7291 -7276 0
7292 -7291 7276 0
7292 7291 -7276 0
-7293 7292 7277 0
-7293 -7292 -7277 0
7293 -7292 7277 0
7293 7292 -7277 0
-7294 7293 7278 0
-7294 -7293 -7278 0
7294 -7293 7278 0
7294 7293 -7278 0
-7295 7294 7279 0
-7295 -7294 -7279 0
7295 -7294 7279 0
7295 7294 -7279 0
-7296 7295 7280 0
-7296 -7295 -7280 0
7296 -7295 7280 0
7296 7295 -7280 0
-7297 7296 7281 0
-7297 -7296 -7281 0
7297 -7296 7281 0
7297 7296 -7281 0
-7298 7297 7282 0
-7298 -7297 -7282 0
7298 -7297 7282 0
7298 7297 -7282 0
-7299 7298 7283 0
-7299 -7298 -7283 0
7299 -7298 7283 0
7299 7298 -7283 0
-7300 7299 7284 0
-7300 -7299 -7284 0
7300 -7299 7284 0
7300 7299 -7284 0
-7301 7300 7285 0
-7301 -7300 -7285 0
7301 -7300 7285 0
7301 7300 -7285 0
-7302 7301 7286 0
-7302 -7301 -7286 0
7302 -7301 7286 0
7302 7301 -7286 0
-7303 7302 7287 0
-7303 -7302 -7287 0
7303 -7302 7287 0
7303 7302 -7287 0
-7303 0
-7304 7221 0
-7304 35 0
7304 -7221 -35 0
-7305 7223 0
-7305 36 0
7305 -7223 -36 0
-7306 7225 0
-7306 36 0
7306 -7225 -36 0
-7307 7227 0
-7307 41 0
7307 -7227 -41 0
-7308 7229 0
-7308 45 0
7308 -7229 -45 0
-7309 7231 0
-7309 45 0
7309 -7231 -45 0
-7310 7233 0
-7310 83 0
7310 -7233 -83 0
-7311 7235 0
-7311 84 0
7311 -7235 -84 0
-7312 7237 0
-7312 84 0
7312 -7237 -84 0
-7313 7239 0
-7313 89 0
7313 -7239 -89 0
-7314 7241 0
-7314 93 0
7314 -7241 -93 0
-7315 7243 0
-7315 93 0
7315 -7243 -93 0
-7316 7245 0
-7316 131 0
7316 -7245 -131 0
-7317 7247 0
-7317 132 0
7317 -7247 -132 0
-7318 7249 0
-7318 132 0
7318 -7249 -132 0
-7319 7251 0
-7319 179 0
7319 -7251 -179 0
-7320 7253 0
-7320 185 0
7320 -7253 -185 0
-7321 7304 7305 0
-7321 -7304 -7305 0
7321 -7304 7305 0
7321 7304 -7305 0
-7322 7321 7306 0
-7322 -7321 -7306 0
7322 -7321 7306 0
7322 7321 -7306 0
-7323 7322 7307 0
-7323 -7322 -7307 0
7323 -7322 7307 0
7323 7322 -7307 0
-7324 7323 7308 0
-7324 -7323 -7308 0
7324 -7323 7308 0
7324 7323 -7308 0
-7325 7324 7309 0
-7325 -7324 -7309 0
7325 -7324 7309 0
7325 7324 -7309 0
-7326 7325 7310 0
-7326 -7325 -7310 0
7326 -7325 7310 0
7326 7325 -7310 0
-7327 7326 7311 0
-7327 -7326 -7311 0
7327 -7326 7311 0
7327 7326 -7311 0
-7328 7327 7312 0
-7328 -7327 -7312 0
7328 -7327 7312 0
7328 7327 -7312 0
-7329 7328 7313 0
-7329 -7328 -7313 0
7329 -7328 7313 0
7329 7328 -7313 0
-7330 7329 7314 0
-7330 -7329 -7314 0
7330 -7329 7314 0
7330 7329 -7314 0
-7331 7330 7315 0
-7331 -7330 -7315 0
7331 -7330 7315 0
7331 7330 -7315 0
-7332 7331 7316 0
-7332 -7331 -7316 0
7332 -7331 7316 0
7332 7331 -7316 0
-7333 7332 7317 0
-7333 -7332 -7317 0
7333 -7332 7317 0
7333 7332 -7317 0
-7334 7333 7318 0
-7334 -7333 -7318 0
7334 -7333 7318 0
7334 7333 -7318 0
-7335 7334 7319 0
-7335 -7334 -7319 0
7335 -7334 7319 0
7335 7334 -7319 0
-7336 7335 7320 0
-7336 -7335 -7320 0
7336 -7335 7320 0
7336 7335 -7320 0
-7336 0
-7337 7221 0
-7337 36 0
7337 -7221 -36 0
-7338 7223 0
-7338 35 0
7338 -7223 -35 0
-7339 7225 0
-7339 34 0
7339 -7225 -34 0
-7340 7227 0
-7340 45 0
7340 -7227 -45 0
-7341 7229 0
-7341 41 0
7341 -7229 -41 0
-7342 7231 0
-7342 37 0
7342 -7231 -37 0
-7343 7233 0
-7343 84 0
7343 -7233 -84 0
-7344 7235 0
-7344 83 0
7344 -7235 -83 0
-7345 7237 0
-7345 82 0
7345 -7237 -82 0
-7346 7239 0
-7346 93 0
7346 -7239 -93 0
-7347 7241 0
-7347 89 0
7347 -7241 -89 0
-7348 7243 0
-7348 85 0
7348 -7243 -85 0
-7349 7245 0
-7349 132 0
7349 -7245 -132 0
-7350 7247 0
-7350 131 0
7350 -7247 -131 0
-7351 7249 0
-7351 130 0
7351 -7249 -130 0
-7352 7251 0
-7352 180 0
7352 -7251 -180 0
-7353 7253 0
-7353 189 0
7353 -7253 -189 0
-7354 7337 7338 0
-7354 -7337 -7338 0
7354 -7337 7338 0
7354 7337 -7338 0
-7355 7354 7339 0
-7355 -7354 -7339 0
7355 -7354 7339 0
7355 7354 -7339 0
-7356 7355 7340 0
-7356 -7355 -7340 0
7356 -7355 7340 0
7356 7355 -7340 0
-7357 7356 7341 0
-7357 -7356 -7341 0
7357 -7356 7341 0
7357 7356 -7341 0
-7358 7357 7342 0
-7358 -7357 -7342 0
7358 -7357 7342 0
7358 7357 -7342 0
-7359 7358 7343 0
-7359 -7358 -7343 0
7359 -7358 7343 0
7359 7358 -7343 0
-7360 7359 7344 0
-7360 -7359 -7344 0
7360 -7359 7344 0
7360 7359 -7344 0
-7361 7360 7345 0
-7361 -7360 -7345 0
7361 -7360 7345 0
7361 7360 -7345 0
-7362 7361 7346 0
-7362 -7361 -7346 0
7362 -7361 7346 0
7362 7361 -7346 0
-7363 7362 7347 0
-7363 -7362 -7347 0
7363 -7362 7347 0
7363 7362 -7347 0
-7364 7363 7348 0
-7364 -7363 -7348 0
7364 -7363 7348 0
7364 7363 -7348 0
-7365 7364 7349 0
-7365 -7364 -7349 0
7365 -7364 7349 0
7365 7364 -7349 0
-7366 7365 7350 0
-7366 -7365 -7350 0
7366 -7365 7350 0
7366 7365 -7350 0
-7367 7366 7351 0
-7367 -7366 -7351 0
7367 -7366 7351 0
7367 7366 -7351 0
-7368 7367 7352 0
-7368 -7367 -7352 0
7368 -7367 7352 0
7368 7367 -7352 0
-7369 7368 7353 0
-7369 -7368 -7353 0
7369 -7368 7353 0
7369 7368 -7353 0
-7369 0
-7370 7221 0
-7370 37 0
7370 -7221 -37 0
-7371 7223 0
-7371 37 0
7371 -7223 -37 0
-7372 7225 0
-7372 41 0
7372 -7225 -41 0
-7373 7227 0
-7373 34 0
7373 -7227 -34 0
-7374 7229 0
-7374 34 0
7374 -7229 -34 0
-7375 7231 0
-7375 35 0
7375 -7231 -35 0
-7376 7233 0
-7376 85 0
7376 -7233 -85 0
-7377 7235 0
-7377 85 0
7377 -7235 -85 0
-7378 7237 0
-7378 89 0
7378 -7237 -89 0
-7379 7239 0
-7379 82 0
7379 -7239 -82 0
-7380 7241 0
-7380 82 0
7380 -7241 -82 0
-7381 7243 0
-7381 83 0
7381 -7243 -83 0
-7382 7245 0
-7382 133 0
7382 -7245 -133 0
-7383 7247 0
-7383 133 0
7383 -7247 -133 0
-7384 7249 0
-7384 137 0
7384 -7249 -137 0
-7385 7251 0
-7385 181 0
7385 -7251 -181 0
-7386 7253 0
-7386 178 0
7386 -7253 -178 0
-7387 7370 7371 0
-7387 -7370 -7371 0
7387 -7370 7371 0
7387 7370 -7371 0
-7388 7387 7372 0
-7388 -7387 -7372 0
7388 -7387 7372 0
7388 7387 -7372 0
-7389 7388 7373 0
-7389 -7388 -7373 0
7389 -7388 7373 0
7389 7388 -7373 0
-7390 7389 7374 0
-7390 -7389 -7374 0
7390 -7389 7374 0
7390 7389 -7374 0
-7391 7390 7375 0
-7391 -7390 -7375 0
7391 -7390 7375 0
7391 7390 -7375 0
-7392 7391 7376 0
-7392 -7391 -7376 0
7392 -7391 7376 0
7392 7391 -7376 0
-7393 7392 7377 0
-7393 -7392 -7377 0
7393 -7392 7377 0
7393 7392 -7377 0
-7394 7393 7378 0
-7394 -7393 -7378 0
7394 -7393 7378 0
7394 7393 -7378 0
-7395 7394 7379 0
-7395 -7394 -7379 0
7395 -7394 7379 0
7395 7394 -7379 0
-7396 7395 7380 0
-7396 -7395 -7380 0
7396 -7395 7380 0
7396 7395 -7380 0
-7397 7396 7381 0
-7397 -7396 -7381 0
7397 -7396 7381 0
7397 7396 -7381 0
-7398 7397 7382 0
-7398 -7397 -7382 0
7398 -7397 7382 0
7398 7397 -7382 0
-7399 7398 7383 0
-7399 -7398 -7383 0
7399 -7398 7383 0
7399 7398 -7383 0
-7400 7399 7384 0
-7400 -7399 -7384 0
7400 -7399 7384 0
7400 7399 -7384 0
-7401 7400 7385 0
-7401 -7400 -7385 0
7401 -7400 7385 0
7401 7400 -7385 0
-7402 7401 7386 0
-7402 -7401 -7386 0
7402 -7401 7386 0
7402 7401 -7386 0
-7402 0
-7403 7221 0
-7403 38 0
7403 -7221 -38 0
-7404 7223 0
-7404 38 0
7404 -7223 -38 0
-7405 7225 0
-7405 43 0
7405 -7225 -43 0
-7406 7227 0
-7406 38 0
7406 -7227 -38 0
-7407 7229 0
-7407 38 0
7407 -7229 -38 0
-7408 7231 0
-7408 43 0
7408 -7231 -43 0
-7409 7233 0
-7409 86 0
7409 -7233 -86 0
-7410 7235 0
-7410 86 0
7410 -7235 -86 0
-7411 7237 0
-7411 91 0
7411 -7237 -91 0
-7412 7239 0
-7412 86 0
7412 -7239 -86 0
-7413 7241 0
-7413 86 0
7413 -7241 -86 0
-7414 7243 0
-7414 91 0
7414 -7243 -91 0
-7415 7245 0
-7415 134 0
7415 -7245 -134 0
-7416 7247 0
-7416 134 0
7416 -7247 -134 0
-7417 7249 0
-7417 139 0
7417 -7249 -139 0
-7418 7251 0
-7418 182 0
7418 -7251 -182 0
-7419 7253 0
-7419 182 0
7419 -7253 -182 0
-7420 7403 7404 0
-7420 -7403 -7404 0
7420 -7403 7404 0
7420 7403 -7404 0
-7421 7420 7405 0
-7421 -7420 -7405 0
7421 -7420 7405 0
7421 7420 -7405 0
-7422 7421 7406 0
-7422 -7421 -7406 0
7422 -7421 7406 0
7422 7421 -7406 0
-7423 7422 7407 0
-7423 -7422 -7407 0
7423 -7422 7407 0
7423 7422 -7407 0
-7424 7423 7408 0
-7424 -7423 -7408 0
7424 -7423 7408 0
7424 7423 -7408 0
-7425 7424 7409 0
-7425 -7424 -7409 0
7425 -7424 7409 0
7425 7424 -7409 0
-7426 7425 7410 0
-7426 -7425 -7410 0
7426 -7425 7410 0
7426 7425 -7410 0
-7427 7426 7411 0
-7427 -7426 -7411 0
7427 -7426 7411 0
7427 7426 -7411 0
-7428 7427 7412 0
-7428 -7427 -7412 0
7428 -7427 7412 0
7428 7427 -7412 0
-7429 7428 7413 0
-7429 -7428 -7413 0
7429 -7428 7413 0
7429 7428 -7413 0
-7430 7429 7414 0
-7430 -7429 -7414 0
7430 -7429 7414 0
7430 7429 -7414 0
-7431 7430 7415 0
-7431 -7430 -7415 0
7431 -7430 7415 0
7431 7430 -7415 0
-7432 7431 7416 0
-7432 -7431 -7416 0
7432 -7431 7416 0
7432 7431 -7416 0
-7433 7432 7417 0
-7433 -7432 -7417 0
7433 -7432 7417 0
7433 7432 -7417 0
-7434 7433 7418 0
-7434 -7433 -7418 0
7434 -7433 7418 0
7434 7433 -7418 0
-7435 7434 7419 0
-7435 -7434 -7419 0
7435 -7434 7419 0
7435 7434 -7419 0
-7435 0
-7436 7221 0
-7436 39 0
7436 -7221 -39 0
-7437 7223 0
-7437 40 0
7437 -7223 -40 0
-7438 7225 0
-7438 44 0
7438 -7225 -44 0
-7439 7227 0
-7439 42 0
7439 -7227 -42 0
-7440 7229 0
-7440 46 0
7440 -7229 -46 0
-7441 7231 0
-7441 47 0
7441 -7231 -47 0
-7442 7233 0
-7442 87 0
7442 -7233 -87 0
-7443 7235 0
-7443 88 0
7443 -7235 -88 0
-7444 7237 0
-7444 92 0
7444 -7237 -92 0
-7445 7239 0
-7445 90 0
7445 -7239 -90 0
-7446 7241 0
-7446 94 0
7446 -7241 -94 0
-7447 7243 0
-7447 95 0
7447 -7243 -95 0
-7448 7245 0
-7448 135 0
7448 -7245 -135 0
-7449 7247 0
-7449 136 0
7449 -7247 -136 0
-7450 7249 0
-7450 140 0
7450 -7249 -140 0
-7451 7251 0
-7451 183 0
7451 -7251 -183 0
-7452 7253 0
-7452 186 0
7452 -7253 -186 0
-7453 7436 7437 0
-7453 -7436 -7437 0
7453 -7436 7437 0
7453 7436 -7437 0
-7454 7453 7438 0
-7454 -7453 -7438 0
7454 -7453 7438 0
7454 7453 -7438 0
-7455 7454 7439 0
-7455 -7454 -7439 0
7455 -7454 7439 0
7455 7454 -7439 0
-7456 7455 7440 0
-7456 -7455 -7440 0
7456 -7455 7440 0
7456 7455 -7440 0
-7457 7456 7441 0
-7457 -7456 -7441 0
7457 -7456 7441 0
7457 7456 -7441 0
-7458 7457 7442 0
-7458 -7457 -7442 0
7458 -7457 7442 0
7458 7457 -7442 0
-7459 7458 7443 0
-7459 -7458 -7443 0
7459 -7458 7443 0
7459 7458 -7443 0
-7460 7459 7444 0
-7460 -7459 -7444 0
7460 -7459 7444 0
7460 7459 -7444 0
-7461 7460 7445 0
-7461 -7460 -7445 0
7461 -7460 7445 0
7461 7460 -7445 0
-7462 7461 7446 0
-7462 -7461 -7446 0
7462 -7461 7446 0
7462 7461 -7446 0
-7463 7462 7447 0
-7463 -7462 -7447 0
7463 -7462 7447 0
7463 7462 -7447 0
-7464 7463 7448 0
-7464 -7463 -7448 0
7464 -7463 7448 0
7464 7463 -7448 0
-7465 7464 7449 0
-7465 -7464 -7449 0
7465 -7464 7449 0
7465 7464 -7449 0
-7466 7465 7450 0
-7466 -7465 -7450 0
7466 -7465 7450 0
7466 7465 -7450 0
-7467 7466 7451 0
-7467 -7466 -7451 0
7467 -7466 7451 0
7467 7466 -7451 0
-7468 7467 7452 0
-7468 -7467 -7452 0
7468 -7467 7452 0
7468 7467 -7452 0
-7468 0
-7469 7221 0
-7469 40 0
7469 -7221 -40 0
-7470 7223 0
-7470 39 0
7470 -7223 -39 0
-7471 7225 0
-7471 42 0
7471 -7225 -42 0
-7472 7227 0
-7472 46 0
7472 -7227 -46 0
-7473 7229 0
-7473 42 0
7473 -7229 -42 0
-7474 7231 0
-7474 39 0
7474 -7231 -39 0
-7475 7233 0
-7475 88 0
7475 -7233 -88 0
-7476 7235 0
-7476 87 0
7476 -7235 -87 0
-7477 7237 0
-7477 90 0
7477 -7237 -90 0
-7478 7239 0
-7478 94 0
7478 -7239 -94 0
-7479 7241 0
-7479 90 0
7479 -7241 -90 0
-7480 7243 0
-7480 87 0
7480 -7243 -87 0
-7481 7245 0
-7481 136 0
7481 -7245 -136 0
-7482 7247 0
-7482 135 0
7482 -7247 -135 0
-7483 7249 0
-7483 138 0
7483 -7249 -138 0
-7484 7251 0
-7484 184 0
7484 -7251 -184 0
-7485 7253 0
-7485 190 0
7485 -7253 -190 0
-7486 7469 7470 0
-7486 -7469 -7470 0
7486 -7469 7470 0
7486 7469 -7470 0
-7487 7486 7471 0
-7487 -7486 -7471 0
7487 -7486 7471 0
7487 7486 -7471 0
-7488 7487 7472 0
-7488 -7487 -7472 0
7488 -7487 7472 0
7488 7487 -7472 0
-7489 7488 7473 0
-7489 -7488 -7473 0
7489 -7488 7473 0
7489 7488 -7473 0
-7490 7489 7474 0
-7490 -7489 -7474 0
7490 -7489 7474 0
7490 7489 -7474 0
-7491 7490 7475 0
-7491 -7490 -7475 0
7491 -7490 7475 0
7491 7490 -7475 0
-7492 7491 7476 0
-7492 -7491 -7476 0
7492 -7491 7476 0
7492 7491 -7476 0
-7493 7492 7477 0
-7493 -7492 -7477 0
7493 -7492 7477 0
7493 7492 -7477 0
-7494 7493 7478 0
-7494 -7493 -7478 0
7494 -7493 7478 0
7494 7493 -7478 0
-7495 7494 7479 0
-7495 -7494 -7479 0
7495 -7494 7479 0
7495 7494 -7479 0
-7496 7495 7480 0
-7496 -7495 -7480 0
7496 -7495 7480 0
7496 7495 -7480 0
-7497 7496 7481 0
-7497 -7496 -7481 0
7497 -7496 7481 0
7497 7496 -7481 0
-7498 7497 7482 0
-7498 -7497 -7482 0
7498 -7497 7482 0
7498 7497 -7482 0
-7499 7498 7483 0
-7499 -7498 -7483 0
7499 -7498 7483 0
7499 7498 -7483 0
-7500 7499 7484 0
-7500 -7499 -7484 0
7500 -7499 7484 0
7500 7499 -7484 0
-7501 7500 7485 0
-7501 -7500 -7485 0
7501 -7500 7485 0
7501 7500 -7485 0
-7501 0
-7502 7221 0
-7502 41 0
7502 -7221 -41 0
-7503 7223 0
-7503 45 0
7503 -7223 -45 0
-7504 7225 0
-7504 45 0
7504 -7225 -45 0
-7505 7227 0
-7505 35 0
7505 -7227 -35 0
-7506 7229 0
-7506 36 0
7506 -7229 -36 0
-7507 7231 0
-7507 36 0
7507 -7231 -36 0
-7508 7233 0
-7508 89 0
7508 -7233 -89 0
-7509 7235 0
-7509 93 0
7509 -7235 -93 0
-7510 7237 0
-7510 93 0
7510 -7237 -93 0
-7511 7239 0
-7511 83 0
7511 -7239 -83 0
-7512 7241 0
-7512 84 0
7512 -7241 -84 0
-7513 7243 0
-7513 84 0
7513 -7243 -84 0
-7514 7245 0
-7514 137 0
7514 -7245 -137 0
-7515 7247 0
-7515 141 0
7515 -7247 -141 0
-7516 7249 0
-7516 141 0
7516 -7249 -141 0
-7517 7251 0
-7517 185 0
7517 -7251 -185 0
-7518 7253 0
-7518 179 0
7518 -7253 -179 0
-7519 7502 7503 0
-7519 -7502 -7503 0
7519 -7502 7503 0
7519 7502 -7503 0
-7520 7519 7504 0
-7520 -7519 -7504 0
7520 -7519 7504 0
7520 7519 -7504 0
-7521 7520 7505 0
-7521 -7520 -7505 0
7521 -7520 7505 0
7521 7520 -7505 0
-7522 7521 7506 0
-7522 -7521 -7506 0
7522 -7521 7506 0
7522 7521 -7506 0
-7523 7522 7507 0
-7523 -7522 -7507 0
7523 -7522 7507 0
7523 7522 -7507 0
-7524 7523 7508 0
-7524 -7523 -7508 0
7524 -7523 7508 0
7524 7523 -7508 0
-7525 7524 7509 0
-7525 -7524 -7509 0
7525 -7524 7509 0
7525 7524 -7509 0
-7526 7525 7510 0
-7526 -7525 -7510 0
7526 -7525 7510 0
7526 7525 -7510 0
-7527 7526 7511 0
-7527 -7526 -7511 0
7527 -7526 7511 0
7527 7526 -7511 0
-7528 7527 7512 0
-7528 -7527 -7512 0
7528 -7527 7512 0
7528 7527 -7512 0
-7529 7528 7513 0
-7529 -7528 -7513 0
7529 -7528 7513 0
7529 7528 -7513 0
-7530 7529 7514 0
-7530 -7529 -7514 0
7530 -7529 7514 0
7530 7529 -7514 0
-7531 7530 7515 0
-7531 -7530 -7515 0
7531 -7530 7515 0
7531 7530 -7515 0
-7532 7531 7516 0
-7532 -7531 -7516 0
7532 -7531 7516 0
7532 7531 -7516 0
-7533 7532 7517 0
-7533 -7532 -7517 0
7533 -7532 7517 0
7533 7532 -7517 0
-7534 7533 7518 0
-7534 -7533 -7518 0
7534 -7533 7518 0
7534 7533 -7518 0
-7534 0
-7535 7221 0
-7535 42 0
7535 -7221 -42 0
-7536 7223 0
-7536 46 0
7536 -7223 -46 0
-7537 7225 0
-7537 47 0
7537 -7225 -47 0
-7538 7227 0
-7538 39 0
7538 -7227 -39 0
-7539 7229 0
-7539 40 0
7539 -7229 -40 0
-7540 7231 0
-7540 44 0
7540 -7231 -44 0
-7541 7233 0
-7541 90 0
7541 -7233 -90 0
-7542 7235 0
-7542 94 0
7542 -7235 -94 0
-7543 7237 0
-7543 95 0
7543 -7237 -95 0
-7544 7239 0
-7544 87 0
7544 -7239 -87 0
-7545 7241 0
-7545 88 0
7545 -7241 -88 0
-7546 7243 0
-7546 92 0
7546 -7243 -92 0
-7547 7245 0
-7547 138 0
7547 -7245 -138 0
-7548 7247 0
-7548 142 0
7548 -7247 -142 0
-7549 7249 0
-7549 143 0
7549 -7249 -143 0
-7550 7251 0
-7550 186 0
7550 -7251 -186 0
-7551 7253 0
-7551 183 0
7551 -7253 -183 0
-7552 7535 7536 0
-7552 -7535 -7536 0
7552 -7535 7536 0
7552 7535 -7536 0
-7553 7552 7537 0
-7553 -7552 -7537 0
7553 -7552 7537 0
7553 7552 -7537 0
-7554 7553 7538 0
-7554 -7553 -7538 0
7554 -7553 7538 0
7554 7553 -7538 0
-7555 7554 7539 0
-7555 -7554 -7539 0
7555 -7554 7539 0
7555 7554 -7539 0
-7556 7555 7540 0
-7556 -7555 -7540 0
7556 -7555 7540 0
7556 7555 -7540 0
-7557 7556 7541 0
-7557 -7556 -7541 0
7557 -7556 7541 0
7557 7556 -7541 0
-7558 7557 7542 0
-7558 -7557 -7542 0
7558 -7557 7542 0
7558 7557 -7542 0
-7559 7558 7543 0
-7559 -7558 -7543 0
7559 -7558 7543 0
7559 7558 -7543 0
-7560 7559 7544 0
-7560 -7559 -7544 0
7560 -7559 7544 0
7560 7559 -7544 0
-7561 7560 7545 0
-7561 -7560 -7545 0
7561 -7560 7545 0
7561 7560 -7545 0
-7562 7561 7546 0
-7562 -7561 -7546 0
7562 -7561 7546 0
7562 7561 -7546 0
-7563 7562 7547 0
-7563 -7562 -7547 0
7563 -7562 7547 0
7563 7562 -7547 0
-7564 7563 7548 0
-7564 -7563 -7548 0
7564 -7563 7548 0
7564 7563 -7548 0
-7565 7564 7549 0
-7565 -7564 -7549 0
7565 -7564 7549 0
7565 7564 -7549 0
-7566 7565 7550 0
-7566 -7565 -7550 0
7566 -7565 7550 0
7566 7565 -7550 0
-7567 7566 7551 0
-7567 -7566 -7551 0
7567 -7566 7551 0
7567 7566 -7551 0
-7567 0
-7568 7221 0
-7568 43 0
7568 -7221 -43 0
-7569 7223 0
-7569 48 0
7569 -7223 -48 0
-7570 7225 0
-7570 48 0
7570 -7225 -48 0
-7571 7227 0
-7571 43 0
7571 -7227 -43 0
-7572 7229 0
-7572 48 0
7572 -7229 -48 0
-7573 7231 0
-7573 48 0
7573 -7231 -48 0
-7574 7233 0
-7574 91 0
7574 -7233 -91 0
-7575 7235 0
-7575 96 0
7575 -7235 -96 0
-7576 7237 0
-7576 96 0
7576 -7237 -96 0
-7577 7239 0
-7577 91 0
7577 -7239 -91 0
-7578 7241 0
-7578 96 0
7578 -7241 -96 0
-7579 7243 0
-7579 96 0
7579 -7243 -96 0
-7580 7245 0
-7580 139 0
7580 -7245 -139 0
-7581 7247 0
-7581 144 0
7581 -7247 -144 0
-7582 7249 0
-7582 144 0
7582 -7249 -144 0
-7583 7251 0
-7583 187 0
7583 -7251 -187 0
-7584 7253 0
-7584 187 0
7584 -7253 -187 0
-7585 7568 7569 0
-7585 -7568 -7569 0
7585 -7568 7569 0
7585 7568 -7569 0
-7586 7585 7570 0
-7586 -7585 -7570 0
7586 -7585 7570 0
7586 7585 -7570 0
-7587 7586 7571 0
-7587 -7586 -7571 0
7587 -7586 7571 0
7587 7586 -7571 0
-7588 7587 7572 0
-7588 -7587 -7572 0
7588 -7587 7572 0
7588 7587 -7572 0
-7589 7588 7573 0
-7589 -7588 -7573 0
7589 -7588 7573 0
7589 7588 -7573 0
-7590 7589 7574 0
-7590 -7589 -7574 0
7590 -7589 7574 0
7590 7589 -7574 0
-7591 7590 7575 0
-7591 -7590 -7575 0
7591 -7590 7575 0
7591 7590 -7575 0
-7592 7591 7576 0
-7592 -7591 -7576 0
7592 -7591 7576 0
7592 7591 -7576 0
-7593 7592 7577 0
-7593 -7592 -7577 0
7593 -7592 7577 0
7593 7592 -7577 0
-7594 7593 7578 0
-7594 -7593 -7578 0
7594 -7593 7578 0
7594 7593 -7578 0
-7595 7594 7579 0
-7595 -7594 -7579 0
7595 -7594 7579 0
7595 7594 -7579 0
-7596 7595 7580 0
-7596 -7595 -7580 0
7596 -7595 7580 0
7596 7595 -7580 0
-7597 7596 7581 0
-7597 -7596 -7581 0
7597 -7596 7581 0
7597 7596 -7581 0
-7598 7597 7582 0
-7598 -7597 -7582 0
7598 -7597 7582 0
7598 7597 -7582 0
-7599 7598 7583 0
-7599 -7598 -7583 0
7599 -7598 7583 0
7599 7598 -7583 0
-7600 7599 7584 0
-7600 -7599 -7584 0
7600 -7599 7584 0
7600 7599 -7584 0
-7600 0
-7601 7221 0
-7601 44 0
7601 -7221 -44 0
-7602 7223 0
-7602 47 0
7602 -7223 -47 0
-7603 7225 0
-7603 46 0
7603 -7225 -46 0
-7604 7227 0
-7604 47 0
7604 -7227 -47 0
-7605 7229 0
-7605 44 0
7605 -7229 -44 0
-7606 7231 0
-7606 40 0
7606 -7231 -40 0
-7607 7233 0
-7607 92 0
7607 -7233 -92 0
-7608 7235 0
-7608 95 0
7608 -7235 -95 0
-7609 7237 0
-7609 94 0
7609 -7237 -94 0
-7610 7239 0
-7610 95 0
7610 -7239 -95 0
-7611 7241 0
-7611 92 0
7611 -7241 -92 0
-7612 7243 0
-7612 88 0
7612 -7243 -88 0
-7613 7245 0
-7613 140 0
7613 -7245 -140 0
-7614 7247 0
-7614 143 0
7614 -7247 -143 0
-7615 7249 0
-7615 142 0
7615 -7249 -142 0
-7616 7251 0
-7616 188 0
7616 -7251 -188 0
-7617 7253 0
-7617 191 0
7617 -7253 -191 0
-7618 7601 7602 0
-7618 -7601 -7602 0
7618 -7601 7602 0
7618 7601 -7602 0
-7619 7618 7603 0
-7619 -7618 -7603 0
7619 -7618 7603 0
7619 7618 -7603 0
-7620 7619 7604 0
-7620 -7619 -7604 0
7620 -7619 7604 0
7620 7619 -7604 0
-7621 7620 7605 0
-7621 -7620 -7605 0
7621 -7620 7605 0
7621 7620 -7605 0
-7622 7621 7606 0
-7622 -7621 -7606 0
7622 -7621 7606 0
7622 7621 -7606 0
-7623 7622 7607 0
-7623 -7622 -7607 0
7623 -7622 7607 0
7623 7622 -7607 0
-7624 7623 7608 0
-7624 -7623 -7608 0
7624 -7623 7608 0
7624 7623 -7608 0
-7625 7624 7609 0
-7625 -7624 -7609 0
7625 -7624 7609 0
7625 7624 -7609 0
-7626 7625 7610 0
-7626 -7625 -7610 0
7626 -7625 7610 0
7626 7625 -7610 0
-7627 7626 7611 0
-7627 -7626 -7611 0
7627 -7626 7611 0
7627 7626 -7611 0
-7628 7627 7612 0
-7628 -7627 -7612 0
7628 -7627 7612 0
7628 7627 -7612 0
-7629 7628 7613 0
-7629 -7628 -7613 0
7629 -7628 7613 0
7629 7628 -7613 0
-7630 7629 7614 0
-7630 -7629 -7614 0
7630 -7629 7614 0
7630 7629 -7614 0
-7631 7630 7615 0
-7631 -7630 -7615 0
7631 -7630 7615 0
7631 7630 -7615 0
-7632 7631 7616 0
-7632 -7631 -7616 0
7632 -7631 7616 0
7632 7631 -7616 0
-7633 7632 7617 0
-7633 -7632 -7617 0
7633 -7632 7617 0
7633 7632 -7617 0
-7633 0
-7634 7221 0
-7634 45 0
7634 -7221 -45 0
-7635 7223 0
-7635 41 0
7635 -7223 -41 0
-7636 7225 0
-7636 37 0
7636 -7225 -37 0
-7637 7227 0
-7637 36 0
7637 -7227 -36 0
-7638 7229 0
-7638 35 0
7638 -7229 -35 0
-7639 7231 0
-7639 34 0
7639 -7231 -34 0
-7640 7233 0
-7640 93 0
7640 -7233 -93 0
-7641 7235 0
-7641 89 0
7641 -7235 -89 0
-7642 7237 0
-7642 85 0
7642 -7237 -85 0
-7643 7239 0
-7643 84 0
7643 -7239 -84 0
-7644 7241 0
-7644 83 0
7644 -7241 -83 0
-7645 7243 0
-7645 82 0
7645 -7243 -82 0
-7646 7245 0
-7646 141 0
7646 -7245 -141 0
-7647 7247 0
-7647 137 0
7647 -7247 -137 0
-7648 7249 0
-7648 133 0
7648 -7249 -133 0
-7649 7251 0
-7649 189 0
7649 -7251 -189 0
-7650 7253 0
-7650 180 0
7650 -7253 -180 0
-7651 7634 7635 0
-7651 -7634 -7635 0
7651 -7634 7635 0
7651 7634 -7635 0
-7652 7651 7636 0
-7652 -7651 -7636 0
7652 -7651 7636 0
7652 7651 -7636 0
-7653 7652 7637 0
-7653 -7652 -7637 0
7653 -7652 7637 0
7653 7652 -7637 0
-7654 7653 7638 0
-7654 -7653 -7638 0
7654 -7653 7638 0
7654 7653 -7638 0
-7655 7654 7639 0
-7655 -7654 -7639 0
7655 -7654 7639 0
7655 7654 -7639 0
-7656 7655 7640 0
-7656 -7655 -7640 0
7656 -7655 7640 0
7656 7655 -7640 0
-7657 7656 7641 0
-7657 -7656 -7641 0
7657 -7656 7641 0
7657 7656 -7641 0
-7658 7657 7642 0
-7658 -7657 -7642 0
7658 -7657 7642 0
7658 7657 -7642 0
-7659 7658 7643 0
-7659 -7658 -7643 0
7659 -7658 7643 0
7659 7658 -7643 0
-7660 7659 7644 0
-7660 -7659 -7644 0
7660 -7659 7644 0
7660 7659 -7644 0
-7661 7660 7645 0
-7661 -7660 -7645 0
7661 -7660 7645 0
7661 7660 -7645 0
-7662 7661 7646 0
-7662 -7661 -7646 0
7662 -7661 7646 0
7662 7661 -7646 0
-7663 7662 7647 0
-7663 -7662 -7647 0
7663 -7662 7647 0
7663 7662 -7647 0
-7664 7663 7648 0
-7664 -7663 -7648 0
7664 -7663 7648 0
7664 7663 -7648 0
-7665 7664 7649 0
-7665 -7664 -7649 0
7665 -7664 7649 0
7665 7664 -7649 0
-7666 7665 7650 0
-7666 -7665 -7650 0
7666 -7665 7650 0
7666 7665 -7650 0
-7666 0
-7667 7221 0
-7667 46 0
7667 -7221 -46 0
-7668 7223 0
-7668 42 0
7668 -7223 -42 0
-7669 7225 0
-7669 39 0
7669 -7225 -39 0
-7670 7227 0
-7670 40 0
7670 -7227 -40 0
-7671 7229 0
-7671 39 0
7671 -7229 -39 0
-7672 7231 0
-7672 42 0
7672 -7231 -42 0
-7673 7233 0
-7673 94 0
7673 -7233 -94 0
-7674 7235 0
-7674 90 0
7674 -7235 -90 0
-7675 7237 0
-7675 87 0
7675 -7237 -87 0
-7676 7239 0
-7676 88 0
7676 -7239 -88 0
-7677 7241 0
-7677 87 0
7677 -7241 -87 0
-7678 7243 0
-7678 90 0
7678 -7243 -90 0
-7679 7245 0
-7679 142 0
7679 -7245 -142 0
-7680 7247 0
-7680 138 0
7680 -7247 -138 0
-7681 7249 0
-7681 135 0
7681 -7249 -135 0
-7682 7251 0
-7682 190 0
7682 -7251 -190 0
-7683 7253 0
-7683 184 0
7683 -7253 -184 0
-7684 7667 7668 0
-7684 -7667 -7668 0
7684 -7667 7668 0
7684 7667 -7668 0
-7685 7684 7669 0
-7685 -7684 -7669 0
7685 -7684 7669 0
7685 7684 -7669 0
-7686 7685 7670 0
-7686 -7685 -7670 0
7686 -7685 7670 0
7686 7685 -7670 0
-7687 7686 7671 0
-7687 -7686 -7671 0
7687 -7686 7671 0
7687 7686 -7671 0
-7688 7687 7672 0
-7688 -7687 -7672 0
7688 -7687 7672 0
7688 7687 -7672 0
-7689 7688 7673 0
-7689 -7688 -7673 0
7689 -7688 7673 0
7689 7688 -7673 0
-7690 7689 7674 0
-7690 -7689 -7674 0
7690 -7689 7674 0
7690 7689 -7674 0
-7691 7690 7675 0
-7691 -7690 -7675 0
7691 -7690 7675 0
7691 7690 -7675 0
-7692 7691 7676 0
-7692 -7691 -7676 0
7692 -7691 7676 0
7692 7691 -7676 0
-7693 7692 7677 0
-7693 -7692 -7677 0
7693 -7692 7677 0
7693 7692 -7677 0
-7694 7693 7678 0
-7694 -7693 -7678 0
7694 -7693 7678 0
7694 7693 -7678 0
-7695 7694 7679 0
-7695 -7694 -7679 0
7695 -7694 7679 0
7695 7694 -7679 0
-7696 7695 7680 0
-7696 -7695 -7680 0
7696 -7695 7680 0
7696 7695 -7680 0
-7697 7696 7681 0
-7697 -7696 -7681 0
7697 -7696 7681 0
7697 7696 -7681 0
-7698 7697 7682 0
-7698 -7697 -7682 0
7698 -7697 7682 0
7698 7697 -7682 0
-7699 7698 7683 0
-7699 -7698 -7683 0
7699 -7698 7683 0
7699 7698 -7683 0
-7699 0
-7700 7221 0
-7700 47 0
7700 -7221 -47 0
-7701 7223 0
-7701 44 0
7701 -7223 -44 0
-7702 7225 0
-7702 40 0
7702 -7225 -40 0
-7703 7227 0
-7703 44 0
7703 -7227 -44 0
-7704 7229 0
-7704 47 0
7704 -7229 -47 0
-7705 7231 0
-7705 46 0
7705 -7231 -46 0
-7706 7233 0
-7706 95 0
7706 -7233 -95 0
-7707 7235 0
-7707 92 0
7707 -7235 -92 0
-7708 7237 0
-7708 88 0
7708 -7237 -88 0
-7709 7239 0
-7709 92 0
7709 -7239 -92 0
-7710 7241 0
-7710 95 0
7710 -7241 -95 0
-7711 7243 0
-7711 94 0
7711 -7243 -94 0
-7712 7245 0
-7712 143 0
7712 -7245 -143 0
-7713 7247 0
-7713 140 0
7713 -7247 -140 0
-7714 7249 0
-7714 136 0
7714 -7249 -136 0
-7715 7251 0
-7715 191 0
7715 -7251 -191 0
-7716 7253 0
-7716 188 0
7716 -7253 -188 0
-7717 7700 7701 0
-7717 -7700 -7701 0
7717 -7700 7701 0
7717 7700 -7701 0
-7718 7717 7702 0
-7718 -7717 -7702 0
7718 -7717 7702 0
7718 7717 -7702 0
-7719 7718 7703 0
-7719 -7718 -7703 0
7719 -7718 7703 0
7719 7718 -7703 0
-7720 7719 7704 0
-7720 -7719 -7704 0
7720 -7719 7704 0
7720 7719 -7704 0
-7721 7720 7705 0
-7721 -7720 -7705 0
7721 -7720 7705 0
7721 7720 -7705 0
-7722 7721 7706 0
-7722 -7721 -7706 0
7722 -7721 7706 0
7722 7721 -7706 0
-7723 7722 7707 0
-7723 -7722 -7707 0
7723 -7722 7707 0
7723 7722 -7707 0
-7724 7723 7708 0
-7724 -7723 -7708 0
7724 -7723 7708 0
7724 7723 -7708 0
-7725 7724 7709 0
-7725 -7724 -7709 0
7725 -7724 7709 0
7725 7724 -7709 0
-7726 7725 7710 0
-7726 -7725 -7710 0
7726 -7725 7710 0
7726 7725 -7710 0
-7727 7726 7711 0
-7727 -7726 -7711 0
7727 -7726 7711 0
7727 7726 -7711 0
-7728 7727 7712 0
-7728 -7727 -7712 0
7728 -7727 7712 0
7728 7727 -7712 0
-7729 7728 7713 0
-7729 -7728 -7713 0
7729 -7728 7713 0
7729 7728 -7713 0
-7730 7729 7714 0
-7730 -7729 -7714 0
7730 -7729 7714 0
7730 7729 -7714 0
-7731 7730 7715 0
-7731 -7730 -7715 0
7731 -7730 7715 0
7731 7730 -7715 0
-7732 7731 7716 0
-7732 -7731 -7716 0
7732 -7731 7716 0
7732 7731 -7716 0
-7732 0
-7733 7221 0
-7733 48 0
7733 -7221 -48 0
-7734 7223 0
-7734 43 0
7734 -7223 -43 0
-7735 7225 0
-7735 38 0
7735 -7225 -38 0
-7736 7227 0
-7736 48 0
7736 -7227 -48 0
-7737 7229 0
-7737 43 0
7737 -7229 -43 0
-7738 7231 0
-7738 38 0
7738 -7231 -38 0
-7739 7233 0
-7739 96 0
7739 -7233 -96 0
-7740 7235 0
-7740 91 0
7740 -7235 -91 0
-7741 7237 0
-7741 86 0
7741 -7237 -86 0
-7742 7239 0
-7742 96 0
7742 -7239 -96 0
-7743 7241 0
-7743 91 0
7743 -7241 -91 0
-7744 7243 0
-7744 86 0
7744 -7243 -86 0
-7745 7245 0
-7745 144 0
7745 -7245 -144 0
-7746 7247 0
-7746 139 0
7746 -7247 -139 0
-7747 7249 0
-7747 134 0
7747 -7249 -134 0
-7748 7251 0
-7748 192 0
7748 -7251 -192 0
-7749 7253 0
-7749 192 0
7749 -7253 -192 0
-7750 7733 7734 0
-7750 -7733 -7734 0
7750 -7733 7734 0
7750 7733 -7734 0
-7751 7750 7735 0
-7751 -7750 -7735 0
7751 -7750 7735 0
7751 7750 -7735 0
-7752 7751 7736 0
-7752 -7751 -7736 0
7752 -7751 7736 0
7752 7751 -7736 0
-7753 7752 7737 0
-7753 -7752 -7737 0
7753 -7752 7737 0
7753 7752 -7737 0
-7754 7753 7738 0
-7754 -7753 -7738 0
7754 -7753 7738 0
7754 7753 -7738 0
-7755 7754 7739 0
-7755 -7754 -7739 0
7755 -7754 7739 0
7755 7754 -7739 0
-7756 7755 7740 0
-7756 -7755 -7740 0
7756 -7755 7740 0
7756 7755 -7740 0
-7757 7756 7741 0
-7757 -7756 -7741 0
7757 -7756 7741 0
7757 7756 -7741 0
-7758 7757 7742 0
-7758 -7757 -7742 0
7758 -7757 7742 0
7758 7757 -7742 0
-7759 7758 7743 0
-7759 -7758 -7743 0
7759 -7758 7743 0
7759 7758 -7743 0
-7760 7759 7744 0
-7760 -7759 -7744 0
7760 -7759 7744 0
7760 7759 -7744 0
-7761 7760 7745 0
-7761 -7760 -7745 0
7761 -7760 7745 0
7761 7760 -7745 0
-7762 7761 7746 0
-7762 -7761 -7746 0
7762 -7761 7746 0
7762 7761 -7746 0
-7763 7762 7747 0
-7763 -7762 -7747 0
7763 -7762 7747 0
7763 7762 -7747 0
-7764 7763 7748 0
-7764 -7763 -7748 0
7764 -7763 7748 0
7764 7763 -7748 0
-7765 7764 7749 0
-7765 -7764 -7749 0
7765 -7764 7749 0
7765 7764 -7749 0
-7765 0
-7766 5 0
-7766 24 0
7766 -5 -24 0
-7767 7766 0
-7767 33 0
7767 -7766 -33 0
-7768 6 0
-7768 19 0
7768 -6 -19 0
-7769 7768 0
-7769 33 0
7769 -7768 -33 0
-7770 10 0
-7770 26 0
7770 -10 -26 0
-7771 7770 0
-7771 33 0
7771 -7770 -33 0
-7772 18 0
-7772 14 0
7772 -18 -14 0
-7773 7772 0
-7773 33 0
7773 -7772 -33 0
-7774 22 0
-7774 9 0
7774 -22 -9 0
-7775 7774 0
-7775 33 0
7775 -7774 -33 0
-7776 23 0
-7776 7 0
7776 -23 -7 0
-7777 7776 0
-7777 33 0
7777 -7776 -33 0
-7778 53 0
-7778 72 0
7778 -53 -72 0
-7779 7778 0
-7779 81 0
7779 -7778 -81 0
-7780 54 0
-7780 67 0
7780 -54 -67 0
-7781 7780 0
-7781 81 0
7781 -7780 -81 0
-7782 58 0
-7782 74 0
7782 -58 -74 0
-7783 7782 0
-7783 81 0
7783 -7782 -81 0
-7784 66 0
-7784 62 0
7784 -66 -62 0
-7785 7784 0
-7785 81 0
7785 -7784 -81 0
-7786 70 0
-7786 57 0
7786 -70 -57 0
-7787 7786 0
-7787 81 0
7787 -7786 -81 0
-7788 71 0
-7788 55 0
7788 -71 -55 0
-7789 7788 0
-7789 81 0
7789 -7788 -81 0
-7790 101 0
-7790 120 0
7790 -101 -120 0
-7791 7790 0
-7791 129 0
7791 -7790 -129 0
-7792 102 0
-7792 115 0
7792 -102 -115 0
-7793 7792 0
-7793 129 0
7793 -7792 -129 0
-7794 106 0
-7794 122 0
7794 -106 -122 0
-7795 7794 0
-7795 129 0
7795 -7794 -129 0
-7796 149 0
-7796 168 0
7796 -149 -168 0
-7797 7796 0
-7797 177 0
7797 -7796 -177 0
-7798 162 0
-7798 158 0
7798 -162 -158 0
-7799 7798 0
-7799 177 0
7799 -7798 -177 0
-7800 7767 7769 0
-7800 -7767 -7769 0
7800 -7767 7769 0
7800 7767 -7769 0
-7801 7800 7771 0
-7801 -7800 -7771 0
7801 -7800 7771 0
7801 7800 -7771 0
-7802 7801 7773 0
-7802 -7801 -7773 0
7802 -7801 7773 0
7802 7801 -7773 0
-7803 7802 7775 0
-7803 -7802 -7775 0
7803 -7802 7775 0
7803 7802 -7775 0
-7804 7803 7777 0
-7804 -7803 -7777 0
7804 -7803 7777 0
7804 7803 -7777 0
-7805 7804 7779 0
-7805 -7804 -7779 0
7805 -7804 7779 0
7805 7804 -7779 0
-7806 7805 7781 0
-7806 -7805 -7781 0
7806 -7805 7781 0
7806 7805 -7781 0
-7807 7806 7783 0
-7807 -7806 -7783 0
7807 -7806 7783 0
7807 7806 -7783 0
-7808 7807 7785 0
-7808 -7807 -7785 0
7808 -7807 7785 0
7808 7807 -7785 0
-7809 7808 7787 0
-7809 -7808 -7787 0
7809 -7808 7787 0
7809 7808 -7787 0
-7810 7809 7789 0
-7810 -7809 -7789 0
7810 -7809 7789 0
7810 7809 -7789 0
-7811 7810 7791 0
-7811 -7810 -7791 0
7811 -7810 7791 0
7811 7810 -7791 0
-7812 7811 7793 0
-7812 -7811 -7793 0
7812 -7811 7793 0
7812 7811 -7793 0
-7813 7812 7795 0
-7813 -7812 -7795 0
7813 -7812 7795 0
7813 7812 -7795 0
-7814 7813 7797 0
-7814 -7813 -7797 0
7814 -7813 7797 0
7814 7813 -7797 0
-7815 7814 7799 0
-7815 -7814 -7799 0
7815 -7814 7799 0
7815 7814 -7799 0
-7815 0
-7816 7766 0
-7816 34 0
7816 -7766 -34 0
-7817 7768 0
-7817 34 0
7817 -7768 -34 0
-7818 7770 0
-7818 35 0
7818 -7770 -35 0
-7819 7772 0
-7819 37 0
7819 -7772 -37 0
-7820 7774 0
-7820 37 0
7820 -7774 -37 0
-7821 7776 0
-7821 41 0
7821 -7776 -41 0
-7822 7778 0
-7822 82 0
7822 -7778 -82 0
-7823 7780 0
-7823 82 0
7823 -7780 -82 0
-7824 7782 0
-7824 83 0
7824 -7782 -83 0
-7825 7784 0
-7825 85 0
7825 -7784 -85 0
-7826 7786 0
-7826 85 0
7826 -7786 -85 0
-7827 7788 0
-7827 89 0
7827 -7788 -89 0
-7828 7790 0
-7828 130 0
7828 -7790 -130 0
-7829 7792 0
-7829 130 0
7829 -7792 -130 0
-7830 7794 0
-7830 131 0
7830 -7794 -131 0
-7831 7796 0
-7831 178 0
7831 -7796 -178 0
-7832 7798 0
-7832 181 0
7832 -7798 -181 0
-7833 7816 7817 0
-7833 -7816 -7817 0
7833 -7816 7817 0
7833 7816 -7817 0
-7834 7833 7818 0
-7834 -7833 -7818 0
7834 -7833 7818 0
7834 7833 -7818 0
-7835 7834 7819 0
-7835 -7834 -7819 0
7835 -7834 7819 0
7835 7834 -7819 0
-7836 7835 7820 0
-7836 -7835 -7820 0
7836 -7835 7820 0
7836 7835 -7820 0
-7837 7836 7821 0
-7837 -7836 -7821 0
7837 -7836 7821 0
7837 7836 -7821 0
-7838 7837 7822 0
-7838 -7837 -7822 0
7838 -7837 7822 0
7838 7837 -7822 0
-7839 7838 7823 0
-7839 -7838 -7823 0
7839 -7838 7823 0
7839 7838 -7823 0
-7840 7839 7824 0
-7840 -7839 -7824 0
7840 -7839 7824 0
7840 7839 -7824 0
-7841 7840 7825 0
-7841 -7840 -7825 0
7841 -7840 7825 0
7841 7840 -7825 0
-7842 7841 7826 0
-7842 -7841 -7826 0
7842 -7841 7826 0
7842 7841 -7826 0
-7843 7842 7827 0
-7843 -7842 -7827 0
7843 -7842 7827 0
7843 7842 -7827 0
-7844 7843 7828 0
-7844 -7843 -7828 0
7844 -7843 7828 0
7844 7843 -7828 0
-7845 7844 7829 0
-7845 -7844 -7829 0
7845 -7844 7829 0
7845 7844 -7829 0
-7846 7845 7830 0
-7846 -7845 -7830 0
7846 -7845 7830 0
7846 7845 -7830 0
-7847 7846 7831 0
-7847 -7846 -7831 0
7847 -7846 7831 0
7847 7846 -7831 0
-7848 7847 7832 0
-7848 -7847 -7832 0
7848 -7847 7832 0
7848 7847 -7832 0
-7848 0
-7849 7766 0
-7849 35 0
7849 -7766 -35 0
-7850 7768 0
-7850 36 0
7850 -7768 -36 0
-7851 7770 0
-7851 36 0
7851 -7770 -36 0
-7852 7772 0
-7852 41 0
7852 -7772 -41 0
-7853 7774 0
-7853 45 0
7853 -7774 -45 0
-7854 7776 0
-7854 45 0
7854 -7776 -45 0
-7855 7778 0
-7855 83 0
7855 -7778 -83 0
-7856 7780 0
-7856 84 0
7856 -7780 -84 0
-7857 7782 0
-7857 84 0
7857 -7782 -84 0
-7858 7784 0
-7858 89 0
7858 -7784 -89 0
-7859 7786 0
-7859 93 0
7859 -7786 -93 0
-7860 7788 0
-7860 93 0
7860 -7788 -93 0
-7861 7790 0
-7861 131 0
7861 -7790 -131 0
-7862 7792 0
-7862 132 0
7862 -7792 -132 0
-7863 7794 0
-7863 132 0
7863 -7794 -132 0
-7864 7796 0
-7864 179 0
7864 -7796 -179 0
-7865 7798 0
-7865 185 0
7865 -7798 -185 0
-7866 7849 7850 0
-7866 -7849 -7850 0
7866 -7849 7850 0
7866 7849 -7850 0
-7867 7866 7851 0
-7867 -7866 -7851 0
7867 -7866 7851 0
7867 7866 -7851 0
-7868 7867 7852 0
-7868 -7867 -7852 0
7868 -7867 7852 0
7868 7867 -7852 0
-7869 7868 7853 0
-7869 -7868 -7853 0
7869 -7868 7853 0
7869 7868 -7853 0
-7870 7869 7854 0
-7870 -7869 -7854 0
7870 -7869 7854 0
7870 7869 -7854 0
-7871 7870 7855 0
-7871 -7870 -7855 0
7871 -7870 7855 0
7871 7870 -7855 0
-7872 7871 7856 0
-7872 -7871 -7856 0
7872 -7871 7856 0
7872 7871 -7856 0
-7873 7872 7857 0
-7873 -7872 -7857 0
7873 -7872 7857 0
7873 7872 -7857 0
-7874 7873 7858 0
-7874 -7873 -7858 0
7874 -7873 7858 0
7874 7873 -7858 0
-7875 7874 7859 0
-7875 -7874 -7859 0
7875 -7874 7859 0
7875 7874 -7859 0
-7876 7875 7860 0
-7876 -7875 -7860 0
7876 -7875 7860 0
7876 7875 -7860 0
-7877 7876 7861 0
-7877 -7876 -7861 0
7877 -7876 7861 0
7877 7876 -7861 0
-7878 7877 7862 0
-7878 -7877 -7862 0
7878 -7877 7862 0
7878 7877 -7862 0
-7879 7878 7863 0
-7879 -7878 -7863 0
7879 -7878 7863 0
7879 7878 -7863 0
-7880 7879 7864 0
-7880 -7879 -7864 0
7880 -7879 7864 0
7880 7879 -7864 0
-7881 7880 7865 0
-7881 -7880 -7865 0
7881 -7880 7865 0
7881 7880 -7865 0
-7881 0
-7882 7766 0
-7882 36 0
7882 -7766 -36 0
-7883 7768 0
-7883 35 0
7883 -7768 -35 0
-7884 7770 0
-7884 34 0
7884 -7770 -34 0
-7885 7772 0
-7885 45 0
7885 -7772 -45 0
-7886 7774 0
-7886 41 0
7886 -7774 -41 0
-7887 7776 0
-7887 37 0
7887 -7776 -37 0
-7888 7778 0
-7888 84 0
7888 -7778 -84 0
-7889 7780 0
-7889 83 0
7889 -7780 -83 0
-7890 7782 0
-7890 82 0
7890 -7782 -82 0
-7891 7784 0
-7891 93 0
7891 -7784 -93 0
-7892 7786 0
-7892 89 0
7892 -7786 -89 0
-7893 7788 0
-7893 85 0
7893 -7788 -85 0
-7894 7790 0
-7894 132 0
7894 -7790 -132 0
-7895 7792 0
-7895 131 0
7895 -7792 -131 0
-7896 7794 0
-7896 130 0
7896 -7794 -130 0
-7897 7796 0
-7897 180 0
7897 -7796 -180 0
-7898 7798 0
-7898 189 0
7898 -7798 -189 0
-7899 7882 7883 0
-7899 -7882 -7883 0
7899 -7882 7883 0
7899 7882 -7883 0
-7900 7899 7884 0
-7900 -7899 -7884 0
7900 -7899 7884 0
7900 7899 -7884 0
-7901 7900 7885 0
-7901 -7900 -7885 0
7901 -7900 7885 0
7901 7900 -7885 0
-7902 7901 7886 0
-7902 -7901 -7886 0
7902 -7901 7886 0
7902 7901 -7886 0
-7903 7902 7887 0
-7903 -7902 -7887 0
7903 -7902 7887 0
7903 7902 -7887 0
-7904 7903 7888 0
-7904 -7903 -7888 0
7904 -7903 7888 0
7904 7903 -7888 0
-7905 7904 7889 0
-7905 -7904 -7889 0
7905 -7904 7889 0
7905 7904 -7889 0
-7906 7905 7890 0
-7906 -7905 -7890 0
7906 -7905 7890 0
7906 7905 -7890 0
-7907 7906 7891 0
-7907 -7906 -7891 0
7907 -7906 7891 0
7907 7906 -7891 0
-7908 7907 7892 0
-7908 -7907 -7892 0
7908 -7907 7892 0
7908 7907 -7892 0
-7909 7908 7893 0
-7909 -7908 -7893 0
7909 -7908 7893 0
7909 7908 -7893 0
-7910 7909 7894 0
-7910 -7909 -7894 0
7910 -7909 7894 0
7910 7909 -7894 0
-7911 7910 7895 0
-7911 -7910 -7895 0
7911 -7910 7895 0
7911 7910 -7895 0
-7912 7911 7896 0
-7912 -7911 -7896 0
7912 -7911 7896 0
7912 7911 -7896 0
-7913 7912 7897 0
-7913 -7912 -7897 0
7913 -7912 7897 0
7913 7912 -7897 0
-7914 7913 7898 0
-7914 -7913 -7898 0
7914 -7913 7898 0
7914 7913 -7898 0
-7914 0
-7915 7766 0
-7915 37 0
7915 -7766 -37 0
-7916 7768 0
-7916 37 0
7916 -7768 -37 0
-7917 7770 0
-7917 41 0
7917 -7770 -41 0
-7918 7772 0
-7918 34 0
7918 -7772 -34 0
-7919 7774 0
-7919 34 0
7919 -7774 -34 0
-7920 7776 0
-7920 35 0
7920 -7776 -35 0
-7921 7778 0
-7921 85 0
7921 -7778 -85 0
-7922 7780 0
-7922 85 0
7922 -7780 -85 0
-7923 7782 0
-7923 89 0
7923 -7782 -89 0
-7924 7784 0
-7924 82 0
7924 -7784 -82 0
-7925 7786 0
-7925 82 0
7925 -7786 -82 0
-7926 7788 0
-7926 83 0
7926 -7788 -83 0
-7927 7790 0
-7927 133 0
7927 -7790 -133 0
-7928 7792 0
-7928 133 0
7928 -7792 -133 0
-7929 7794 0
-7929 137 0
7929 -7794 -137 0
-7930 7796 0
-7930 181 0
7930 -7796 -181 0
-7931 7798 0
-7931 178 0
7931 -7798 -178 0
-7932 7915 7916 0
-7932 -7915 -7916 0
7932 -7915 7916 0
7932 7915 -7916 0
-7933 7932 7917 0
-7933 -7932 -7917 0
7933 -7932 7917 0
7933 7932 -7917 0
-7934 7933 7918 0
-7934 -7933 -7918 0
7934 -7933 7918 0
7934 7933 -7918 0
-7935 7934 7919 0
-7935 -7934 -7919 0
7935 -7934 7919 0
7935 7934 -7919 0
-7936 7935 7920 0
-7936 -7935 -7920 0
7936 -7935 7920 0
7936 7935 -7920 0
-7937 7936 7921 0
-7937 -7936 -7921 0
7937 -7936 7921 0
7937 7936 -7921 0
-7938 7937 7922 0
-7938 -7937 -7922 0
7938 -7937 7922 0
7938 7937 -7922 0
-7939 7938 7923 0
-7939 -7938 -7923 0
7939 -7938 7923 0
7939 7938 -7923 0
-7940 7939 7924 0
-7940 -7939 -7924 0
7940 -7939 7924 0
7940 7939 -7924 0
-7941 7940 7925 0
-7941 -7940 -7925 0
7941 -7940 7925 0
7941 7940 -7925 0
-7942 7941 7926 0
-7942 -7941 -7926 0
7942 -7941 7926 0
7942 7941 -7926 0
-7943 7942 7927 0
-7943 -7942 -7927 0
7943 -7942 7927 0
7943 7942 -7927 0
-7944 7943 7928 0
-7944 -7943 -7928 0
7944 -7943 7928 0
7944 7943 -7928 0
-7945 7944 7929 0
-7945 -7944 -7929 0
7945 -7944 7929 0
7945 7944 -7929 0
-7946 7945 7930 0
-7946 -7945 -7930 0
7946 -7945 7930 0
7946 7945 -7930 0
-7947 7946 7931 0
-7947 -7946 -7931 0
7947 -7946 7931 0
7947 7946 -7931 0
-7947 0
-7948 7766 0
-7948 38 0
7948 -7766 -38 0
-7949 7768 0
-7949 38 0
7949 -7768 -38 0
-7950 7770 0
-7950 43 0
7950 -7770 -43 0
-7951 7772 0
-7951 38 0
7951 -7772 -38 0
-7952 7774 0
-7952 38 0
7952 -7774 -38 0
-7953 7776 0
-7953 43 0
7953 -7776 -43 0
-7954 7778 0
-7954 86 0
7954 -7778 -86 0
-7955 7780 0
-7955 86 0
7955 -7780 -86 0
-7956 7782 0
-7956 91 0
7956 -7782 -91 0
-7957 7784 0
-7957 86 0
7957 -7784 -86 0
-7958 7786 0
-7958 86 0
7958 -7786 -86 0
-7959 7788 0
-7959 91 0
7959 -7788 -91 0
-7960 7790 0
-7960 134 0
7960 -7790 -134 0
-7961 7792 0
-7961 134 0
7961 -7792 -134 0
-7962 7794 0
-7962 139 0
7962 -7794 -139 0
-7963 7796 0
-7963 182 0
7963 -7796 -182 0
-7964 7798 0
-7964 182 0
7964 -7798 -182 0
-7965 7948 7949 0
-7965 -7948 -7949 0
7965 -7948 7949 0
7965 7948 -7949 0
-7966 7965 7950 0
-7966 -7965 -7950 0
7966 -7965 7950 0
7966 7965 -7950 0
-7967 7966 7951 0
-7967 -7966 -7951 0
7967 -7966 7951 0
7967 7966 -7951 0
-7968 7967 7952 0
-7968 -7967 -7952 0
7968 -7967 7952 0
7968 7967 -7952 0
-7969 7968 7953 0
-7969 -7968 -7953 0
7969 -7968 7953 0
7969 7968 -7953 0
-7970 7969 7954 0
-7970 -7969 -7954 0
7970 -7969 7954 0
7970 7969 -7954 0
-7971 7970 7955 0
-7971 -7970 -7955 0
7971 -7970 7955 0
7971 7970 -7955 0
-7972 7971 7956 0
-7972 -7971 -7956 0
7972 -7971 7956 0
7972 7971 -7956 0
-7973 7972 7957 0
-7973 -7972 -7957 0
7973 -7972 7957 0
7973 7972 -7957 0
-7974 7973 7958 0
-7974 -7973 -7958 0
7974 -7973 7958 0
7974 7973 -7958 0
-7975 7974 7959 0
-7975 -7974 -7959 0
7975 -7974 7959 0
7975 7974 -7959 0
-7976 7975 7960 0
-7976 -7975 -7960 0
7976 -7975 7960 0
7976 7975 -7960 0
-7977 7976 7961 0
-7977 -7976 -7961 0
7977 -7976 7961 0
7977 7976 -7961 0
-7978 7977 7962 0
-7978 -7977 -7962 0
7978 -7977 7962 0
7978 7977 -7962 0
-7979 7978 7963 0
-7979 -7978 -7963 0
7979 -7978 7963 0
7979 7978 -7963 0
-7980 7979 7964 0
-7980 -7979 -7964 0
7980 -7979 7964 0
7980 7979 -7964 0
-7980 0
-7981 7766 0
-7981 39 0
7981 -7766 -39 0
-7982 7768 0
-7982 40 0
7982 -7768 -40 0
-7983 7770 0
-7983 44 0
7983 -7770 -44 0
-7984 7772 0
-7984 42 0
7984 -7772 -42 0
-7985 7774 0
-7985 46 0
7985 -7774 -46 0
-7986 7776 0
-7986 47 0
7986 -7776 -47 0
-7987 7778 0
-7987 87 0
7987 -7778 -87 0
-7988 7780 0
-7988 88 0
7988 -7780 -88 0
-7989 7782 0
-7989 92 0
7989 -7782 -92 0
-7990 7784 0
-7990 90 0
7990 -7784 -90 0
-7991 7786 0
-7991 94 0
7991 -7786 -94 0
-7992 7788 0
-7992 95 0
7992 -7788 -95 0
-7993 7790 0
-7993 135 0
7993 -7790 -135 0
-7994 7792 0
-7994 136 0
7994 -7792 -136 0
-7995 7794 0
-7995 140 0
7995 -7794 -140 0
-7996 7796 0
-7996 183 0
7996 -7796 -183 0
-7997 7798 0
-7997 186 0
7997 -7798 -186 0
-7998 7981 7982 0
-7998 -7981 -7982 0
7998 -7981 7982 0
7998 7981 -7982 0
-7999 7998 7983 0
-7999 -7998 -7983 0
7999 -7998 7983 0
7999 7998 -7983 0
-8000 7999 7984 0
-8000 -7999 -7984 0
8000 -7999 7984 0
8000 7999 -7984 0
-8001 8000 7985 0
-8001 -8000 -7985 0
8001 -8000 7985 0
8001 8000 -7985 0
-8002 8001 7986 0
-8002 -8001 -7986 0
8002 -8001 7986 0
8002 8001 -7986 0
-8003 8002 7987 0
-8003 -8002 -7987 0
8003 -8002 7987 0
8003 8002 -7987 0
-8004 8003 7988 0
-8004 -8003 -7988 0
8004 -8003 7988 0
8004 8003 -7988 0
-8005 8004 7989 0
-8005 -8004 -7989 0
8005 -8004 7989 0
8005 8004 -7989 0
-8006 8005 7990 0
-8006 -8005 -7990 0
8006 -8005 7990 0
8006 8005 -7990 0
-8007 8006 7991 0
-8007 -8006 -7991 0
8007 -8006 7991 0
8007 8006 -7991 0
-8008 8007 7992 0
-8008 -8007 -7992 0
8008 -8007 7992 0
8008 8007 -7992 0
-8009 8008 7993 0
-8009 -8008 -7993 0
8009 -8008 7993 0
8009 8008 -7993 0
-8010 8009 7994 0
-8010 -8009 -7994 0
8010 -8009 7994 0
8010 8009 -7994 0
-8011 8010 7995 0
-8011 -8010 -7995 0
8011 -8010 7995 0
8011 8010 -7995 0
-8012 8011 7996 0
-8012 -8011 -7996 0
8012 -8011 7996 0
8012 8011 -7996 0
-8013 8012 7997 0
-8013 -8012 -7997 0
8013 -8012 7997 0
8013 8012 -7997 0
-8013 0
-8014 7766 0
-8014 40 0
8014 -7766 -40 0
-8015 7768 0
-8015 39 0
8015 -7768 -39 0
-8016 7770 0
-8016 42 0
8016 -7770 -42 0
-8017 7772 0
-8017 46 0
8017 -7772 -46 0
-8018 7774 0
-8018 42 0
8018 -7774 -42 0
-8019 7776 0
-8019 39 0
8019 -7776 -39 0
-8020 7778 0
-8020 88 0
8020 -7778 -88 0
-8021 7780 0
-8021 87 0
8021 -7780 -87 0
-8022 7782 0
-8022 90 0
8022 -7782 -90 0
-8023 7784 0
-8023 94 0
8023 -7784 -94 0
-8024 7786 0
-8024 90 0
8024 -7786 -90 0
-8025 7788 0
-8025 87 0
8025 -7788 -87 0
-8026 7790 0
-8026 136 0
8026 -7790 -136 0
-8027 7792 0
-8027 135 0
8027 -7792 -135 0
-8028 7794 0
-8028 138 0
8028 -7794 -138 0
-8029 7796 0
-8029 184 0
8029 -7796 -184 0
-8030 7798 0
-8030 190 0
8030 -7798 -190 0
-8031 8014 8015 0
-8031 -8014 -8015 0
8031 -8014 8015 0
8031 8014 -8015 0
-8032 8031 8016 0
-8032 -8031 -8016 0
8032 -8031 8016 0
8032 8031 -8016 0
-8033 8032 8017 0
-8033 -8032 -8017 0
8033 -8032 8017 0
8033 8032 -8017 0
-8034 8033 8018 0
-8034 -8033 -8018 0
8034 -8033 8018 0
8034 8033 -8018 0
-8035 8034 8019 0
-8035 -8034 -8019 0
8035 -8034 8019 0
8035 8034 -8019 0
-8036 8035 8020 0
-8036 -8035 -8020 0
8036 -8035 8020 0
8036 8035 -8020 0
-8037 8036 8021 0
-8037 -8036 -8021 0
8037 -8036 8021 0
8037 8036 -8021 0
-8038 8037 8022 0
-8038 -8037 -8022 0
8038 -8037 8022 0
8038 8037 -8022 0
-8039 8038 8023 0
-8039 -8038 -8023 0
8039 -8038 8023 0
8039 8038 -8023 0
-8040 8039 8024 0
-8040 -8039 -8024 0
8040 -8039 8024 0
8040 8039 -8024 0
-8041 8040 8025 0
-8041 -8040 -8025 0
8041 -8040 8025 0
8041 8040 -8025 0
-8042 8041 8026 0
-8042 -8041 -8026 0
8042 -8041 8026 0
8042 8041 -8026 0
-8043 8042 8027 0
-8043 -8042 -8027 0
8043 -8042 8027 0
8043 8042 -8027 0
-8044 8043 8028 0
-8044 -8043 -8028 0
8044 -8043 8028 0
8044 8043 -8028 0
-8045 8044 8029 0
-8045 -8044 -8029 0
8045 -8044 8029 0
8045 8044 -8029 0
-8046 8045 8030 0
-8046 -8045 -8030 0
8046 -8045 8030 0
8046 8045 -8030 0
-8046 0
-8047 7766 0
-8047 41 0
8047 -7766 -41 0
-8048 7768 0
-8048 45 0
8048 -7768 -45 0
-8049 7770 0
-8049 45 0
8049 -7770 -45 0
-8050 7772 0
-8050 35 0
8050 -7772 -35 0
-8051 7774 0
-8051 36 0
8051 -7774 -36 0
-8052 7776 0
-8052 36 0
8052 -7776 -36 0
-8053 7778 0
-8053 89 0
8053 -7778 -89 0
-8054 7780 0
-8054 93 0
8054 -7780 -93 0
-8055 7782 0
-8055 93 0
8055 -7782 -93 0
-8056 7784 0
-8056 83 0
8056 -7784 -83 0
-8057 7786 0
-8057 84 0
8057 -7786 -84 0
-8058 7788 0
-8058 84 0
8058 -7788 -84 0
-8059 7790 0
-8059 137 0
8059 -7790 -137 0
-8060 7792 0
-8060 141 0
8060 -7792 -141 0
-8061 7794 0
-8061 141 0
8061 -7794 -141 0
-8062 7796 0
-8062 185 0
8062 -7796 -185 0
-8063 7798 0
-8063 179 0
8063 -7798 -179 0
-8064 8047 8048 0
-8064 -8047 -8048 0
8064 -8047 8048 0
8064 8047 -8048 0
-8065 8064 8049 0
-8065 -8064 -8049 0
8065 -8064 8049 0
8065 8064 -8049 0
-8066 8065 8050 0
-8066 -8065 -8050 0
8066 -8065 8050 0
8066 8065 -8050 0
-8067 8066 8051 0
-8067 -8066 -8051 0
8067 -8066 8051 0
8067 8066 -8051 0
-8068 8067 8052 0
-8068 -8067 -8052 0
8068 -8067 8052 0
8068 8067 -8052 0
-8069 8068 8053 0
-8069 -8068 -8053 0
8069 -8068 8053 0
8069 8068 -8053 0
-8070 8069 8054 0
-8070 -8069 -8054 0
8070 -8069 8054 0
8070 8069 -8054 0
-8071 8070 8055 0
-8071 -8070 -8055 0
8071 -8070 8055 0
8071 8070 -8055 0
-8072 8071 8056 0
-8072 -8071 -8056 0
8072 -8071 8056 0
8072 8071 -8056 0
-8073 8072 8057 0
-8073 -8072 -8057 0
8073 -8072 8057 0
8073 8072 -8057 0
-8074 8073 8058 0
-8074 -8073 -8058 0
8074 -8073 8058 0
8074 8073 -8058 0
-8075 8074 8059 0
-8075 -8074 -8059 0
8075 -8074 8059 0
8075 8074 -8059 0
-8076 8075 8060 0
-8076 -8075 -8060 0
8076 -8075 8060 0
8076 8075 -8060 0
-8077 8076 8061 0
-8077 -8076 -8061 0
8077 -8076 8061 0
8077 8076 -8061 0
-8078 8077 8062 0
-8078 -8077 -8062 0
8078 -8077 8062 0
8078 8077 -8062 0
-8079 8078 8063 0
-8079 -8078 -8063 0
8079 -8078 8063 0
8079 8078 -8063 0
-8079 0
-8080 7766 0
-8080 42 0
8080 -7766 -42 0
-8081 7768 0
-8081 46 0
8081 -7768 -46 0
-8082 7770 0
-8082 47 0
8082 -7770 -47 0
-8083 7772 0
-8083 39 0
8083 -7772 -39 0
-8084 7774 0
-8084 40 0
8084 -7774 -40 0
-8085 7776 0
-8085 44 0
8085 -7776 -44 0
-8086 7778 0
-8086 90 0
8086 -7778 -90 0
-8087 7780 0
-8087 94 0
8087 -7780 -94 0
-8088 7782 0
-8088 95 0
8088 -7782 -95 0
-8089 7784 0
-8089 87 0
8089 -7784 -87 0
-8090 7786 0
-8090 88 0
8090 -7786 -88 0
-8091 7788 0
-8091 92 0
8091 -7788 -92 0
-8092 7790 0
-8092 138 0
8092 -7790 -138 0
-8093 7792 0
-8093 142 0
8093 -7792 -142 0
-8094 7794 0
-8094 143 0
8094 -7794 -143 0
-8095 7796 0
-8095 186 0
8095 -7796 -186 0
-8096 7798 0
-8096 183 0
8096 -7798 -183 0
-8097 8080 8081 0
-8097 -8080 -8081 0
8097 -8080 8081 0
8097 8080 -8081 0
-8098 8097 8082 0
-8098 -8097 -8082 0
8098 -8097 8082 0
8098 8097 -8082 0
-8099 8098 8083 0
-8099 -8098 -8083 0
8099 -8098 8083 0
8099 8098 -8083 0
-8100 8099 8084 0
-8100 -8099 -8084 0
8100 -8099 8084 0
8100 8099 -8084 0
-8101 8100 8085 0
-8101 -8100 -8085 0
8101 -8100 8085 0
8101 8100 -8085 0
-8102 8101 8086 0
-8102 -8101 -8086 0
8102 -8101 8086 0
8102 8101 -8086 0
-8103 8102 8087 0
-8103 -8102 -8087 0
8103 -8102 8087 0
8103 8102 -8087 0
-8104 8103 8088 0
-8104 -8103 -8088 0
8104 -8103 8088 0
8104 8103 -8088 0
-8105 8104 8089 0
-8105 -8104 -8089 0
8105 -8104 8089 0
8105 8104 -8089 0
-8106 8105 8090 0
-8106 -8105 -8090 0
8106 -8105 8090 0
8106 8105 -8090 0
-8107 8106 8091 0
-8107 -8106 -8091 0
8107 -8106 8091 0
8107 8106 -8091 0
-8108 8107 8092 0
-8108 -8107 -8092 0
8108 -8107 8092 0
8108 8107 -8092 0
-8109 8108 8093 0
-8109 -8108 -8093 0
8109 -8108 8093 0
8109 8108 -8093 0
-8110 8109 8094 0
-8110 -8109 -8094 0
8110 -8109 8094 0
8110 8109 -8094 0
-8111 8110 8095 0
-8111 -8110 -8095 0
8111 -8110 8095 0
8111 8110 -8095 0
-8112 8111 8096 0
-8112 -8111 -8096 0
8112 -8111 8096 0
8112 8111 -8096 0
-8112 0
-8113 7766 0
-8113 43 0
8113 -7766 -43 0
-8114 7768 0
-8114 48 0
8114 -7768 -48 0
-8115 7770 0
-8115 48 0
8115 -7770 -48 0
-8116 7772 0
-8116 43 0
8116 -7772 -43 0
-8117 7774 0
-8117 48 0
8117 -7774 -48 0
-8118 7776 0
-8118 48 0
8118 -7776 -48 0
-8119 7778 0
-8119 91 0
8119 -7778 -91 0
-8120 7780 0
-8120 96 0
8120 -7780 -96 0
-8121 7782 0
-8121 96 0
8121 -7782 -96 0
-8122 7784 0
-8122 91 0
8122 -7784 -91 0
-8123 7786 0
-8123 96 0
8123 -7786 -96 0
-8124 7788 0
-8124 96 0
8124 -7788 -96 0
-8125 7790 0
-8125 139 0
8125 -7790 -139 0
-8126 7792 0
-8126 144 0
8126 -7792 -144 0
-8127 7794 0
-8127 144 0
8127 -7794 -144 0
-8128 7796 0
-8128 187 0
8128 -7796 -187 0
-8129 7798 0
-8129 187 0
8129 -7798 -187 0
-8130 8113 8114 0
-8130 -8113 -8114 0
8130 -8113 8114 0
8130 8113 -8114 0
-8131 8130 8115 0
-8131 -8130 -8115 0
8131 -8130 8115 0
8131 8130 -8115 0
-8132 8131 8116 0
-8132 -8131 -8116 0
8132 -8131 8116 0
8132 8131 -8116 0
-8133 8132 8117 0
-8133 -8132 -8117 0
8133 -8132 8117 0
8133 8132 -8117 0
-8134 8133 8118 0
-8134 -8133 -8118 0
8134 -8133 8118 0
8134 8133 -8118 0
-8135 8134 8119 0
-8135 -8134 -8119 0
8135 -8134 8119 0
8135 8134 -8119 0
-8136 8135 8120 0
-8136 -8135 -8120 0
8136 -8135 8120 0
8136 8135 -8120 0
-8137 8136 8121 0
-8137 -8136 -8121 0
8137 -8136 8121 0
8137 8136 -8121 0
-8138 8137 8122 0
-8138 -8137 -8122 0
8138 -8137 8122 0
8138 8137 -8122 0
-8139 8138 8123 0
-8139 -8138 -8123 0
8139 -8138 8123 0
8139 8138 -8123 0
-8140 8139 8124 0
-8140 -8139 -8124 0
8140 -8139 8124 0
8140 8139 -8124 0
-8141 8140 8125 0
-8141 -8140 -8125 0
8141 -8140 8125 0
8141 8140 -8125 0
-8142 8141 8126 0
-8142 -8141 -8126 0
8142 -8141 8126 0
8142 8141 -8126 0
-8143 8142 8127 0
-8143 -8142 -8127 0
8143 -8142 8127 0
8143 8142 -8127 0
-8144 8143 8128 0
-8144 -8143 -8128 0
8144 -8143 8128 0
8144 8143 -8128 0
-8145 8144 8129 0
-8145 -8144 -8129 0
8145 -8144 8129 0
8145 8144 -8129 0
-8145 0
-8146 7766 0
-8146 44 0
8146 -7766 -44 0
-8147 7768 0
-8147 47 0
8147 -7768 -47 0
-8148 7770 0
-8148 46 0
8148 -7770 -46 0
-8149 7772 0
-8149 47 0
8149 -7772 -47 0
-8150 7774 0
-8150 44 0
8150 -7774 -44 0
-8151 7776 0
-8151 40 0
8151 -7776 -40 0
-8152 7778 0
-8152 92 0
8152 -7778 -92 0
-8153 7780 0
-8153 95 0
8153 -7780 -95 0
-8154 7782 0
-8154 94 0
8154 -7782 -94 0
-8155 7784 0
-8155 95 0
8155 -7784 -95 0
-8156 7786 0
-8156 92 0
8156 -7786 -92 0
-8157 7788 0
-8157 88 0
8157 -7788 -88 0
-8158 7790 0
-8158 140 0
8158 -7790 -140 0
-8159 7792 0
-8159 143 0
8159 -7792 -143 0
-8160 7794 0
-8160 142 0
8160 -7794 -142 0
-8161 7796 0
-8161 188 0
8161 -7796 -188 0
-8162 7798 0
-8162 191 0
8162 -7798 -191 0
-8163 8146 8147 0
-8163 -8146 -8147 0
8163 -8146 8147 0
8163 8146 -8147 0
-8164 8163 8148 0
-8164 -8163 -8148 0
8164 -8163 8148 0
8164 8163 -8148 0
-8165 8164 8149 0
-8165 -8164 -8149 0
8165 -8164 8149 0
8165 8164 -8149 0
-8166 8165 8150 0
-8166 -8165 -8150 0
8166 -8165 8150 0
8166 8165 -8150 0
-8167 8166 8151 0
-8167 -8166 -8151 0
8167 -8166 8151 0
8167 8166 -8151 0
-8168 8167 8152 0
-8168 -8167 -8152 0
8168 -8167 8152 0
8168 8167 -8152 0
-8169 8168 8153 0
-8169 -8168 -8153 0
8169 -8168 8153 0
8169 8168 -8153 0
-8170 8169 8154 0
-8170 -8169 -8154 0
8170 -8169 8154 0
8170 8169 -8154 0
-8171 8170 8155 0
-8171 -8170 -8155 0
8171 -8170 8155 0
8171 8170 -8155 0
-8172 8171 8156 0
-8172 -8171 -8156 0
8172 -8171 8156 0
8172 8171 -8156 0
-8173 8172 8157 0
-8173 -8172 -8157 0
8173 -8172 8157 0
8173 8172 -8157 0
-8174 8173 8158 0
-8174 -8173 -8158 0
8174 -8173 8158 0
8174 8173 -8158 0
-8175 8174 8159 0
-8175 -8174 -8159 0
8175 -8174 8159 0
8175 8174 -8159 0
-8176 8175 8160 0
-8176 -8175 -8160 0
8176 -8175 8160 0
8176 8175 -8160 0
-8177 8176 8161 0
-8177 -8176 -8161 0
8177 -8176 8161 0
8177 8176 -8161 0
-8178 8177 8162 0
-8178 -8177 -8162 0
8178 -8177 8162 0
8178 8177 -8162 0
-8178 0
-8179 7766 0
-8179 45 0
8179 -7766 -45 0
-8180 7768 0
-8180 41 0
8180 -7768 -41 0
-8181 7770 0
-8181 37 0
8181 -7770 -37 0
-8182 7772 0
-8182 36 0
8182 -7772 -36 0
-8183 7774 0
-8183 35 0
8183 -7774 -35 0
-8184 7776 0
-8184 34 0
8184 -7776 -34 0
-8185 7778 0
-8185 93 0
8185 -7778 -93 0
-8186 7780 0
-8186 89 0
8186 -7780 -89 0
-8187 7782 0
-8187 85 0
8187 -7782 -85 0
-8188 7784 0
-8188 84 0
8188 -7784 -84 0
-8189 7786 0
-8189 83 0
8189 -7786 -83 0
-8190 7788 0
-8190 82 0
8190 -7788 -82 0
-8191 7790 0
-8191 141 0
8191 -7790 -141 0
-8192 7792 0
-8192 137 0
8192 -7792 -137 0
-8193 7794 0
-8193 133 0
8193 -7794 -133 0
-8194 7796 0
-8194 189 0
8194 -7796 -189 0
-8195 7798 0
-8195 180 0
8195 -7798 -180 0
-8196 8179 8180 0
-8196 -8179 -8180 0
8196 -8179 8180 0
8196 8179 -8180 0
-8197 8196 8181 0
-8197 -8196 -8181 0
8197 -8196 8181 0
8197 8196 -8181 0
-8198 8197 8182 0
-8198 -8197 -8182 0
8198 -8197 8182 0
8198 8197 -8182 0
-8199 8198 8183 0
-8199 -8198 -8183 0
8199 -8198 8183 0
8199 8198 -8183 0
-8200 8199 8184 0
-8200 -8199 -8184 0
8200 -8199 8184 0
8200 8199 -8184 0
-8201 8200 8185 0
-8201 -8200 -8185 0
8201 -8200 8185 0
8201 8200 -8185 0
-8202 8201 8186 0
-8202 -8201 -8186 0
8202 -8201 8186 0
8202 8201 -8186 0
-8203 8202 8187 0
-8203 -8202 -8187 0
8203 -8202 8187 0
8203 8202 -8187 0
-8204 8203 8188 0
-8204 -8203 -8188 0
8204 -8203 8188 0
8204 8203 -8188 0
-8205 8204 8189 0
-8205 -8204 -8189 0
8205 -8204 8189 0
8205 8204 -8189 0
-8206 8205 8190 0
-8206 -8205 -8190 0
8206 -8205 8190 0
8206 8205 -8190 0
-8207 8206 8191 0
-8207 -8206 -8191 0
8207 -8206 8191 0
8207 8206 -8191 0
-8208 8207 8192 0
-8208 -8207 -8192 0
8208 -8207 8192 0
8208 8207 -8192 0
-8209 8208 8193 0
-8209 -8208 -8193 0
8209 -8208 8193 0
8209 8208 -8193 0
-8210 8209 8194 0
-8210 -8209 -8194 0
8210 -8209 8194 0
8210 8209 -8194 0
-8211 8210 8195 0
-8211 -8210 -8195 0
8211 -8210 8195 0
8211 8210 -8195 0
-8211 0
-8212 7766 0
-8212 46 0
8212 -7766 -46 0
-8213 7768 0
-8213 42 0
8213 -7768 -42 0
-8214 7770 0
-8214 39 0
8214 -7770 -39 0
-8215 7772 0
-8215 40 0
8215 -7772 -40 0
-8216 7774 0
-8216 39 0
8216 -7774 -39 0
-8217 7776 0
-8217 42 0
8217 -7776 -42 0
-8218 7778 0
-8218 94 0
8218 -7778 -94 0
-8219 7780 0
-8219 90 0
8219 -7780 -90 0
-8220 7782 0
-8220 87 0
8220 -7782 -87 0
-8221 7784 0
-8221 88 0
8221 -7784 -88 0
-8222 7786 0
-8222 87 0
8222 -7786 -87 0
-8223 7788 0
-8223 90 0
8223 -7788 -90 0
-8224 7790 0
-8224 142 0
8224 -7790 -142 0
-8225 7792 0
-8225 138 0
8225 -7792 -138 0
-8226 7794 0
-8226 135 0
8226 -7794 -135 0
-8227 7796 0
-8227 190 0
8227 -7796 -190 0
-8228 7798 0
-8228 184 0
8228 -7798 -184 0
-8229 8212 8213 0
-8229 -8212 -8213 0
8229 -8212 8213 0
8229 8212 -8213 0
-8230 8229 8214 0
-8230 -8229 -8214 0
8230 -8229 8214 0
8230 8229 -8214 0
-8231 8230 8215 0
-8231 -8230 -8215 0
8231 -8230 8215 0
8231 8230 -8215 0
-8232 8231 8216 0
-8232 -8231 -8216 0
8232 -8231 8216 0
8232 8231 -8216 0
-8233 8232 8217 0
-8233 -8232 -8217 0
8233 -8232 8217 0
8233 8232 -8217 0
-8234 8233 8218 0
-8234 -8233 -8218 0
8234 -8233 8218 0
8234 8233 -8218 0
-8235 8234 8219 0
-8235 -8234 -8219 0
8235 -8234 8219 0
8235 8234 -8219 0
-8236 8235 8220 0
-8236 -8235 -8220 0
8236 -8235 8220 0
8236 8235 -8220 0
-8237 8236 8221 0
-8237 -8236 -8221 0
8237 -8236 8221 0
8237 8236 -8221 0
-8238 8237 8222 0
-8238 -8237 -8222 0
8238 -8237 8222 0
8238 8237 -8222 0
-8239 8238 8223 0
-8239 -8238 -8223 0
8239 -8238 8223 0
8239 8238 -8223 0
-8240 8239 8224 0
-8240 -8239 -8224 0
8240 -8239 8224 0
8240 8239 -8224 0
-8241 8240 8225 0
-8241 -8240 -8225 0
8241 -8240 8225 0
8241 8240 -8225 0
-8242 8241 8226 0
-8242 -8241 -8226 0
8242 -8241 8226 0
8242 8241 -8226 0
-8243 8242 8227 0
-8243 -8242 -8227 0
8243 -8242 8227 0
8243 8242 -8227 0
-8244 8243 8228 0
-8244 -8243 -8228 0
8244 -8243 8228 0
8244 8243 -8228 0
-8244 0
-8245 7766 0
-8245 47 0
8245 -7766 -47 0
-8246 7768 0
-8246 44 0
8246 -7768 -44 0
-8247 7770 0
-8247 40 0
8247 -7770 -40 0
-8248 7772 0
-8248 44 0
8248 -7772 -44 0
-8249 7774 0
-8249 47 0
8249 -7774 -47 0
-8250 7776 0
-8250 46 0
8250 -7776 -46 0
-8251 7778 0
-8251 95 0
8251 -7778 -95 0
-8252 7780 0
-8252 92 0
8252 -7780 -92 0
-8253 7782 0
-8253 88 0
8253 -7782 -88 0
-8254 7784 0
-8254 92 0
8254 -7784 -92 0
-8255 7786 0
-8255 95 0
8255 -7786 -95 0
-8256 7788 0
-8256 94 0
8256 -7788 -94 0
-8257 7790 0
-8257 143 0
8257 -7790 -143 0
-8258 7792 0
-8258 140 0
8258 -7792 -140 0
-8259 7794 0
-8259 136 0
8259 -7794 -136 0
-8260 7796 0
-8260 191 0
8260 -7796 -191 0
-8261 7798 0
-8261 188 0
8261 -7798 -188 0
-8262 8245 8246 0
-8262 -8245 -8246 0
8262 -8245 8246 0
8262 8245 -8246 0
-8263 8262 8247 0
-8263 -8262 -8247 0
8263 -8262 8247 0
8263 8262 -8247 0
-8264 8263 8248 0
-8264 -8263 -8248 0
8264 -8263 8248 0
8264 8263 -8248 0
-8265 8264 8249 0
-8265 -8264 -8249 0
8265 -8264 8249 0
8265 8264 -8249 0
-8266 8265 8250 0
-8266 -8265 -8250 0
8266 -8265 8250 0
8266 8265 -8250 0
-8267 8266 8251 0
-8267 -8266 -8251 0
8267 -8266 8251 0
8267 8266 -8251 0
-8268 8267 8252 0
-8268 -8267 -8252 0
8268 -8267 8252 0
8268 8267 -8252 0
-8269 8268 8253 0
-8269 -8268 -8253 0
8269 -8268 8253 0
8269 8268 -8253 0
-8270 8269 8254 0
-8270 -8269 -8254 0
8270 -8269 8254 0
8270 8269 -8254 0
-8271 8270 8255 0
-8271 -8270 -8255 0
8271 -8270 8255 0
8271 8270 -8255 0
-8272 8271 8256 0
-8272 -8271 -8256 0
8272 -8271 8256 0
8272 8271 -8256 0
-8273 8272 8257 0
-8273 -8272 -8257 0
8273 -8272 8257 0
8273 8272 -8257 0
-8274 8273 8258 0
-8274 -8273 -8258 0
8274 -8273 8258 0
8274 8273 -8258 0
-8275 8274 8259 0
-8275 -8274 -8259 0
8275 -8274 8259 0
8275 8274 -8259 0
-8276 8275 8260 0
-8276 -8275 -8260 0
8276 -8275 8260 0
8276 8275 -8260 0
-8277 8276 8261 0
-8277 -8276 -8261 0
8277 -8276 8261 0
8277 8276 -8261 0
-8277 0
-8278 7766 0
-8278 48 0
8278 -7766 -48 0
-8279 7768 0
-8279 43 0
8279 -7768 -43 0
-8280 7770 0
-8280 38 0
8280 -7770 -38 0
-8281 7772 0
-8281 48 0
8281 -7772 -48 0
-8282 7774 0
-8282 43 0
8282 -7774 -43 0
-8283 7776 0
-8283 38 0
8283 -7776 -38 0
-8284 7778 0
-8284 96 0
8284 -7778 -96 0
-8285 7780 0
-8285 91 0
8285 -7780 -91 0
-8286 7782 0
-8286 86 0
8286 -7782 -86 0
-8287 7784 0
-8287 96 0
8287 -7784 -96 0
-8288 7786 0
-8288 91 0
8288 -7786 -91 0
-8289 7788 0
-8289 86 0
8289 -7788 -86 0
-8290 7790 0
-8290 144 0
8290 -7790 -144 0
-8291 7792 0
-8291 139 0
8291 -7792 -139 0
-8292 7794 0
-8292 134 0
8292 -7794 -134 0
-8293 7796 0
-8293 192 0
8293 -7796 -192 0
-8294 7798 0
-8294 192 0
8294 -7798 -192 0
-8295 8278 8279 0
-8295 -8278 -8279 0
8295 -8278 8279 0
8295 8278 -8279 0
-8296 8295 8280 0
-8296 -8295 -8280 0
8296 -8295 8280 0
8296 8295 -8280 0
-8297 8296 8281 0
-8297 -8296 -8281 0
8297 -8296 8281 0
8297 8296 -8281 0
-8298 8297 8282 0
-8298 -8297 -8282 0
8298 -8297 8282 0
8298 8297 -8282 0
-8299 8298 8283 0
-8299 -8298 -8283 0
8299 -8298 8283 0
8299 8298 -8283 0
-8300 8299 8284 0
-8300 -8299 -8284 0
8300 -8299 8284 0
8300 8299 -8284 0
-8301 8300 8285 0
-8301 -8300 -8285 0
8301 -8300 8285 0
8301 8300 -8285 0
-8302 8301 8286 0
-8302 -8301 -8286 0
8302 -8301 8286 0
8302 8301 -8286 0
-8303 8302 8287 0
-8303 -8302 -8287 0
8303 -8302 8287 0
8303 8302 -8287 0
-8304 8303 8288 0
-8304 -8303 -8288 0
8304 -8303 8288 0
8304 8303 -8288 0
-8305 8304 8289 0
-8305 -8304 -8289 0
8305 -8304 8289 0
8305 8304 -8289 0
-8306 8305 8290 0
-8306 -8305 -8290 0
8306 -8305 8290 0
8306 8305 -8290 0
-8307 8306 8291 0
-8307 -8306 -8291 0
8307 -8306 8291 0
8307 8306 -8291 0
-8308 8307 8292 0
-8308 -8307 -8292 0
8308 -8307 8292 0
8308 8307 -8292 0
-8309 8308 8293 0
-8309 -8308 -8293 0
8309 -8308 8293 0
8309 8308 -8293 0
-8310 8309 8294 0
-8310 -8309 -8294 0
8310 -8309 8294 0
8310 8309 -8294 0
-8310 0
-8311 5 0
-8311 26 0
8311 -5 -26 0
-8312 8311 0
-8312 33 0
8312 -8311 -33 0
-8313 6 0
-8313 26 0
8313 -6 -26 0
-8314 8313 0
-8314 33 0
8314 -8313 -33 0
-8315 10 0
-8315 19 0
8315 -10 -19 0
-8316 8315 0
-8316 33 0
8316 -8315 -33 0
-8317 18 0
-8317 7 0
8317 -18 -7 0
-8318 8317 0
-8318 33 0
8318 -8317 -33 0
-8319 22 0
-8319 7 0
8319 -22 -7 0
-8320 8319 0
-8320 33 0
8320 -8319 -33 0
-8321 23 0
-8321 9 0
8321 -23 -9 0
-8322 8321 0
-8322 33 0
8322 -8321 -33 0
-8323 53 0
-8323 74 0
8323 -53 -74 0
-8324 8323 0
-8324 81 0
8324 -8323 -81 0
-8325 54 0
-8325 74 0
8325 -54 -74 0
-8326 8325 0
-8326 81 0
8326 -8325 -81 0
-8327 58 0
-8327 67 0
8327 -58 -67 0
-8328 8327 0
-8328 81 0
8328 -8327 -81 0
-8329 66 0
-8329 55 0
8329 -66 -55 0
-8330 8329 0
-8330 81 0
8330 -8329 -81 0
-8331 70 0
-8331 55 0
8331 -70 -55 0
-8332 8331 0
-8332 81 0
8332 -8331 -81 0
-8333 71 0
-8333 57 0
8333 -71 -57 0
-8334 8333 0
-8334 81 0
8334 -8333 -81 0
-8335 101 0
-8335 122 0
8335 -101 -122 0
-8336 8335 0
-8336 129 0
8336 -8335 -129 0
-8337 102 0
-8337 122 0
8337 -102 -122 0
-8338 8337 0
-8338 129 0
8338 -8337 -129 0
-8339 106 0
-8339 115 0
8339 -106 -115 0
-8340 8339 0
-8340 129 0
8340 -8339 -129 0
-8341 149 0
-8341 170 0
8341 -149 -170 0
-8342 8341 0
-8342 177 0
8342 -8341 -177 0
-8343 162 0
-8343 151 0
8343 -162 -151 0
-8344 8343 0
-8344 177 0
8344 -8343 -177 0
-8345 8312 8314 0
-8345 -8312 -8314 0
8345 -8312 8314 0
8345 8312 -8314 0
-8346 8345 8316 0
-8346 -8345 -8316 0
8346 -8345 8316 0
8346 8345 -8316 0
-8347 8346 8318 0
-8347 -8346 -8318 0
8347 -8346 8318 0
8347 8346 -8318 0
-8348 8347 8320 0
-8348 -8347 -8320 0
8348 -8347 8320 0
8348 8347 -8320 0
-8349 8348 8322 0
-8349 -8348 -8322 0
8349 -8348 8322 0
8349 8348 -8322 0
-8350 8349 8324 0
-8350 -8349 -8324 0
8350 -8349 8324 0
8350 8349 -8324 0
-8351 8350 8326 0
-8351 -8350 -8326 0
8351 -8350 8326 0
8351 8350 -8326 0
-8352 8351 8328 0
-8352 -8351 -8328 0
8352 -8351 8328 0
8352 8351 -8328 0
-8353 8352 8330 0
-8353 -8352 -8330 0
8353 -8352 8330 0
8353 8352 -8330 0
-8354 8353 8332 0
-8354 -8353 -8332 0
8354 -8353 8332 0
8354 8353 -8332 0
-8355 8354 8334 0
-8355 -8354 -8334 0
8355 -8354 8334 0
8355 8354 -8334 0
-8356 8355 8336 0
-8356 -8355 -8336 0
8356 -8355 8336 0
8356 8355 -8336 0
-8357 8356 8338 0
-8357 -8356 -8338 0
8357 -8356 8338 0
8357 8356 -8338 0
-8358 8357 8340 0
-8358 -8357 -8340 0
8358 -8357 8340 0
8358 8357 -8340 0
-8359 8358 8342 0
-8359 -8358 -8342 0
8359 -8358 8342 0
8359 8358 -8342 0
-8360 8359 8344 0
-8360 -8359 -8344 0
8360 -8359 8344 0
8360 8359 -8344 0
-8360 0
-8361 8311 0
-8361 34 0
8361 -8311 -34 0
-8362 8313 0
-8362 34 0
8362 -8313 -34 0
-8363 8315 0
-8363 35 0
8363 -8315 -35 0
-8364 8317 0
-8364 37 0
8364 -8317 -37 0
-8365 8319 0
-8365 37 0
8365 -8319 -37 0
-8366 8321 0
-8366 41 0
8366 -8321 -41 0
-8367 8323 0
-8367 82 0
8367 -8323 -82 0
-8368 8325 0
-8368 82 0
8368 -8325 -82 0
-8369 8327 0
-8369 83 0
8369 -8327 -83 0
-8370 8329 0
-8370 85 0
8370 -8329 -85 0
-8371 8331 0
-8371 85 0
8371 -8331 -85 0
-8372 8333 0
-8372 89 0
8372 -8333 -89 0
-8373 8335 0
-8373 130 0
8373 -8335 -130 0
-8374 8337 0
-8374 130 0
8374 -8337 -130 0
-8375 8339 0
-8375 131 0
8375 -8339 -131 0
-8376 8341 0
-8376 178 0
8376 -8341 -178 0
-8377 8343 0
-8377 181 0
8377 -8343 -181 0
-8378 8361 8362 0
-8378 -8361 -8362 0
8378 -8361 8362 0
8378 8361 -8362 0
-8379 8378 8363 0
-8379 -8378 -8363 0
8379 -8378 8363 0
8379 8378 -8363 0
-8380 8379 8364 0
-8380 -8379 -8364 0
8380 -8379 8364 0
8380 8379 -8364 0
-8381 8380 8365 0
-8381 -8380 -8365 0
8381 -8380 8365 0
8381 8380 -8365 0
-8382 8381 8366 0
-8382 -8381 -8366 0
8382 -8381 8366 0
8382 8381 -8366 0
-8383 8382 8367 0
-8383 -8382 -8367 0
8383 -8382 8367 0
8383 8382 -8367 0
-8384 8383 8368 0
-8384 -8383 -8368 0
8384 -8383 8368 0
8384 8383 -8368 0
-8385 8384 8369 0
-8385 -8384 -8369 0
8385 -8384 8369 0
8385 8384 -8369 0
-8386 8385 8370 0
-8386 -8385 -8370 0
8386 -8385 8370 0
8386 8385 -8370 0
-8387 8386 8371 0
-8387 -8386 -8371 0
8387 -8386 8371 0
8387 8386 -8371 0
-8388 8387 8372 0
-8388 -8387 -8372 0
8388 -8387 8372 0
8388 8387 -8372 0
-8389 8388 8373 0
-8389 -8388 -8373 0
8389 -8388 8373 0
8389 8388 -8373 0
-8390 8389 8374 0
-8390 -8389 -8374 0
8390 -8389 8374 0
8390 8389 -8374 0
-8391 8390 8375 0
-8391 -8390 -8375 0
8391 -8390 8375 0
8391 8390 -8375 0
-8392 8391 8376 0
-8392 -8391 -8376 0
8392 -8391 8376 0
8392 8391 -8376 0
-8393 8392 8377 0
-8393 -8392 -8377 0
8393 -8392 8377 0
8393 8392 -8377 0
-8393 0
-8394 8311 0
-8394 35 0
8394 -8311 -35 0
-8395 8313 0
-8395 36 0
8395 -8313 -36 0
-8396 8315 0
-8396 36 0
8396 -8315 -36 0
-8397 8317 0
-8397 41 0
8397 -8317 -41 0
-8398 8319 0
-8398 45 0
8398 -8319 -45 0
-8399 8321 0
-8399 45 0
8399 -8321 -45 0
-8400 8323 0
-8400 83 0
8400 -8323 -83 0
-8401 8325 0
-8401 84 0
8401 -8325 -84 0
-8402 8327 0
-8402 84 0
8402 -8327 -84 0
-8403 8329 0
-8403 89 0
8403 -8329 -89 0
-8404 8331 0
-8404 93 0
8404 -8331 -93 0
-8405 8333 0
-8405 93 0
8405 -8333 -93 0
-8406 8335 0
-8406 131 0
8406 -8335 -131 0
-8407 8337 0
-8407 132 0
8407 -8337 -132 0
-8408 8339 0
-8408 132 0
8408 -8339 -132 0
-8409 8341 0
-8409 179 0
8409 -8341 -179 0
-8410 8343 0
-8410 185 0
8410 -8343 -185 0
-8411 8394 8395 0
-8411 -8394 -8395 0
8411 -8394 8395 0
8411 8394 -8395 0
-8412 8411 8396 0
-8412 -8411 -8396 0
8412 -8411 8396 0
8412 8411 -8396 0
-8413 8412 8397 0
-8413 -8412 -8397 0
8413 -8412 8397 0
8413 8412 -8397 0
-8414 8413 8398 0
-8414 -8413 -8398 0
8414 -8413 8398 0
8414 8413 -8398 0
-8415 8414 8399 0
-8415 -8414 -8399 0
8415 -8414 8399 0
8415 8414 -8399 0
-8416 8415 8400 0
-8416 -8415 -8400 0
8416 -8415 8400 0
8416 8415 -8400 0
-8417 8416 8401 0
-8417 -8416 -8401 0
8417 -8416 8401 0
8417 8416 -8401 0
-8418 8417 8402 0
-8418 -8417 -8402 0
8418 -8417 8402 0
8418 8417 -8402 0
-8419 8418 8403 0
-8419 -8418 -8403 0
8419 -8418 8403 0
8419 8418 -8403 0
-8420 8419 8404 0
-8420 -8419 -8404 0
8420 -8419 8404 0
8420 8419 -8404 0
-8421 8420 8405 0
-8421 -8420 -8405 0
8421 -8420 8405 0
8421 8420 -8405 0
-8422 8421 8406 0
-8422 -8421 -8406 0
8422 -8421 8406 0
8422 8421 -8406 0
-8423 8422 8407 0
-8423 -8422 -8407 0
8423 -8422 8407 0
8423 8422 -8407 0
-8424 8423 8408 0
-8424 -8423 -8408 0
8424 -8423 8408 0
8424 8423 -8408 0
-8425 8424 8409 0
-8425 -8424 -8409 0
8425 -8424 8409 0
8425 8424 -8409 0
-8426 8425 8410 0
-8426 -8425 -8410 0
8426 -8425 8410 0
8426 8425 -8410 0
-8426 0
-8427 8311 0
-8427 36 0
8427 -8311 -36 0
-8428 8313 0
-8428 35 0
8428 -8313 -35 0
-8429 8315 0
-8429 34 0
8429 -8315 -34 0
-8430 8317 0
-8430 45 0
8430 -8317 -45 0
-8431 8319 0
-8431 41 0
8431 -8319 -41 0
-8432 8321 0
-8432 37 0
8432 -8321 -37 0
-8433 8323 0
-8433 84 0
8433 -8323 -84 0
-8434 8325 0
-8434 83 0
8434 -8325 -83 0
-8435 8327 0
-8435 82 0
8435 -8327 -82 0
-8436 8329 0
-8436 93 0
8436 -8329 -93 0
-8437 8331 0
-8437 89 0
8437 -8331 -89 0
-8438 8333 0
-8438 85 0
8438 -8333 -85 0
-8439 8335 0
-8439 132 0
8439 -8335 -132 0
-8440 8337 0
-8440 131 0
8440 -8337 -131 0
-8441 8339 0
-8441 130 0
8441 -8339 -130 0
-8442 8341 0
-8442 180 0
8442 -8341 -180 0
-8443 8343 0
-8443 189 0
8443 -8343 -189 0
-8444 8427 8428 0
-8444 -8427 -8428 0
8444 -8427 8428 0
8444 8427 -8428 0
-8445 8444 8429 0
-8445 -8444 -8429 0
8445 -8444 8429 0
8445 8444 -8429 0
-8446 8445 8430 0
-8446 -8445 -8430 0
8446 -8445 8430 0
8446 8445 -8430 0
-8447 8446 8431 0
-8447 -8446 -8431 0
8447 -8446 8431 0
8447 8446 -8431 0
-8448 8447 8432 0
-8448 -8447 -8432 0
8448 -8447 8432 0
8448 8447 -8432 0
-8449 8448 8433 0
-8449 -8448 -8433 0
8449 -8448 8433 0
8449 8448 -8433 0
-8450 8449 8434 0
-8450 -8449 -8434 0
8450 -8449 8434 0
8450 8449 -8434 0
-8451 8450 8435 0
-8451 -8450 -8435 0
8451 -8450 8435 0
8451 8450 -8435 0
-8452 8451 8436 0
-8452 -8451 -8436 0
8452 -8451 8436 0
8452 8451 -8436 0
-8453 8452 8437 0
-8453 -8452 -8437 0
8453 -8452 8437 0
8453 8452 -8437 0
-8454 8453 8438 0
-8454 -8453 -8438 0
8454 -8453 8438 0
8454 8453 -8438 0
-8455 8454 8439 0
-8455 -8454 -8439 0
8455 -8454 8439 0
8455 8454 -8439 0
-8456 8455 8440 0
-8456 -8455 -8440 0
8456 -8455 8440 0
8456 8455 -8440 0
-8457 8456 8441 0
-8457 -8456 -8441 0
8457 -8456 8441 0
8457 8456 -8441 0
-8458 8457 8442 0
-8458 -8457 -8442 0
8458 -8457 8442 0
8458 8457 -8442 0
-8459 8458 8443 0
-8459 -8458 -8443 0
8459 -8458 8443 0
8459 8458 -8443 0
-8459 0
-8460 8311 0
-8460 37 0
8460 -8311 -37 0
-8461 8313 0
-8461 37 0
8461 -8313 -37 0
-8462 8315 0
-8462 41 0
8462 -8315 -41 0
-8463 8317 0
-8463 34 0
8463 -8317 -34 0
-8464 8319 0
-8464 34 0
8464 -8319 -34 0
-8465 8321 0
-8465 35 0
8465 -8321 -35 0
-8466 8323 0
-8466 85 0
8466 -8323 -85 0
-8467 8325 0
-8467 85 0
8467 -8325 -85 0
-8468 8327 0
-8468 89 0
8468 -8327 -89 0
-8469 8329 0
-8469 82 0
8469 -8329 -82 0
-8470 8331 0
-8470 82 0
8470 -8331 -82 0
-8471 8333 0
-8471 83 0
8471 -8333 -83 0
-8472 8335 0
-8472 133 0
8472 -8335 -133 0
-8473 8337 0
-8473 133 0
8473 -8337 -133 0
-8474 8339 0
-8474 137 0
8474 -8339 -137 0
-8475 8341 0
-8475 181 0
8475 -8341 -181 0
-8476 8343 0
-8476 178 0
8476 -8343 -178 0
-8477 8460 8461 0
-8477 -8460 -8461 0
8477 -8460 8461 0
8477 8460 -8461 0
-8478 8477 8462 0
-8478 -8477 -8462 0
8478 -8477 8462 0
8478 8477 -8462 0
-8479 8478 8463 0
-8479 -8478 -8463 0
8479 -8478 8463 0
8479 8478 -8463 0
-8480 8479 8464 0
-8480 -8479 -8464 0
8480 -8479 8464 0
8480 8479 -8464 0
-8481 8480 8465 0
-8481 -8480 -8465 0
8481 -8480 8465 0
8481 8480 -8465 0
-8482 8481 8466 0
-8482 -8481 -8466 0
8482 -8481 8466 0
8482 8481 -8466 0
-8483 8482 8467 0
-8483 -8482 -8467 0
8483 -8482 8467 0
8483 8482 -8467 0
-8484 8483 8468 0
-8484 -8483 -8468 0
8484 -8483 8468 0
8484 8483 -8468 0
-8485 8484 8469 0
-8485 -8484 -8469 0
8485 -8484 8469 0
8485 8484 -8469 0
-8486 8485 8470 0
-8486 -8485 -8470 0
8486 -8485 8470 0
8486 8485 -8470 0
-8487 8486 8471 0
-8487 -8486 -8471 0
8487 -8486 8471 0
8487 8486 -8471 0
-8488 8487 8472 0
-8488 -8487 -8472 0
8488 -8487 8472 0
8488 8487 -8472 0
-8489 8488 8473 0
-8489 -8488 -8473 0
8489 -8488 8473 0
8489 8488 -8473 0
-8490 8489 8474 0
-8490 -8489 -8474 0
8490 -8489 8474 0
8490 8489 -8474 0
-8491 8490 8475 0
-8491 -8490 -8475 0
8491 -8490 8475 0
8491 8490 -8475 0
-8492 8491 8476 0
-8492 -8491 -8476 0
8492 -8491 8476 0
8492 8491 -8476 0
-8492 0
-8493 8311 0
-8493 38 0
8493 -8311 -38 0
-8494 8313 0
-8494 38 0
8494 -8313 -38 0
-8495 8315 0
-8495 43 0
8495 -8315 -43 0
-8496 8317 0
-8496 38 0
8496 -8317 -38 0
-8497 8319 0
-8497 38 0
8497 -8319 -38 0
-8498 8321 0
-8498 43 0
8498 -8321 -43 0
-8499 8323 0
-8499 86 0
8499 -8323 -86 0
-8500 8325 0
-8500 86 0
8500 -8325 -86 0
-8501 8327 0
-8501 91 0
8501 -8327 -91 0
-8502 8329 0
-8502 86 0
8502 -8329 -86 0
-8503 8331 0
-8503 86 0
8503 -8331 -86 0
-8504 8333 0
-8504 91 0
8504 -8333 -91 0
-8505 8335 0
-8505 134 0
8505 -8335 -134 0
-8506 8337 0
-8506 134 0
8506 -8337 -134 0
-8507 8339 0
-8507 139 0
8507 -8339 -139 0
-8508 8341 0
-8508 182 0
8508 -8341 -182 0
-8509 8343 0
-8509 182 0
8509 -8343 -182 0
-8510 8493 8494 0
-8510 -8493 -8494 0
8510 -8493 8494 0
8510 8493 -8494 0
-8511 8510 8495 0
-8511 -8510 -8495 0
8511 -8510 8495 0
8511 8510 -8495 0
-8512 8511 8496 0
-8512 -8511 -8496 0
8512 -8511 8496 0
8512 8511 -8496 0
-8513 8512 8497 0
-8513 -8512 -8497 0
8513 -8512 8497 0
8513 8512 -8497 0
-8514 8513 8498 0
-8514 -8513 -8498 0
8514 -8513 8498 0
8514 8513 -8498 0
-8515 8514 8499 0
-8515 -8514 -8499 0
8515 -8514 8499 0
8515 8514 -8499 0
-8516 8515 8500 0
-8516 -8515 -8500 0
8516 -8515 8500 0
8516 8515 -8500 0
-8517 8516 8501 0
-8517 -8516 -8501 0
8517 -8516 8501 0
8517 8516 -8501 0
-8518 8517 8502 0
-8518 -8517 -8502 0
8518 -8517 8502 0
8518 8517 -8502 0
-8519 8518 8503 0
-8519 -8518 -8503 0
8519 -8518 8503 0
8519 8518 -8503 0
-8520 8519 8504 0
-8520 -8519 -8504 0
8520 -8519 8504 0
8520 8519 -8504 0
-8521 8520 8505 0
-8521 -8520 -8505 0
8521 -8520 8505 0
8521 8520 -8505 0
-8522 8521 8506 0
-8522 -8521 -8506 0
8522 -8521 8506 0
8522 8521 -8506 0
-8523 8522 8507 0
-8523 -8522 -8507 0
8523 -8522 8507 0
8523 8522 -8507 0
-8524 8523 8508 0
-8524 -8523 -8508 0
8524 -8523 8508 0
8524 8523 -8508 0
-8525 8524 8509 0
-8525 -8524 -8509 0
8525 -8524 8509 0
8525 8524 -8509 0
-8525 0
-8526 8311 0
-8526 39 0
8526 -8311 -39 0
-8527 8313 0
-8527 40 0
8527 -8313 -40 0
-8528 8315 0
-8528 44 0
8528 -8315 -44 0
-8529 8317 0
-8529 42 0
8529 -8317 -42 0
-8530 8319 0
-8530 46 0
8530 -8319 -46 0
-8531 8321 0
-8531 47 0
8531 -8321 -47 0
-8532 8323 0
-8532 87 0
8532 -8323 -87 0
-8533 8325 0
-8533 88 0
8533 -8325 -88 0
-8534 8327 0
-8534 92 0
8534 -8327 -92 0
-8535 8329 0
-8535 90 0
8535 -8329 -90 0
-8536 8331 0
-8536 94 0
8536 -8331 -94 0
-8537 8333 0
-8537 95 0
8537 -8333 -95 0
-8538 8335 0
-8538 135 0
8538 -8335 -135 0
-8539 8337 0
-8539 136 0
8539 -8337 -136 0
-8540 8339 0
-8540 140 0
8540 -8339 -140 0
-8541 8341 0
-8541 183 0
8541 -8341 -183 0
-8542 8343 0
-8542 186 0
8542 -8343 -186 0
-8543 8526 8527 0
-8543 -8526 -8527 0
8543 -8526 8527 0
8543 8526 -8527 0
-8544 8543 8528 0
-8544 -8543 -8528 0
8544 -8543 8528 0
8544 8543 -8528 0
-8545 8544 8529 0
-8545 -8544 -8529 0
8545 -8544 8529 0
8545 8544 -8529 0
-8546 8545 8530 0
-8546 -8545 -8530 0
8546 -8545 8530 0
8546 8545 -8530 0
-8547 8546 8531 0
-8547 -8546 -8531 0
8547 -8546 8531 0
8547 8546 -8531 0
-8548 8547 8532 0
-8548 -8547 -8532 0
8548 -8547 8532 0
8548 8547 -8532 0
-8549 8548 8533 0
-8549 -8548 -8533 0
8549 -8548 8533 0
8549 8548 -8533 0
-8550 8549 8534 0
-8550 -8549 -8534 0
8550 -8549 8534 0
8550 8549 -8534 0
-8551 8550 8535 0
-8551 -8550 -8535 0
8551 -8550 8535 0
8551 8550 -8535 0
-8552 8551 8536 0
-8552 -8551 -8536 0
8552 -8551 8536 0
8552 8551 -8536 0
-8553 8552 8537 0
-8553 -8552 -8537 0
8553 -8552 8537 0
8553 8552 -8537 0
-8554 8553 8538 0
-8554 -8553 -8538 0
8554 -8553 8538 0
8554 8553 -8538 0
-8555 8554 8539 0
-8555 -8554 -8539 0
8555 -8554 8539 0
8555 8554 -8539 0
-8556 8555 8540 0
-8556 -8555 -8540 0
8556 -8555 8540 0
8556 8555 -8540 0
-8557 8556 8541 0
-8557 -8556 -8541 0
8557 -8556 8541 0
8557 8556 -8541 0
-8558 8557 8542 0
-8558 -8557 -8542 0
8558 -8557 8542 0
8558 8557 -8542 0
-8558 0
-8559 8311 0
-8559 40 0
8559 -8311 -40 0
-8560 8313 0
-8560 39 0
8560 -8313 -39 0
-8561 8315 0
-8561 42 0
8561 -8315 -42 0
-8562 8317 0
-8562 46 0
8562 -8317 -46 0
-8563 8319 0
-8563 42 0
8563 -8319 -42 0
-8564 8321 0
-8564 39 0
8564 -8321 -39 0
-8565 8323 0
-8565 88 0
8565 -8323 -88 0
-8566 8325 0
-8566 87 0
8566 -8325 -87 0
-8567 8327 0
-8567 90 0
8567 -8327 -90 0
-8568 8329 0
-8568 94 0
8568 -8329 -94 0
-8569 8331 0
-8569 90 0
8569 -8331 -90 0
-8570 8333 0
-8570 87 0
8570 -8333 -87 0
-8571 8335 0
-8571 136 0
8571 -8335 -136 0
-8572 8337 0
-8572 135 0
8572 -8337 -135 0
-8573 8339 0
-8573 138 0
8573 -8339 -138 0
-8574 8341 0
-8574 184 0
8574 -8341 -184 0
-8575 8343 0
-8575 190 0
8575 -8343 -190 0
-8576 8559 8560 0
-8576 -8559 -8560 0
8576 -8559 8560 0
8576 8559 -8560 0
-8577 8576 8561 0
-8577 -8576 -8561 0
8577 -8576 8561 0
8577 8576 -8561 0
-8578 8577 8562 0
-8578 -8577 -8562 0
8578 -8577 8562 0
8578 8577 -8562 0
-8579 8578 8563 0
-8579 -8578 -8563 0
8579 -8578 8563 0
8579 8578 -8563 0
-8580 8579 8564 0
-8580 -8579 -8564 0
8580 -8579 8564 0
8580 8579 -8564 0
-8581 8580 8565 0
-8581 -8580 -8565 0
8581 -8580 8565 0
8581 8580 -8565 0
-8582 8581 8566 0
-8582 -8581 -8566 0
8582 -8581 8566 0
8582 8581 -8566 0
-8583 8582 8567 0
-8583 -8582 -8567 0
8583 -8582 8567 0
8583 8582 -8567 0
-8584 8583 8568 0
-8584 -8583 -8568 0
8584 -8583 8568 0
8584 8583 -8568 0
-8585 8584 8569 0
-8585 -8584 -8569 0
8585 -8584 8569 0
8585 8584 -8569 0
-8586 8585 8570 0
-8586 -8585 -8570 0
8586 -8585 8570 0
8586 8585 -8570 0
-8587 8586 8571 0
-8587 -8586 -8571 0
8587 -8586 8571 0
8587 8586 -8571 0
-8588 8587 8572 0
-8588 -8587 -8572 0
8588 -8587 8572 0
8588 8587 -8572 0
-8589 8588 8573 0
-8589 -8588 -8573 0
8589 -8588 8573 0
8589 8588 -8573 0
-8590 8589 8574 0
-8590 -8589 -8574 0
8590 -8589 8574 0
8590 8589 -8574 0
-8591 8590 8575 0
-8591 -8590 -8575 0
8591 -8590 8575 0
8591 8590 -8575 0
-8591 0
-8592 8311 0
-8592 41 0
8592 -8311 -41 0
-8593 8313 0
-8593 45 0
8593 -8313 -45 0
-8594 8315 0
-8594 45 0
8594 -8315 -45 0
-8595 8317 0
-8595 35 0
8595 -8317 -35 0
-8596 8319 0
-8596 36 0
8596 -8319 -36 0
-8597 8321 0
-8597 36 0
8597 -8321 -36 0
-8598 8323 0
-8598 89 0
8598 -8323 -89 0
-8599 8325 0
-8599 93 0
8599 -8325 -93 0
-8600 8327 0
-8600 93 0
8600 -8327 -93 0
-8601 8329 0
-8601 83 0
8601 -8329 -83 0
-8602 8331 0
-8602 84 0
8602 -8331 -84 0
-8603 8333 0
-8603 84 0
8603 -8333 -84 0
-8604 8335 0
-8604 137 0
8604 -8335 -137 0
-8605 8337 0
-8605 141 0
8605 -8337 -141 0
-8606 8339 0
-8606 141 0
8606 -8339 -141 0
-8607 8341 0
-8607 185 0
8607 -8341 -185 0
-8608 8343 0
-8608 179 0
8608 -8343 -179 0
-8609 8592 8593 0
-8609 -8592 -8593 0
8609 -8592 8593 0
8609 8592 -8593 0
-8610 8609 8594 0
-8610 -8609 -8594 0
8610 -8609 8594 0
8610 8609 -8594 0
-8611 8610 8595 0
-8611 -8610 -8595 0
8611 -8610 8595 0
8611 8610 -8595 0
-8612 8611 8596 0
-8612 -8611 -8596 0
8612 -8611 8596 0
8612 8611 -8596 0
-8613 8612 8597 0
-8613 -8612 -8597 0
8613 -8612 8597 0
8613 8612 -8597 0
-8614 8613 8598 0
-8614 -8613 -8598 0
8614 -8613 8598 0
8614 8613 -8598 0
-8615 8614 8599 0
-8615 -8614 -8599 0
8615 -8614 8599 0
8615 8614 -8599 0
-8616 8615 8600 0
-8616 -8615 -8600 0
8616 -8615 8600 0
8616 8615 -8600 0
-8617 8616 8601 0
-8617 -8616 -8601 0
8617 -8616 8601 0
8617 8616 -8601 0
-8618 8617 8602 0
-8618 -8617 -8602 0
8618 -8617 8602 0
8618 8617 -8602 0
-8619 8618 8603 0
-8619 -8618 -8603 0
8619 -8618 8603 0
8619 8618 -8603 0
-8620 8619 8604 0
-8620 -8619 -8604 0
8620 -8619 8604 0
8620 8619 -8604 0
-8621 8620 8605 0
-8621 -8620 -8605 0
8621 -8620 8605 0
8621 8620 -8605 0
-8622 8621 8606 0
-8622 -8621 -8606 0
8622 -8621 8606 0
8622 8621 -8606 0
-8623 8622 8607 0
-8623 -8622 -8607 0
8623 -8622 8607 0
8623 8622 -8607 0
-8624 8623 8608 0
-8624 -8623 -8608 0
8624 -8623 8608 0
8624 8623 -8608 0
-8624 0
-8625 8311 0
-8625 42 0
8625 -8311 -42 0
-8626 8313 0
-8626 46 0
8626 -8313 -46 0
-8627 8315 0
-8627 47 0
8627 -8315 -47 0
-8628 8317 0
-8628 39 0
8628 -8317 -39 0
-8629 8319 0
-8629 40 0
8629 -8319 -40 0
-8630 8321 0
-8630 44 0
8630 -8321 -44 0
-8631 8323 0
-8631 90 0
8631 -8323 -90 0
-8632 8325 0
-8632 94 0
8632 -8325 -94 0
-8633 8327 0
-8633 95 0
8633 -8327 -95 0
-8634 8329 0
-8634 87 0
8634 -8329 -87 0
-8635 8331 0
-8635 88 0
8635 -8331 -88 0
-8636 8333 0
-8636 92 0
8636 -8333 -92 0
-8637 8335 0
-8637 138 0
8637 -8335 -138 0
-8638 8337 0
-8638 142 0
8638 -8337 -142 0
-8639 8339 0
-8639 143 0
8639 -8339 -143 0
-8640 8341 0
-8640 186 0
8640 -8341 -186 0
-8641 8343 0
-8641 183 0
8641 -8343 -183 0
-8642 8625 8626 0
-8642 -8625 -8626 0
8642 -8625 8626 0
8642 8625 -8626 0
-8643 8642 8627 0
-8643 -8642 -8627 0
8643 -8642 8627 0
8643 8642 -8627 0
-8644 8643 8628 0
-8644 -8643 -8628 0
8644 -8643 8628 0
8644 8643 -8628 0
-8645 8644 8629 0
-8645 -8644 -8629 0
8645 -8644 8629 0
8645 8644 -8629 0
-8646 8645 8630 0
-8646 -8645 -8630 0
8646 -8645 8630 0
8646 8645 -8630 0
-8647 8646 8631 0
-8647 -8646 -8631 0
8647 -8646 8631 0
8647 8646 -8631 0
-8648 8647 8632 0
-8648 -8647 -8632 0
8648 -8647 8632 0
8648 8647 -8632 0
-8649 8648 8633 0
-8649 -8648 -8633 0
8649 -8648 8633 0
8649 8648 -8633 0
-8650 8649 8634 0
-8650 -8649 -8634 0
8650 -8649 8634 0
8650 8649 -8634 0
-8651 8650 8635 0
-8651 -8650 -8635 0
8651 -8650 8635 0
8651 8650 -8635 0
-8652 8651 8636 0
-8652 -8651 -8636 0
8652 -8651 8636 0
8652 8651 -8636 0
-8653 8652 8637 0
-8653 -8652 -8637 0
8653 -8652 8637 0
8653 8652 -8637 0
-8654 8653 8638 0
-8654 -8653 -8638 0
8654 -8653 8638 0
8654 8653 -8638 0
-8655 8654 8639 0
-8655 -8654 -8639 0
8655 -8654 8639 0
8655 8654 -8639 0
-8656 8655 8640 0
-8656 -8655 -8640 0
8656 -8655 8640 0
8656 8655 -8640 0
-8657 8656 8641 0
-8657 -8656 -8641 0
8657 -8656 8641 0
8657 8656 -8641 0
-8657 0
-8658 8311 0
-8658 43 0
8658 -8311 -43 0
-8659 8313 0
-8659 48 0
8659 -8313 -48 0
-8660 8315 0
-8660 48 0
8660 -8315 -48 0
-8661 8317 0
-8661 43 0
8661 -8317 -43 0
-8662 8319 0
-8662 48 0
8662 -8319 -48 0
-8663 8321 0
-8663 48 0
8663 -8321 -48 0
-8664 8323 0
-8664 91 0
8664 -8323 -91 0
-8665 8325 0
-8665 96 0
8665 -8325 -96 0
-8666 8327 0
-8666 96 0
8666 -8327 -96 0
-8667 8329 0
-8667 91 0
8667 -8329 -91 0
-8668 8331 0
-8668 96 0
8668 -8331 -96 0
-8669 8333 0
-8669 96 0
8669 -8333 -96 0
-8670 8335 0
-8670 139 0
8670 -8335 -139 0
-8671 8337 0
-8671 144 0
8671 -8337 -144 0
-8672 8339 0
-8672 144 0
8672 -8339 -144 0
-8673 8341 0
-8673 187 0
8673 -8341 -187 0
-8674 8343 0
-8674 187 0
8674 -8343 -187 0
-8675 8658 8659 0
-8675 -8658 -8659 0
8675 -8658 8659 0
8675 8658 -8659 0
-8676 8675 8660 0
-8676 -8675 -8660 0
8676 -8675 8660 0
8676 8675 -8660 0
-8677 8676 8661 0
-8677 -8676 -8661 0
8677 -8676 8661 0
8677 8676 -8661 0
-8678 8677 8662 0
-8678 -8677 -8662 0
8678 -8677 8662 0
8678 8677 -8662 0
-8679 8678 8663 0
-8679 -8678 -8663 0
8679 -8678 8663 0
8679 8678 -8663 0
-8680 8679 8664 0
-8680 -8679 -8664 0
8680 -8679 8664 0
8680 8679 -8664 0
-8681 8680 8665 0
-8681 -8680 -8665 0
8681 -8680 8665 0
8681 8680 -8665 0
-8682 8681 8666 0
-8682 -8681 -8666 0
8682 -8681 8666 0
8682 8681 -8666 0
-8683 8682 8667 0
-8683 -8682 -8667 0
8683 -8682 8667 0
8683 8682 -8667 0
-8684 8683 8668 0
-8684 -8683 -8668 0
8684 -8683 8668 0
8684 8683 -8668 0
-8685 8684 8669 0
-8685 -8684 -8669 0
8685 -8684 8669 0
8685 8684 -8669 0
-8686 8685 8670 0
-8686 -8685 -8670 0
8686 -8685 8670 0
8686 8685 -8670 0
-8687 8686 8671 0
-8687 -8686 -8671 0
8687 -8686 8671 0
8687 8686 -8671 0
-8688 8687 8672 0
-8688 -8687 -8672 0
8688 -8687 8672 0
8688 8687 -8672 0
-8689 8688 8673 0
-8689 -8688 -8673 0
8689 -8688 8673 0
8689 8688 -8673 0
-8690 8689 8674 0
-8690 -8689 -8674 0
8690 -8689 8674 0
8690 8689 -8674 0
-8690 0
-8691 8311 0
-8691 44 0
8691 -8311 -44 0
-8692 8313 0
-8692 47 0
8692 -8313 -47 0
-8693 8315 0
-8693 46 0
8693 -8315 -46 0
-8694 8317 0
-8694 47 0
8694 -8317 -47 0
-8695 8319 0
-8695 44 0
8695 -8319 -44 0
-8696 8321 0
-8696 40 0
8696 -8321 -40 0
-8697 8323 0
-8697 92 0
8697 -8323 -92 0
-8698 8325 0
-8698 95 0
8698 -8325 -95 0
-8699 8327 0
-8699 94 0
8699 -8327 -94 0
-8700 8329 0
-8700 95 0
8700 -8329 -95 0
-8701 8331 0
-8701 92 0
8701 -8331 -92 0
-8702 8333 0
-8702 88 0
8702 -8333 -88 0
-8703 8335 0
-8703 140 0
8703 -8335 -140 0
-8704 8337 0
-8704 143 0
8704 -8337 -143 0
-8705 8339 0
-8705 142 0
8705 -8339 -142 0
-8706 8341 0
-8706 188 0
8706 -8341 -188 0
-8707 8343 0
-8707 191 0
8707 -8343 -191 0
-8708 8691 8692 0
-8708 -8691 -8692 0
8708 -8691 8692 0
8708 8691 -8692 0
-8709 8708 8693 0
-8709 -8708 -8693 0
8709 -8708 8693 0
8709 8708 -8693 0
-8710 8709 8694 0
-8710 -8709 -8694 0
8710 -8709 8694 0
8710 8709 -8694 0
-8711 8710 8695 0
-8711 -8710 -8695 0
8711 -8710 8695 0
8711 8710 -8695 0
-8712 8711 8696 0
-8712 -8711 -8696 0
8712 -8711 8696 0
8712 8711 -8696 0
-8713 8712 8697 0
-8713 -8712 -8697 0
8713 -8712 8697 0
8713 8712 -8697 0
-8714 8713 8698 0
-8714 -8713 -8698 0
8714 -8713 8698 0
8714 8713 -8698 0
-8715 8714 8699 0
-8715 -8714 -8699 0
8715 -8714 8699 0
8715 8714 -8699 0
-8716 8715 8700 0
-8716 -8715 -8700 0
8716 -8715 8700 0
8716 8715 -8700 0
-8717 8716 8701 0
-8717 -8716 -8701 0
8717 -8716 8701 0
8717 8716 -8701 0
-8718 8717 8702 0
-8718 -8717 -8702 0
8718 -8717 8702 0
8718 8717 -8702 0
-8719 8718 8703 0
-8719 -8718 -8703 0
8719 -8718 8703 0
8719 8718 -8703 0
-8720 8719 8704 0
-8720 -8719 -8704 0
8720 -8719 8704 0
8720 8719 -8704 0
-8721 8720 8705 0
-8721 -8720 -8705 0
8721 -8720 8705 0
8721 8720 -8705 0
-8722 8721 8706 0
-8722 -8721 -8706 0
8722 -8721 8706 0
8722 8721 -8706 0
-8723 8722 8707 0
-8723 -8722 -8707 0
8723 -8722 8707 0
8723 8722 -8707 0
-8723 0
-8724 8311 0
-8724 45 0
8724 -8311 -45 0
-8725 8313 0
-8725 41 0
8725 -8313 -41 0
-8726 8315 0
-8726 37 0
8726 -8315 -37 0
-8727 8317 0
-8727 36 0
8727 -8317 -36 0
-8728 8319 0
-8728 35 0
8728 -8319 -35 0
-8729 8321 0
-8729 34 0
8729 -8321 -34 0
-8730 8323 0
-8730 93 0
8730 -8323 -93 0
-8731 8325 0
-8731 89 0
8731 -8325 -89 0
-8732 8327 0
-8732 85 0
8732 -8327 -85 0
-8733 8329 0
-8733 84 0
8733 -8329 -84 0
-8734 8331 0
-8734 83 0
8734 -8331 -83 0
-8735 8333 0
-8735 82 0
8735 -8333 -82 0
-8736 8335 0
-8736 141 0
8736 -8335 -141 0
-8737 8337 0
-8737 137 0
8737 -8337 -137 0
-8738 8339 0
-8738 133 0
8738 -8339 -133 0
-8739 8341 0
-8739 189 0
8739 -8341 -189 0
-8740 8343 0
-8740 180 0
8740 -8343 -180 0
-8741 8724 8725 0
-8741 -8724 -8725 0
8741 -8724 8725 0
8741 8724 -8725 0
-8742 8741 8726 0
-8742 -8741 -8726 0
8742 -8741 8726 0
8742 8741 -8726 0
-8743 8742 8727 0
-8743 -8742 -8727 0
8743 -8742 8727 0
8743 8742 -8727 0
-8744 8743 8728 0
-8744 -8743 -8728 0
8744 -8743 8728 0
8744 8743 -8728 0
-8745 8744 8729 0
-8745 -8744 -8729 0
8745 -8744 8729 0
8745 8744 -8729 0
-8746 8745 8730 0
-8746 -8745 -8730 0
8746 -8745 8730 0
8746 8745 -8730 0
-8747 8746 8731 0
-8747 -8746 -8731 0
8747 -8746 8731 0
8747 8746 -8731 0
-8748 8747 8732 0
-8748 -8747 -8732 0
8748 -8747 8732 0
8748 8747 -8732 0
-8749 8748 8733 0
-8749 -8748 -8733 0
8749 -8748 8733 0
8749 8748 -8733 0
-8750 8749 8734 0
-8750 -8749 -8734 0
8750 -8749 8734 0
8750 8749 -8734 0
-8751 8750 8735 0
-8751 -8750 -8735 0
8751 -8750 8735 0
8751 8750 -8735 0
-8752 8751 8736 0
-8752 -8751 -8736 0
8752 -8751 8736 0
8752 8751 -8736 0
-8753 8752 8737 0
-8753 -8752 -8737 0
8753 -8752 8737 0
8753 8752 -8737 0
-8754 8753 8738 0
-8754 -8753 -8738 0
8754 -8753 8738 0
8754 8753 -8738 0
-8755 8754 8739 0
-8755 -8754 -8739 0
8755 -8754 8739 0
8755 8754 -8739 0
-8756 8755 8740 0
-8756 -8755 -8740 0
8756 -8755 8740 0
8756 8755 -8740 0
-8756 0
-8757 8311 0
-8757 46 0
8757 -8311 -46 0
-8758 8313 0
-8758 42 0
8758 -8313 -42 0
-8759 8315 0
-8759 39 0
8759 -8315 -39 0
-8760 8317 0
-8760 40 0
8760 -8317 -40 0
-8761 8319 0
-8761 39 0
8761 -8319 -39 0
-8762 8321 0
-8762 42 0
8762 -8321 -42 0
-8763 8323 0
-8763 94 0
8763 -8323 -94 0
-8764 8325 0
-8764 90 0
8764 -8325 -90 0
-8765 8327 0
-8765 87 0
8765 -8327 -87 0
-8766 8329 0
-8766 88 0
8766 -8329 -88 0
-8767 8331 0
-8767 87 0
8767 -8331 -87 0
-8768 8333 0
-8768 90 0
8768 -8333 -90 0
-8769 8335 0
-8769 142 0
8769 -8335 -142 0
-8770 8337 0
-8770 138 0
8770 -8337 -138 0
-8771 8339 0
-8771 135 0
8771 -8339 -135 0
-8772 8341 0
-8772 190 0
8772 -8341 -190 0
-8773 8343 0
-8773 184 0
8773 -8343 -184 0
-8774 8757 8758 0
-8774 -8757 -8758 0
8774 -8757 8758 0
8774 8757 -8758 0
-8775 8774 8759 0
-8775 -8774 -8759 0
8775 -8774 8759 0
8775 8774 -8759 0
-8776 8775 8760 0
-8776 -8775 -8760 0
8776 -8775 8760 0
8776 8775 -8760 0
-8777 8776 8761 0
-8777 -8776 -8761 0
8777 -8776 8761 0
8777 8776 -8761 0
-8778 8777 8762 0
-8778 -8777 -8762 0
8778 -8777 8762 0
8778 8777 -8762 0
-8779 8778 8763 0
-8779 -8778 -8763 0
8779 -8778 8763 0
8779 8778 -8763 0
-8780 8779 8764 0
-8780 -8779 -8764 0
8780 -8779 8764 0
8780 8779 -8764 0
-8781 8780 8765 0
-8781 -8780 -8765 0
8781 -8780 8765 0
8781 8780 -8765 0
-8782 8781 8766 0
-8782 -8781 -8766 0
8782 -8781 8766 0
8782 8781 -8766 0
-8783 8782 8767 0
-8783 -8782 -8767 0
8783 -8782 8767 0
8783 8782 -8767 0
-8784 8783 8768 0
-8784 -8783 -8768 0
8784 -8783 8768 0
8784 8783 -8768 0
-8785 8784 8769 0
-8785 -8784 -8769 0
8785 -8784 8769 0
8785 8784 -8769 0
-8786 8785 8770 0
-8786 -8785 -8770 0
8786 -8785 8770 0
8786 8785 -8770 0
-8787 8786 8771 0
-8787 -8786 -8771 0
8787 -8786 8771 0
8787 8786 -8771 0
-8788 8787 8772 0
-8788 -8787 -8772 0
8788 -8787 8772 0
8788 8787 -8772 0
-8789 8788 8773 0
-8789 -8788 -8773 0
8789 -8788 8773 0
8789 8788 -8773 0
-8789 0
-8790 8311 0
-8790 47 0
8790 -8311 -47 0
-8791 8313 0
-8791 44 0
8791 -8313 -44 0
-8792 8315 0
-8792 40 0
8792 -8315 -40 0
-8793 8317 0
-8793 44 0
8793 -8317 -44 0
-8794 8319 0
-8794 47 0
8794 -8319 -47 0
-8795 8321 0
-8795 46 0
8795 -8321 -46 0
-8796 8323 0
-8796 95 0
8796 -8323 -95 0
-8797 8325 0
-8797 92 0
8797 -8325 -92 0
-8798 8327 0
-8798 88 0
8798 -8327 -88 0
-8799 8329 0
-8799 92 0
8799 -8329 -92 0
-8800 8331 0
-8800 95 0
8800 -8331 -95 0
-8801 8333 0
-8801 94 0
8801 -8333 -94 0
-8802 8335 0
-8802 143 0
8802 -8335 -143 0
-8803 8337 0
-8803 140 0
8803 -8337 -140 0
-8804 8339 0
-8804 136 0
8804 -8339 -136 0
-8805 8341 0
-8805 191 0
8805 -8341 -191 0
-8806 8343 0
-8806 188 0
8806 -8343 -188 0
-8807 8790 8791 0
-8807 -8790 -8791 0
8807 -8790 8791 0
8807 8790 -8791 0
-8808 8807 8792 0
-8808 -8807 -8792 0
8808 -8807 8792 0
8808 8807 -8792 0
-8809 8808 8793 0
-8809 -8808 -8793 0
8809 -8808 8793 0
8809 8808 -8793 0
-8810 8809 8794 0
-8810 -8809 -8794 0
8810 -8809 8794 0
8810 8809 -8794 0
-8811 8810 8795 0
-8811 -8810 -8795 0
8811 -8810 8795 0
8811 8810 -8795 0
-8812 8811 8796 0
-8812 -8811 -8796 0
8812 -8811 8796 0
8812 8811 -8796 0
-8813 8812 8797 0
-8813 -8812 -8797 0
8813 -8812 8797 0
8813 8812 -8797 0
-8814 8813 8798 0
-8814 -8813 -8798 0
8814 -8813 8798 0
8814 8813 -8798 0
-8815 8814 8799 0
-8815 -8814 -8799 0
8815 -8814 8799 0
8815 8814 -8799 0
-8816 8815 8800 0
-8816 -8815 -8800 0
8816 -8815 8800 0
8816 8815 -8800 0
-8817 8816 8801 0
-8817 -8816 -8801 0
8817 -8816 8801 0
8817 8816 -8801 0
-8818 8817 8802 0
-8818 -8817 -8802 0
8818 -8817 8802 0
8818 8817 -8802 0
-8819 8818 8803 0
-8819 -8818 -8803 0
8819 -8818 8803 0
8819 8818 -8803 0
-8820 8819 8804 0
-8820 -8819 -8804 0
8820 -8819 8804 0
8820 8819 -8804 0
-8821 8820 8805 0
-8821 -8820 -8805 0
8821 -8820 8805 0
8821 8820 -8805 0
-8822 8821 8806 0
-8822 -8821 -8806 0
8822 -8821 8806 0
8822 8821 -8806 0
-8822 0
-8823 8311 0
-8823 48 0
8823 -8311 -48 0
-8824 8313 0
-8824 43 0
8824 -8313 -43 0
-8825 8315 0
-8825 38 0
8825 -8315 -38 0
-8826 8317 0
-8826 48 0
8826 -8317 -48 0
-8827 8319 0
-8827 43 0
8827 -8319 -43 0
-8828 8321 0
-8828 38 0
8828 -8321 -38 0
-8829 8323 0
-8829 96 0
8829 -8323 -96 0
-8830 8325 0
-8830 91 0
8830 -8325 -91 0
-8831 8327 0
-8831 86 0
8831 -8327 -86 0
-8832 8329 0
-8832 96 0
8832 -8329 -96 0
-8833 8331 0
-8833 91 0
8833 -8331 -91 0
-8834 8333 0
-8834 86 0
8834 -8333 -86 0
-8835 8335 0
-8835 144 0
8835 -8335 -144 0
-8836 8337 0
-8836 139 0
8836 -8337 -139 0
-8837 8339 0
-8837 134 0
8837 -8339 -134 0
-8838 8341 0
-8838 192 0
8838 -8341 -192 0
-8839 8343 0
-8839 192 0
8839 -8343 -192 0
-8840 8823 8824 0
-8840 -8823 -8824 0
8840 -8823 8824 0
8840 8823 -8824 0
-8841 8840 8825 0
-8841 -8840 -8825 0
8841 -8840 8825 0
8841 8840 -8825 0
-8842 8841 8826 0
-8842 -8841 -8826 0
8842 -8841 8826 0
8842 8841 -8826 0
-8843 8842 8827 0
-8843 -8842 -8827 0
8843 -8842 8827 0
8843 8842 -8827 0
-8844 8843 8828 0
-8844 -8843 -8828 0
8844 -8843 8828 0
8844 8843 -8828 0
-8845 8844 8829 0
-8845 -8844 -8829 0
8845 -8844 8829 0
8845 8844 -8829 0
-8846 8845 8830 0
-8846 -8845 -8830 0
8846 -8845 8830 0
8846 8845 -8830 0
-8847 8846 8831 0
-8847 -8846 -8831 0
8847 -8846 8831 0
8847 8846 -8831 0
-8848 8847 8832 0
-8848 -8847 -8832 0
8848 -8847 8832 0
8848 8847 -8832 0
-8849 8848 8833 0
-8849 -8848 -8833 0
8849 -8848 8833 0
8849 8848 -8833 0
-8850 8849 8834 0
-8850 -8849 -8834 0
8850 -8849 8834 0
8850 8849 -8834 0
-8851 8850 8835 0
-8851 -8850 -8835 0
8851 -8850 8835 0
8851 8850 -8835 0
-8852 8851 8836 0
-8852 -8851 -8836 0
8852 -8851 8836 0
8852 8851 -8836 0
-8853 8852 8837 0
-8853 -8852 -8837 0
8853 -8852 8837 0
8853 8852 -8837 0
-8854 8853 8838 0
-8854 -8853 -8838 0
8854 -8853 8838 0
8854 8853 -8838 0
-8855 8854 8839 0
-8855 -8854 -8839 0
8855 -8854 8839 0
8855 8854 -8839 0
-8855 0
-8856 5 0
-8856 27 0
8856 -5 -27 0
-8857 8856 0
-8857 33 0
8857 -8856 -33 0
-8858 6 0
-8858 28 0
8858 -6 -28 0
-8859 8858 0
-8859 33 0
8859 -8858 -33 0
-8860 10 0
-8860 20 0
8860 -10 -20 0
-8861 8860 0
-8861 33 0
8861 -8860 -33 0
-8862 18 0
-8862 11 0
8862 -18 -11 0
-8863 8862 0
-8863 33 0
8863 -8862 -33 0
-8864 22 0
-8864 15 0
8864 -22 -15 0
-8865 8864 0
-8865 33 0
8865 -8864 -33 0
-8866 23 0
-8866 13 0
8866 -23 -13 0
-8867 8866 0
-8867 33 0
8867 -8866 -33 0
-8868 53 0
-8868 75 0
8868 -53 -75 0
-8869 8868 0
-8869 81 0
8869 -8868 -81 0
-8870 54 0
-8870 76 0
8870 -54 -76 0
-8871 8870 0
-8871 81 0
8871 -8870 -81 0
-8872 58 0
-8872 68 0
8872 -58 -68 0
-8873 8872 0
-8873 81 0
8873 -8872 -81 0
-8874 66 0
-8874 59 0
8874 -66 -59 0
-8875 8874 0
-8875 81 0
8875 -8874 -81 0
-8876 70 0
-8876 63 0
8876 -70 -63 0
-8877 8876 0
-8877 81 0
8877 -8876 -81 0
-8878 71 0
-8878 61 0
8878 -71 -61 0
-8879 8878 0
-8879 81 0
8879 -8878 -81 0
-8880 101 0
-8880 123 0
8880 -101 -123 0
-8881 8880 0
-8881 129 0
8881 -8880 -129 0
-8882 102 0
-8882 124 0
8882 -102 -124 0
-8883 8882 0
-8883 129 0
8883 -8882 -129 0
-8884 106 0
-8884 116 0
8884 -106 -116 0
-8885 8884 0
-8885 129 0
8885 -8884 -129 0
-8886 149 0
-8886 171 0
8886 -149 -171 0
-8887 8886 0
-8887 177 0
8887 -8886 -177 0
-8888 162 0
-8888 155 0
8888 -162 -155 0
-8889 8888 0
-8889 177 0
8889 -8888 -177 0
-8890 8857 8859 0
-8890 -8857 -8859 0
8890 -8857 8859 0
8890 8857 -8859 0
-8891 8890 8861 0
-8891 -8890 -8861 0
8891 -8890 8861 0
8891 8890 -8861 0
-8892 8891 8863 0
-8892 -8891 -8863 0
8892 -8891 8863 0
8892 8891 -8863 0
-8893 8892 8865 0
-8893 -8892 -8865 0
8893 -8892 8865 0
8893 8892 -8865 0
-8894 8893 8867 0
-8894 -8893 -8867 0
8894 -8893 8867 0
8894 8893 -8867 0
-8895 8894 8869 0
-8895 -8894 -8869 0
8895 -8894 8869 0
8895 8894 -8869 0
-8896 8895 8871 0
-8896 -8895 -8871 0
8896 -8895 8871 0
8896 8895 -8871 0
-8897 8896 8873 0
-8897 -8896 -8873 0
8897 -8896 8873 0
8897 8896 -8873 0
-8898 8897 8875 0
-8898 -8897 -8875 0
8898 -8897 8875 0
8898 8897 -8875 0
-8899 8898 8877 0
-8899 -8898 -8877 0
8899 -8898 8877 0
8899 8898 -8877 0
-8900 8899 8879 0
-8900 -8899 -8879 0
8900 -8899 8879 0
8900 8899 -8879 0
-8901 8900 8881 0
-8901 -8900 -8881 0
8901 -8900 8881 0
8901 8900 -8881 0
-8902 8901 8883 0
-8902 -8901 -8883 0
8902 -8901 8883 0
8902 8901 -8883 0
-8903 8902 8885 0
-8903 -8902 -8885 0
8903 -8902 8885 0
8903 8902 -8885 0
-8904 8903 8887 0
-8904 -8903 -8887 0
8904 -8903 8887 0
8904 8903 -8887 0
-8905 8904 8889 0
-8905 -8904 -8889 0
8905 -8904 8889 0
8905 8904 -8889 0
-8905 0
-8906 8856 0
-8906 34 0
8906 -8856 -34 0
-8907 8858 0
-8907 34 0
8907 -8858 -34 0
-8908 8860 0
-8908 35 0
8908 -8860 -35 0
-8909 8862 0
-8909 37 0
8909 -8862 -37 0
-8910 8864 0
-8910 37 0
8910 -8864 -37 0
-8911 8866 0
-8911 41 0
8911 -8866 -41 0
-8912 8868 0
-8912 82 0
8912 -8868 -82 0
-8913 8870 0
-8913 82 0
8913 -8870 -82 0
-8914 8872 0
-8914 83 0
8914 -8872 -83 0
-8915 8874 0
-8915 85 0
8915 -8874 -85 0
-8916 8876 0
-8916 85 0
8916 -8876 -85 0
-8917 8878 0
-8917 89 0
8917 -8878 -89 0
-8918 8880 0
-8918 130 0
8918 -8880 -130 0
-8919 8882 0
-8919 130 0
8919 -8882 -130 0
-8920 8884 0
-8920 131 0
8920 -8884 -131 0
-8921 8886 0
-8921 178 0
8921 -8886 -178 0
-8922 8888 0
-8922 181 0
8922 -8888 -181 0
-8923 8906 8907 0
-8923 -8906 -8907 0
8923 -8906 8907 0
8923 8906 -8907 0
-8924 8923 8908 0
-8924 -8923 -8908 0
8924 -8923 8908 0
8924 8923 -8908 0
-8925 8924 8909 0
-8925 -8924 -8909 0
8925 -8924 8909 0
8925 8924 -8909 0
-8926 8925 8910 0
-8926 -8925 -8910 0
8926 -8925 8910 0
8926 8925 -8910 0
-8927 8926 8911 0
-8927 -8926 -8911 0
8927 -8926 8911 0
8927 8926 -8911 0
-8928 8927 8912 0
-8928 -8927 -8912 0
8928 -8927 8912 0
8928 8927 -8912 0
-8929 8928 8913 0
-8929 -8928 -8913 0
8929 -8928 8913 0
8929 8928 -8913 0
-8930 8929 8914 0
-8930 -8929 -8914 0
8930 -8929 8914 0
8930 8929 -8914 0
-8931 8930 8915 0
-8931 -8930 -8915 0
8931 -8930 8915 0
8931 8930 -8915 0
-8932 8931 8916 0
-8932 -8931 -8916 0
8932 -8931 8916 0
8932 8931 -8916 0
-8933 8932 8917 0
-8933 -8932 -8917 0
8933 -8932 8917 0
8933 8932 -8917 0
-8934 8933 8918 0
-8934 -8933 -8918 0
8934 -8933 8918 0
8934 8933 -8918 0
-8935 8934 8919 0
-8935 -8934 -8919 0
8935 -8934 8919 0
8935 8934 -8919 0
-8936 8935 8920 0
-8936 -8935 -8920 0
8936 -8935 8920 0
8936 8935 -8920 0
-8937 8936 8921 0
-8937 -8936 -8921 0
8937 -8936 8921 0
8937 8936 -8921 0
-8938 8937 8922 0
-8938 -8937 -8922 0
8938 -8937 8922 0
8938 8937 -8922 0
8938 0
-8939 8856 0
-8939 35 0
8939 -8856 -35 0
-8940 8858 0
-8940 36 0
8940 -8858 -36 0
-8941 8860 0
-8941 36 0
8941 -8860 -36 0
-8942 8862 0
-8942 41 0
8942 -8862 -41 0
-8943 8864 0
-8943 45 0
8943 -8864 -45 0
-8944 8866 0
-8944 45 0
8944 -8866 -45 0
-8945 8868 0
-8945 83 0
8945 -8868 -83 0
-8946 8870 0
-8946 84 0
8946 -8870 -84 0
-8947 8872 0
-8947 84 0
8947 -8872 -84 0
-8948 8874 0
-8948 89 0
8948 -8874 -89 0
-8949 8876 0
-8949 93 0
8949 -8876 -93 0
-8950 8878 0
-8950 93 0
8950 -8878 -93 0
-8951 8880 0
-8951 131 0
8951 -8880 -131 0
-8952 8882 0
-8952 132 0
8952 -8882 -132 0
-8953 8884 0
-8953 132 0
8953 -8884 -132 0
-8954 8886 0
-8954 179 0
8954 -8886 -179 0
-8955 8888 0
-8955 185 0
8955 -8888 -185 0
-8956 8939 8940 0
-8956 -8939 -8940 0
8956 -8939 8940 0
8956 8939 -8940 0
-8957 8956 8941 0
-8957 -8956 -8941 0
8957 -8956 8941 0
8957 8956 -8941 0
-8958 8957 8942 0
-8958 -8957 -8942 0
8958 -8957 8942 0
8958 8957 -8942 0
-8959 8958 8943 0
-8959 -8958 -8943 0
8959 -8958 8943 0
8959 8958 -8943 0
-8960 8959 8944 0
-8960 -8959 -8944 0
8960 -8959 8944 0
8960 8959 -8944 0
-8961 8960 8945 0
-8961 -8960 -8945 0
8961 -8960 8945 0
8961 8960 -8945 0
-8962 8961 8946 0
-8962 -8961 -8946 0
8962 -8961 8946 0
8962 8961 -8946 0
-8963 8962 8947 0
-8963 -8962 -8947 0
8963 -8962 8947 0
8963 8962 -8947 0
-8964 8963 8948 0
-8964 -8963 -8948 0
8964 -8963 8948 0
8964 8963 -8948 0
-8965 8964 8949 0
-8965 -8964 -8949 0
8965 -8964 8949 0
8965 8964 -8949 0
-8966 8965 8950 0
-8966 -8965 -8950 0
8966 -8965 8950 0
8966 8965 -8950 0
-8967 8966 8951 0
-8967 -8966 -8951 0
8967 -8966 8951 0
8967 8966 -8951 0
-8968 8967 8952 0
-8968 -8967 -8952 0
8968 -8967 8952 0
8968 8967 -8952 0
-8969 8968 8953 0
-8969 -8968 -8953 0
8969 -8968 8953 0
8969 8968 -8953 0
-8970 8969 8954 0
-8970 -8969 -8954 0
8970 -8969 8954 0
8970 8969 -8954 0
-8971 8970 8955 0
-8971 -8970 -8955 0
8971 -8970 8955 0
8971 8970 -8955 0
-8971 0
-8972 8856 0
-8972 36 0
8972 -8856 -36 0
-8973 8858 0
-8973 35 0
8973 -8858 -35 0
-8974 8860 0
-8974 34 0
8974 -8860 -34 0
-8975 8862 0
-8975 45 0
8975 -8862 -45 0
-8976 8864 0
-8976 41 0
8976 -8864 -41 0
-8977 8866 0
-8977 37 0
8977 -8866 -37 0
-8978 8868 0
-8978 84 0
8978 -8868 -84 0
-8979 8870 0
-8979 83 0
8979 -8870 -83 0
-8980 8872 0
-8980 82 0
8980 -8872 -82 0
-8981 8874 0
-8981 93 0
8981 -8874 -93 0
-8982 8876 0
-8982 89 0
8982 -8876 -89 0
-8983 8878 0
-8983 85 0
8983 -8878 -85 0
-8984 8880 0
-8984 132 0
8984 -8880 -132 0
-8985 8882 0
-8985 131 0
8985 -8882 -131 0
-8986 8884 0
-8986 130 0
8986 -8884 -130 0
-8987 8886 0
-8987 180 0
8987 -8886 -180 0
-8988 8888 0
-8988 189 0
8988 -8888 -189 0
-8989 8972 8973 0
-8989 -8972 -8973 0
8989 -8972 8973 0
8989 8972 -8973 0
-8990 8989 8974 0
-8990 -8989 -8974 0
8990 -8989 8974 0
8990 8989 -8974 0
-8991 8990 8975 0
-8991 -8990 -8975 0
8991 -8990 8975 0
8991 8990 -8975 0
-8992 8991 8976 0
-8992 -8991 -8976 0
8992 -8991 8976 0
8992 8991 -8976 0
-8993 8992 8977 0
-8993 -8992 -8977 0
8993 -8992 8977 0
8993 8992 -8977 0
-8994 8993 8978 0
-8994 -8993 -8978 0
8994 -8993 8978 0
8994 8993 -8978 0
-8995 8994 8979 0
-8995 -8994 -8979 0
8995 -8994 8979 0
8995 8994 -8979 0
-8996 8995 8980 0
-8996 -8995 -8980 0
8996 -8995 8980 0
8996 8995 -8980 0
-8997 8996 8981 0
-8997 -8996 -8981 0
8997 -8996 8981 0
8997 8996 -8981 0
-8998 8997 8982 0
-8998 -8997 -8982 0
8998 -8997 8982 0
8998 8997 -8982 0
-8999 8998 8983 0
-8999 -8998 -8983 0
8999 -8998 8983 0
8999 8998 -8983 0
-9000 8999 8984 0
-9000 -8999 -8984 0
9000 -8999 8984 0
9000 8999 -8984 0
-9001 9000 8985 0
-9001 -9000 -8985 0
9001 -9000 8985 0
9001 9000 -8985 0
-9002 9001 8986 0
-9002 -9001 -8986 0
9002 -9001 8986 0
9002 9001 -8986 0
-9003 9002 8987 0
-9003 -9002 -8987 0
9003 -9002 8987 0
9003 9002 -8987 0
-9004 9003 8988 0
-9004 -9003 -8988 0
9004 -9003 8988 0
9004 9003 -8988 0
-9004 0
-9005 8856 0
-9005 38 0
9005 -8856 -38 0
-9006 8858 0
-9006 38 0
9006 -8858 -38 0
-9007 8860 0
-9007 43 0
9007 -8860 -43 0
-9008 8862 0
-9008 38 0
9008 -8862 -38 0
-9009 8864 0
-9009 38 0
9009 -8864 -38 0
-9010 8866 0
-9010 43 0
9010 -8866 -43 0
-9011 8868 0
-9011 86 0
9011 -8868 -86 0
-9012 8870 0
-9012 86 0
9012 -8870 -86 0
-9013 8872 0
-9013 91 0
9013 -8872 -91 0
-9014 8874 0
-9014 86 0
9014 -8874 -86 0
-9015 8876 0
-9015 86 0
9015 -8876 -86 0
-9016 8878 0
-9016 91 0
9016 -8878 -91 0
-9017 8880 0
-9017 134 0
9017 -8880 -134 0
-9018 8882 0
-9018 134 0
9018 -8882 -134 0
-9019 8884 0
-9019 139 0
9019 -8884 -139 0
-9020 8886 0
-9020 182 0
9020 -8886 -182 0
-9021 8888 0
-9021 182 0
9021 -8888 -182 0
-9022 9005 9006 0
-9022 -9005 -9006 0
9022 -9005 9006 0
9022 9005 -9006 0
-9023 9022 9007 0
-9023 -9022 -9007 0
9023 -9022 9007 0
9023 9022 -9007 0
-9024 9023 9008 0
-9024 -9023 -9008 0
9024 -9023 9008 0
9024 9023 -9008 0
-9025 9024 9009 0
-9025 -9024 -9009 0
9025 -9024 9009 0
9025 9024 -9009 0
-9026 9025 9010 0
-9026 -9025 -9010 0
9026 -9025 9010 0
9026 9025 -9010 0
-9027 9026 9011 0
-9027 -9026 -9011 0
9027 -9026 9011 0
9027 9026 -9011 0
-9028 9027 9012 0
-9028 -9027 -9012 0
9028 -9027 9012 0
9028 9027 -9012 0
-9029 9028 9013 0
-9029 -9028 -9013 0
9029 -9028 9013 0
9029 9028 -9013 0
-9030 9029 9014 0
-9030 -9029 -9014 0
9030 -9029 9014 0
9030 9029 -9014 0
-9031 9030 9015 0
-9031 -9030 -9015 0
9031 -9030 9015 0
9031 9030 -9015 0
-9032 9031 9016 0
-9032 -9031 -9016 0
9032 -9031 9016 0
9032 9031 -9016 0
-9033 9032 9017 0
-9033 -9032 -9017 0
9033 -9032 9017 0
9033 9032 -9017 0
-9034 9033 9018 0
-9034 -9033 -9018 0
9034 -9033 9018 0
9034 9033 -9018 0
-9035 9034 9019 0
-9035 -9034 -9019 0
9035 -9034 9019 0
9035 9034 -9019 0
-9036 9035 9020 0
-9036 -9035 -9020 0
9036 -9035 9020 0
9036 9035 -9020 0
-9037 9036 9021 0
-9037 -9036 -9021 0
9037 -9036 9021 0
9037 9036 -9021 0
9037 0
-9038 8856 0
-9038 39 0
9038 -8856 -39 0
-9039 8858 0
-9039 40 0
9039 -8858 -40 0
-9040 8860 0
-9040 44 0
9040 -8860 -44 0
-9041 8862 0
-9041 42 0
9041 -8862 -42 0
-9042 8864 0
-9042 46 0
9042 -8864 -46 0
-9043 8866 0
-9043 47 0
9043 -8866 -47 0
-9044 8868 0
-9044 87 0
9044 -8868 -87 0
-9045 8870 0
-9045 88 0
9045 -8870 -88 0
-9046 8872 0
-9046 92 0
9046 -8872 -92 0
-9047 8874 0
-9047 90 0
9047 -8874 -90 0
-9048 8876 0
-9048 94 0
9048 -8876 -94 0
-9049 8878 0
-9049 95 0
9049 -8878 -95 0
-9050 8880 0
-9050 135 0
9050 -8880 -135 0
-9051 8882 0
-9051 136 0
9051 -8882 -136 0
-9052 8884 0
-9052 140 0
9052 -8884 -140 0
-9053 8886 0
-9053 183 0
9053 -8886 -183 0
-9054 8888 0
-9054 186 0
9054 -8888 -186 0
-9055 9038 9039 0
-9055 -9038 -9039 0
9055 -9038 9039 0
9055 9038 -9039 0
-9056 9055 9040 0
-9056 -9055 -9040 0
9056 -9055 9040 0
9056 9055 -9040 0
-9057 9056 9041 0
-9057 -9056 -9041 0
9057 -9056 9041 0
9057 9056 -9041 0
-9058 9057 9042 0
-9058 -9057 -9042 0
9058 -9057 9042 0
9058 9057 -9042 0
-9059 9058 9043 0
-9059 -9058 -9043 0
9059 -9058 9043 0
9059 9058 -9043 0
-9060 9059 9044 0
-9060 -9059 -9044 0
9060 -9059 9044 0
9060 9059 -9044 0
-9061 9060 9045 0
-9061 -9060 -9045 0
9061 -9060 9045 0
9061 9060 -9045 0
-9062 9061 9046 0
-9062 -9061 -9046 0
9062 -9061 9046 0
9062 9061 -9046 0
-9063 9062 9047 0
-9063 -9062 -9047 0
9063 -9062 9047 0
9063 9062 -9047 0
-9064 9063 9048 0
-9064 -9063 -9048 0
9064 -9063 9048 0
9064 9063 -9048 0
-9065 9064 9049 0
-9065 -9064 -9049 0
9065 -9064 9049 0
9065 9064 -9049 0
-9066 9065 9050 0
-9066 -9065 -9050 0
9066 -9065 9050 0
9066 9065 -9050 0
-9067 9066 9051 0
-9067 -9066 -9051 0
9067 -9066 9051 0
9067 9066 -9051 0
-9068 9067 9052 0
-9068 -9067 -9052 0
9068 -9067 9052 0
9068 9067 -9052 0
-9069 9068 9053 0
-9069 -9068 -9053 0
9069 -9068 9053 0
9069 9068 -9053 0
-9070 9069 9054 0
-9070 -9069 -9054 0
9070 -9069 9054 0
9070 9069 -9054 0
-9070 0
-9071 8856 0
-9071 40 0
9071 -8856 -40 0
-9072 8858 0
-9072 39 0
9072 -8858 -39 0
-9073 8860 0
-9073 42 0
9073 -8860 -42 0
-9074 8862 0
-9074 46 0
9074 -8862 -46 0
-9075 8864 0
-9075 42 0
9075 -8864 -42 0
-9076 8866 0
-9076 39 0
9076 -8866 -39 0
-9077 8868 0
-9077 88 0
9077 -8868 -88 0
-9078 8870 0
-9078 87 0
9078 -8870 -87 0
-9079 8872 0
-9079 90 0
9079 -8872 -90 0
-9080 8874 0
-9080 94 0
9080 -8874 -94 0
-9081 8876 0
-9081 90 0
9081 -8876 -90 0
-9082 8878 0
-9082 87 0
9082 -8878 -87 0
-9083 8880 0
-9083 136 0
9083 -8880 -136 0
-9084 8882 0
-9084 135 0
9084 -8882 -135 0
-9085 8884 0
-9085 138 0
9085 -8884 -138 0
-9086 8886 0
-9086 184 0
9086 -8886 -184 0
-9087 8888 0
-9087 190 0
9087 -8888 -190 0
-9088 9071 9072 0
-9088 -9071 -9072 0
9088 -9071 9072 0
9088 9071 -9072 0
-9089 9088 9073 0
-9089 -9088 -9073 0
9089 -9088 9073 0
9089 9088 -9073 0
-9090 9089 9074 0
-9090 -9089 -9074 0
9090 -9089 9074 0
9090 9089 -9074 0
-9091 9090 9075 0
-9091 -9090 -9075 0
9091 -9090 9075 0
9091 9090 -9075 0
-9092 9091 9076 0
-9092 -9091 -9076 0
9092 -9091 9076 0
9092 9091 -9076 0
-9093 9092 9077 0
-9093 -9092 -9077 0
9093 -9092 9077 0
9093 9092 -9077 0
-9094 9093 9078 0
-9094 -9093 -9078 0
9094 -9093 9078 0
9094 9093 -9078 0
-9095 9094 9079 0
-9095 -9094 -9079 0
9095 -9094 9079 0
9095 9094 -9079 0
-9096 9095 9080 0
-9096 -9095 -9080 0
9096 -9095 9080 0
9096 9095 -9080 0
-9097 9096 9081 0
-9097 -9096 -9081 0
9097 -9096 9081 0
9097 9096 -9081 0
-9098 9097 9082 0
-9098 -9097 -9082 0
9098 -9097 9082 0
9098 9097 -9082 0
-9099 9098 9083 0
-9099 -9098 -9083 0
9099 -9098 9083 0
9099 9098 -9083 0
-9100 9099 9084 0
-9100 -9099 -9084 0
9100 -9099 9084 0
9100 9099 -9084 0
-9101 9100 9085 0
-9101 -9100 -9085 0
9101 -9100 9085 0
9101 9100 -9085 0
-9102 9101 9086 0
-9102 -9101 -9086 0
9102 -9101 9086 0
9102 9101 -9086 0
-9103 9102 9087 0
-9103 -9102 -9087 0
9103 -9102 9087 0
9103 9102 -9087 0
-9103 0
-9104 8856 0
-9104 42 0
9104 -8856 -42 0
-9105 8858 0
-9105 46 0
9105 -8858 -46 0
-9106 8860 0
-9106 47 0
9106 -8860 -47 0
-9107 8862 0
-9107 39 0
9107 -8862 -39 0
-9108 8864 0
-9108 40 0
9108 -8864 -40 0
-9109 8866 0
-9109 44 0
9109 -8866 -44 0
-9110 8868 0
-9110 90 0
9110 -8868 -90 0
-9111 8870 0
-9111 94 0
9111 -8870 -94 0
-9112 8872 0
-9112 95 0
9112 -8872 -95 0
-9113 8874 0
-9113 87 0
9113 -8874 -87 0
-9114 8876 0
-9114 88 0
9114 -8876 -88 0
-9115 8878 0
-9115 92 0
9115 -8878 -92 0
-9116 8880 0
-9116 138 0
9116 -8880 -138 0
-9117 8882 0
-9117 142 0
9117 -8882 -142 0
-9118 8884 0
-9118 143 0
9118 -8884 -143 0
-9119 8886 0
-9119 186 0
9119 -8886 -186 0
-9120 8888 0
-9120 183 0
9120 -8888 -183 0
-9121 9104 9105 0
-9121 -9104 -9105 0
9121 -9104 9105 0
9121 9104 -9105 0
-9122 9121 9106 0
-9122 -9121 -9106 0
9122 -9121 9106 0
9122 9121 -9106 0
-9123 9122 9107 0
-9123 -9122 -9107 0
9123 -9122 9107 0
9123 9122 -9107 0
-9124 9123 9108 0
-9124 -9123 -9108 0
9124 -9123 9108 0
9124 9123 -9108 0
-9125 9124 9109 0
-9125 -9124 -9109 0
9125 -9124 9109 0
9125 9124 -9109 0
-9126 9125 9110 0
-9126 -9125 -9110 0
9126 -9125 9110 0
9126 9125 -9110 0
-9127 9126 9111 0
-9127 -9126 -9111 0
9127 -9126 9111 0
9127 9126 -9111 0
-9128 9127 9112 0
-9128 -9127 -9112 0
9128 -9127 9112 0
9128 9127 -9112 0
-9129 9128 9113 0
-9129 -9128 -9113 0
9129 -9128 9113 0
9129 9128 -9113 0
-9130 9129 9114 0
-9130 -9129 -9114 0
9130 -9129 9114 0
9130 9129 -9114 0
-9131 9130 9115 0
-9131 -9130 -9115 0
9131 -9130 9115 0
9131 9130 -9115 0
-9132 9131 9116 0
-9132 -9131 -9116 0
9132 -9131 9116 0
9132 9131 -9116 0
-9133 9132 9117 0
-9133 -9132 -9117 0
9133 -9132 9117 0
9133 9132 -9117 0
-9134 9133 9118 0
-9134 -9133 -9118 0
9134 -9133 9118 0
9134 9133 -9118 0
-9135 9134 9119 0
-9135 -9134 -9119 0
9135 -9134 9119 0
9135 9134 -9119 0
-9136 9135 9120 0
-9136 -9135 -9120 0
9136 -9135 9120 0
9136 9135 -9120 0
-9136 0
-9137 8856 0
-9137 44 0
9137 -8856 -44 0
-9138 8858 0
-9138 47 0
9138 -8858 -47 0
-9139 8860 0
-9139 46 0
9139 -8860 -46 0
-9140 8862 0
-9140 47 0
9140 -8862 -47 0
-9141 8864 0
-9141 44 0
9141 -8864 -44 0
-9142 8866 0
-9142 40 0
9142 -8866 -40 0
-9143 8868 0
-9143 92 0
9143 -8868 -92 0
-9144 8870 0
-9144 95 0
9144 -8870 -95 0
-9145 8872 0
-9145 94 0
9145 -8872 -94 0
-9146 8874 0
-9146 95 0
9146 -8874 -95 0
-9147 8876 0
-9147 92 0
9147 -8876 -92 0
-9148 8878 0
-9148 88 0
9148 -8878 -88 0
-9149 8880 0
-9149 140 0
9149 -8880 -140 0
-9150 8882 0
-9150 143 0
9150 -8882 -143 0
-9151 8884 0
-9151 142 0
9151 -8884 -142 0
-9152 8886 0
-9152 188 0
9152 -8886 -188 0
-9153 8888 0
-9153 191 0
9153 -8888 -191 0
-9154 9137 9138 0
-9154 -9137 -9138 0
9154 -9137 9138 0
9154 9137 -9138 0
-9155 9154 9139 0
-9155 -9154 -9139 0
9155 -9154 9139 0
9155 9154 -9139 0
-9156 9155 9140 0
-9156 -9155 -9140 0
9156 -9155 9140 0
9156 9155 -9140 0
-9157 9156 9141 0
-9157 -9156 -9141 0
9157 -9156 9141 0
9157 9156 -9141 0
-9158 9157 9142 0
-9158 -9157 -9142 0
9158 -9157 9142 0
9158 9157 -9142 0
-9159 9158 9143 0
-9159 -9158 -9143 0
9159 -9158 9143 0
9159 9158 -9143 0
-9160 9159 9144 0
-9160 -9159 -9144 0
9160 -9159 9144 0
9160 9159 -9144 0
-9161 9160 9145 0
-9161 -9160 -9145 0
9161 -9160 9145 0
9161 9160 -9145 0
-9162 9161 9146 0
-9162 -9161 -9146 0
9162 -9161 9146 0
9162 9161 -9146 0
-9163 9162 9147 0
-9163 -9162 -9147 0
9163 -9162 9147 0
9163 9162 -9147 0
-9164 9163 9148 0
-9164 -9163 -9148 0
9164 -9163 9148 0
9164 9163 -9148 0
-9165 9164 9149 0
-9165 -9164 -9149 0
9165 -9164 9149 0
9165 9164 -9149 0
-9166 9165 9150 0
-9166 -9165 -9150 0
9166 -9165 9150 0
9166 9165 -9150 0
-9167 9166 9151 0
-9167 -9166 -9151 0
9167 -9166 9151 0
9167 9166 -9151 0
-9168 9167 9152 0
-9168 -9167 -9152 0
9168 -9167 9152 0
9168 9167 -9152 0
-9169 9168 9153 0
-9169 -9168 -9153 0
9169 -9168 9153 0
9169 9168 -9153 0
-9169 0
-9170 8856 0
-9170 48 0
9170 -8856 -48 0
-9171 8858 0
-9171 43 0
9171 -8858 -43 0
-9172 8860 0
-9172 38 0
9172 -8860 -38 0
-9173 8862 0
-9173 48 0
9173 -8862 -48 0
-9174 8864 0
-9174 43 0
9174 -8864 -43 0
-9175 8866 0
-9175 38 0
9175 -8866 -38 0
-9176 8868 0
-9176 96 0
9176 -8868 -96 0
-9177 8870 0
-9177 91 0
9177 -8870 -91 0
-9178 8872 0
-9178 86 0
9178 -8872 -86 0
-9179 8874 0
-9179 96 0
9179 -8874 -96 0
-9180 8876 0
-9180 91 0
9180 -8876 -91 0
-9181 8878 0
-9181 86 0
9181 -8878 -86 0
-9182 8880 0
-9182 144 0
9182 -8880 -144 0
-9183 8882 0
-9183 139 0
9183 -8882 -139 0
-9184 8884 0
-9184 134 0
9184 -8884 -134 0
-9185 8886 0
-9185 192 0
9185 -8886 -192 0
-9186 8888 0
-9186 192 0
9186 -8888 -192 0
-9187 9170 9171 0
-9187 -9170 -9171 0
9187 -9170 9171 0
9187 9170 -9171 0
-9188 9187 9172 0
-9188 -9187 -9172 0
9188 -9187 9172 0
9188 9187 -9172 0
-9189 9188 9173 0
-9189 -9188 -9173 0
9189 -9188 9173 0
9189 9188 -9173 0
-9190 9189 9174 0
-9190 -9189 -9174 0
9190 -9189 9174 0
9190 9189 -9174 0
-9191 9190 9175 0
-9191 -9190 -9175 0
9191 -9190 9175 0
9191 9190 -9175 0
-9192 9191 9176 0
-9192 -9191 -9176 0
9192 -9191 9176 0
9192 9191 -9176 0
-9193 9192 9177 0
-9193 -9192 -9177 0
9193 -9192 9177 0
9193 9192 -9177 0
-9194 9193 9178 0
-9194 -9193 -9178 0
9194 -9193 9178 0
9194 9193 -9178 0
-9195 9194 9179 0
-9195 -9194 -9179 0
9195 -9194 9179 0
9195 9194 -9179 0
-9196 9195 9180 0
-9196 -9195 -9180 0
9196 -9195 9180 0
9196 9195 -9180 0
-9197 9196 9181 0
-9197 -9196 -9181 0
9197 -9196 9181 0
9197 9196 -9181 0
-9198 9197 9182 0
-9198 -9197 -9182 0
9198 -9197 9182 0
9198 9197 -9182 0
-9199 9198 9183 0
-9199 -9198 -9183 0
9199 -9198 9183 0
9199 9198 -9183 0
-9200 9199 9184 0
-9200 -9199 -9184 0
9200 -9199 9184 0
9200 9199 -9184 0
-9201 9200 9185 0
-9201 -9200 -9185 0
9201 -9200 9185 0
9201 9200 -9185 0
-9202 9201 9186 0
-9202 -9201 -9186 0
9202 -9201 9186 0
9202 9201 -9186 0
-9202 0
-9203 5 0
-9203 30 0
9203 -5 -30 0
-9204 9203 0
-9204 33 0
9204 -9203 -33 0
-9205 6 0
-9205 30 0
9205 -6 -30 0
-9206 9205 0
-9206 33 0
9206 -9205 -33 0
-9207 10 0
-9207 31 0
9207 -10 -31 0
-9208 9207 0
-9208 33 0
9208 -9207 -33 0
-9209 18 0
-9209 8 0
9209 -18 -8 0
-9210 9209 0
-9210 33 0
9210 -9209 -33 0
-9211 22 0
-9211 8 0
9211 -22 -8 0
-9212 9211 0
-9212 33 0
9212 -9211 -33 0
-9213 23 0
-9213 12 0
9213 -23 -12 0
-9214 9213 0
-9214 33 0
9214 -9213 -33 0
-9215 53 0
-9215 78 0
9215 -53 -78 0
-9216 9215 0
-9216 81 0
9216 -9215 -81 0
-9217 54 0
-9217 78 0
9217 -54 -78 0
-9218 9217 0
-9218 81 0
9218 -9217 -81 0
-9219 58 0
-9219 79 0
9219 -58 -79 0
-9220 9219 0
-9220 81 0
9220 -9219 -81 0
-9221 66 0
-9221 56 0
9221 -66 -56 0
-9222 9221 0
-9222 81 0
9222 -9221 -81 0
-9223 70 0
-9223 56 0
9223 -70 -56 0
-9224 9223 0
-9224 81 0
9224 -9223 -81 0
-9225 71 0
-9225 60 0
9225 -71 -60 0
-9226 9225 0
-9226 81 0
9226 -9225 -81 0
-9227 101 0
-9227 126 0
9227 -101 -126 0
-9228 9227 0
-9228 129 0
9228 -9227 -129 0
-9229 102 0
-9229 126 0
9229 -102 -126 0
-9230 9229 0
-9230 129 0
9230 -9229 -129 0
-9231 106 0
-9231 127 0
9231 -106 -127 0
-9232 9231 0
-9232 129 0
9232 -9231 -129 0
-9233 149 0
-9233 174 0
9233 -149 -174 0
-9234 9233 0
-9234 177 0
9234 -9233 -177 0
-9235 162 0
-9235 152 0
9235 -162 -152 0
-9236 9235 0
-9236 177 0
9236 -9235 -177 0
-9237 9204 9206 0
-9237 -9204 -9206 0
9237 -9204 9206 0
9237 9204 -9206 0
-9238 9237 9208 0
-9238 -9237 -9208 0
9238 -9237 9208 0
9238 9237 -9208 0
-9239 9238 9210 0
-9239 -9238 -9210 0
9239 -9238 9210 0
9239 9238 -9210 0
-9240 9239 9212 0
-9240 -9239 -9212 0
9240 -9239 9212 0
9240 9239 -9212 0
-9241 9240 9214 0
-9241 -9240 -9214 0
9241 -9240 9214 0
9241 9240 -9214 0
-9242 9241 9216 0
-9242 -9241 -9216 0
9242 -9241 9216 0
9242 9241 -9216 0
-9243 9242 9218 0
-9243 -9242 -9218 0
9243 -9242 9218 0
9243 9242 -9218 0
-9244 9243 9220 0
-9244 -9243 -9220 0
9244 -9243 9220 0
9244 9243 -9220 0
-9245 9244 9222 0
-9245 -9244 -9222 0
9245 -9244 9222 0
9245 9244 -9222 0
-9246 9245 9224 0
-9246 -9245 -9224 0
9246 -9245 9224 0
9246 9245 -9224 0
-9247 9246 9226 0
-9247 -9246 -9226 0
9247 -9246 9226 0
9247 9246 -9226 0
-9248 9247 9228 0
-9248 -9247 -9228 0
9248 -9247 9228 0
9248 9247 -9228 0
-9249 9248 9230 0
-9249 -9248 -9230 0
9249 -9248 9230 0
9249 9248 -9230 0
-9250 9249 9232 0
-9250 -9249 -9232 0
9250 -9249 9232 0
9250 9249 -9232 0
-9251 9250 9234 0
-9251 -9250 -9234 0
9251 -9250 9234 0
9251 9250 -9234 0
-9252 9251 9236 0
-9252 -9251 -9236 0
9252 -9251 9236 0
9252 9251 -9236 0
-9252 0
-9253 9203 0
-9253 34 0
9253 -9203 -34 0
-9254 9205 0
-9254 34 0
9254 -9205 -34 0
-9255 9207 0
-9255 35 0
9255 -9207 -35 0
-9256 9209 0
-9256 37 0
9256 -9209 -37 0
-9257 9211 0
-9257 37 0
9257 -9211 -37 0
-9258 9213 0
-9258 41 0
9258 -9213 -41 0
-9259 9215 0
-9259 82 0
9259 -9215 -82 0
-9260 9217 0
-9260 82 0
9260 -9217 -82 0
-9261 9219 0
-9261 83 0
9261 -9219 -83 0
-9262 9221 0
-9262 85 0
9262 -9221 -85 0
-9263 9223 0
-9263 85 0
9263 -9223 -85 0
-9264 9225 0
-9264 89 0
9264 -9225 -89 0
-9265 9227 0
-9265 130 0
9265 -9227 -130 0
-9266 9229 0
-9266 130 0
9266 -9229 -130 0
-9267 9231 0
-9267 131 0
9267 -9231 -131 0
-9268 9233 0
-9268 178 0
9268 -9233 -178 0
-9269 9235 0
-9269 181 0
9269 -9235 -181 0
-9270 9253 9254 0
-9270 -9253 -9254 0
9270 -9253 9254 0
9270 9253 -9254 0
-9271 9270 9255 0
-9271 -9270 -9255 0
9271 -9270 9255 0
9271 9270 -9255 0
-9272 9271 9256 0
-9272 -9271 -9256 0
9272 -9271 9256 0
9272 9271 -9256 0
-9273 9272 9257 0
-9273 -9272 -9257 0
9273 -9272 9257 0
9273 9272 -9257 0
-9274 9273 9258 0
-9274 -9273 -9258 0
9274 -9273 9258 0
9274 9273 -9258 0
-9275 9274 9259 0
-9275 -9274 -9259 0
9275 -9274 9259 0
9275 9274 -9259 0
-9276 9275 9260 0
-9276 -9275 -9260 0
9276 -9275 9260 0
9276 9275 -9260 0
-9277 9276 9261 0
-9277 -9276 -9261 0
9277 -9276 9261 0
9277 9276 -9261 0
-9278 9277 9262 0
-9278 -9277 -9262 0
9278 -9277 9262 0
9278 9277 -9262 0
-9279 9278 9263 0
-9279 -9278 -9263 0
9279 -9278 9263 0
9279 9278 -9263 0
-9280 9279 9264 0
-9280 -9279 -9264 0
9280 -9279 9264 0
9280 9279 -9264 0
-9281 9280 9265 0
-9281 -9280 -9265 0
9281 -9280 9265 0
9281 9280 -9265 0
-9282 9281 9266 0
-9282 -9281 -9266 0
9282 -9281 9266 0
9282 9281 -9266 0
-9283 9282 9267 0
-9283 -9282 -9267 0
9283 -9282 9267 0
9283 9282 -9267 0
-9284 9283 9268 0
-9284 -9283 -9268 0
9284 -9283 9268 0
9284 9283 -9268 0
-9285 9284 9269 0
-9285 -9284 -9269 0
9285 -9284 9269 0
9285 9284 -9269 0
-9285 0
-9286 9203 0
-9286 35 0
9286 -9203 -35 0
-9287 9205 0
-9287 36 0
9287 -9205 -36 0
-9288 9207 0
-9288 36 0
9288 -9207 -36 0
-9289 9209 0
-9289 41 0
9289 -9209 -41 0
-9290 9211 0
-9290 45 0
9290 -9211 -45 0
-9291 9213 0
-9291 45 0
9291 -9213 -45 0
-9292 9215 0
-9292 83 0
9292 -9215 -83 0
-9293 9217 0
-9293 84 0
9293 -9217 -84 0
-9294 9219 0
-9294 84 0
9294 -9219 -84 0
-9295 9221 0
-9295 89 0
9295 -9221 -89 0
-9296 9223 0
-9296 93 0
9296 -9223 -93 0
-9297 9225 0
-9297 93 0
9297 -9225 -93 0
-9298 9227 0
-9298 131 0
9298 -9227 -131 0
-9299 9229 0
-9299 132 0
9299 -9229 -132 0
-9300 9231 0
-9300 132 0
9300 -9231 -132 0
-9301 9233 0
-9301 179 0
9301 -9233 -179 0
-9302 9235 0
-9302 185 0
9302 -9235 -185 0
-9303 9286 9287 0
-9303 -9286 -9287 0
9303 -9286 9287 0
9303 9286 -9287 0
-9304 9303 9288 0
-9304 -9303 -9288 0
9304 -9303 9288 0
9304 9303 -9288 0
-9305 9304 9289 0
-9305 -9304 -9289 0
9305 -9304 9289 0
9305 9304 -9289 0
-9306 9305 9290 0
-9306 -9305 -9290 0
9306 -9305 9290 0
9306 9305 -9290 0
-9307 9306 9291 0
-9307 -9306 -9291 0
9307 -9306 9291 0
9307 9306 -9291 0
-9308 9307 9292 0
-9308 -9307 -9292 0
9308 -9307 9292 0
9308 9307 -9292 0
-9309 9308 9293 0
-9309 -9308 -9293 0
9309 -9308 9293 0
9309 9308 -9293 0
-9310 9309 9294 0
-9310 -9309 -9294 0
9310 -9309 9294 0
9310 9309 -9294 0
-9311 9310 9295 0
-9311 -9310 -9295 0
9311 -9310 9295 0
9311 9310 -9295 0
-9312 9311 9296 0
-9312 -9311 -9296 0
9312 -9311 9296 0
9312 9311 -9296 0
-9313 9312 9297 0
-9313 -9312 -9297 0
9313 -9312 9297 0
9313 9312 -9297 0
-9314 9313 9298 0
-9314 -9313 -9298 0
9314 -9313 9298 0
9314 9313 -9298 0
-9315 9314 9299 0
-9315 -9314 -9299 0
9315 -9314 9299 0
9315 9314 -9299 0
-9316 9315 9300 0
-9316 -9315 -9300 0
9316 -9315 9300 0
9316 9315 -9300 0
-9317 9316 9301 0
-9317 -9316 -9301 0
9317 -9316 9301 0
9317 9316 -9301 0
-9318 9317 9302 0
-9318 -9317 -9302 0
9318 -9317 9302 0
9318 9317 -9302 0
-9318 0
-9319 9203 0
-9319 36 0
9319 -9203 -36 0
-9320 9205 0
-9320 35 0
9320 -9205 -35 0
-9321 9207 0
-9321 34 0
9321 -9207 -34 0
-9322 9209 0
-9322 45 0
9322 -9209 -45 0
-9323 9211 0
-9323 41 0
9323 -9211 -41 0
-9324 9213 0
-9324 37 0
9324 -9213 -37 0
-9325 9215 0
-9325 84 0
9325 -9215 -84 0
-9326 9217 0
-9326 83 0
9326 -9217 -83 0
-9327 9219 0
-9327 82 0
9327 -9219 -82 0
-9328 9221 0
-9328 93 0
9328 -9221 -93 0
-9329 9223 0
-9329 89 0
9329 -9223 -89 0
-9330 9225 0
-9330 85 0
9330 -9225 -85 0
-9331 9227 0
-9331 132 0
9331 -9227 -132 0
-9332 9229 0
-9332 131 0
9332 -9229 -131 0
-9333 9231 0
-9333 130 0
9333 -9231 -130 0
-9334 9233 0
-9334 180 0
9334 -9233 -180 0
-9335 9235 0
-9335 189 0
9335 -9235 -189 0
-9336 9319 9320 0
-9336 -9319 -9320 0
9336 -9319 9320 0
9336 9319 -9320 0
-9337 9336 9321 0
-9337 -9336 -9321 0
9337 -9336 9321 0
9337 9336 -9321 0
-9338 9337 9322 0
-9338 -9337 -9322 0
9338 -9337 9322 0
9338 9337 -9322 0
-9339 9338 9323 0
-9339 -9338 -9323 0
9339 -9338 9323 0
9339 9338 -9323 0
-9340 9339 9324 0
-9340 -9339 -9324 0
9340 -9339 9324 0
9340 9339 -9324 0
-9341 9340 9325 0
-9341 -9340 -9325 0
9341 -9340 9325 0
9341 9340 -9325 0
-9342 9341 9326 0
-9342 -9341 -9326 0
9342 -9341 9326 0
9342 9341 -9326 0
-9343 9342 9327 0
-9343 -9342 -9327 0
9343 -9342 9327 0
9343 9342 -9327 0
-9344 9343 9328 0
-9344 -9343 -9328 0
9344 -9343 9328 0
9344 9343 -9328 0
-9345 9344 9329 0
-9345 -9344 -9329 0
9345 -9344 9329 0
9345 9344 -9329 0
-9346 9345 9330 0
-9346 -9345 -9330 0
9346 -9345 9330 0
9346 9345 -9330 0
-9347 9346 9331 0
-9347 -9346 -9331 0
9347 -9346 9331 0
9347 9346 -9331 0
-9348 9347 9332 0
-9348 -9347 -9332 0
9348 -9347 9332 0
9348 9347 -9332 0
-9349 9348 9333 0
-9349 -9348 -9333 0
9349 -9348 9333 0
9349 9348 -9333 0
-9350 9349 9334 0
-9350 -9349 -9334 0
9350 -9349 9334 0
9350 9349 -9334 0
-9351 9350 9335 0
-9351 -9350 -9335 0
9351 -9350 9335 0
9351 9350 -9335 0
-9351 0
-9352 9203 0
-9352 37 0
9352 -9203 -37 0
-9353 9205 0
-9353 37 0
9353 -9205 -37 0
-9354 9207 0
-9354 41 0
9354 -9207 -41 0
-9355 9209 0
-9355 34 0
9355 -9209 -34 0
-9356 9211 0
-9356 34 0
9356 -9211 -34 0
-9357 9213 0
-9357 35 0
9357 -9213 -35 0
-9358 9215 0
-9358 85 0
9358 -9215 -85 0
-9359 9217 0
-9359 85 0
9359 -9217 -85 0
-9360 9219 0
-9360 89 0
9360 -9219 -89 0
-9361 9221 0
-9361 82 0
9361 -9221 -82 0
-9362 9223 0
-9362 82 0
9362 -9223 -82 0
-9363 9225 0
-9363 83 0
9363 -9225 -83 0
-9364 9227 0
-9364 133 0
9364 -9227 -133 0
-9365 9229 0
-9365 133 0
9365 -9229 -133 0
-9366 9231 0
-9366 137 0
9366 -9231 -137 0
-9367 9233 0
-9367 181 0
9367 -9233 -181 0
-9368 9235 0
-9368 178 0
9368 -9235 -178 0
-9369 9352 9353 0
-9369 -9352 -9353 0
9369 -9352 9353 0
9369 9352 -9353 0
-9370 9369 9354 0
-9370 -9369 -9354 0
9370 -9369 9354 0
9370 9369 -9354 0
-9371 9370 9355 0
-9371 -9370 -9355 0
9371 -9370 9355 0
9371 9370 -9355 0
-9372 9371 9356 0
-9372 -9371 -9356 0
9372 -9371 9356 0
9372 9371 -9356 0
-9373 9372 9357 0
-9373 -9372 -9357 0
9373 -9372 9357 0
9373 9372 -9357 0
-9374 9373 9358 0
-9374 -9373 -9358 0
9374 -9373 9358 0
9374 9373 -9358 0
-9375 9374 9359 0
-9375 -9374 -9359 0
9375 -9374 9359 0
9375 9374 -9359 0
-9376 9375 9360 0
-9376 -9375 -9360 0
9376 -9375 9360 0
9376 9375 -9360 0
-9377 9376 9361 0
-9377 -9376 -9361 0
9377 -9376 9361 0
9377 9376 -9361 0
-9378 9377 9362 0
-9378 -9377 -9362 0
9378 -9377 9362 0
9378 9377 -9362 0
-9379 9378 9363 0
-9379 -9378 -9363 0
9379 -9378 9363 0
9379 9378 -9363 0
-9380 9379 9364 0
-9380 -9379 -9364 0
9380 -9379 9364 0
9380 9379 -9364 0
-9381 9380 9365 0
-9381 -9380 -9365 0
9381 -9380 9365 0
9381 9380 -9365 0
-9382 9381 9366 0
-9382 -9381 -9366 0
9382 -9381 9366 0
9382 9381 -9366 0
-9383 9382 9367 0
-9383 -9382 -9367 0
9383 -9382 9367 0
9383 9382 -9367 0
-9384 9383 9368 0
-9384 -9383 -9368 0
9384 -9383 9368 0
9384 9383 -9368 0
-9384 0
-9385 9203 0
-9385 38 0
9385 -9203 -38 0
-9386 9205 0
-9386 38 0
9386 -9205 -38 0
-9387 9207 0
-9387 43 0
9387 -9207 -43 0
-9388 9209 0
-9388 38 0
9388 -9209 -38 0
-9389 9211 0
-9389 38 0
9389 -9211 -38 0
-9390 9213 0
-9390 43 0
9390 -9213 -43 0
-9391 9215 0
-9391 86 0
9391 -9215 -86 0
-9392 9217 0
-9392 86 0
9392 -9217 -86 0
-9393 9219 0
-9393 91 0
9393 -9219 -91 0
-9394 9221 0
-9394 86 0
9394 -9221 -86 0
-9395 9223 0
-9395 86 0
9395 -9223 -86 0
-9396 9225 0
-9396 91 0
9396 -9225 -91 0
-9397 9227 0
-9397 134 0
9397 -9227 -134 0
-9398 9229 0
-9398 134 0
9398 -9229 -134 0
-9399 9231 0
-9399 139 0
9399 -9231 -139 0
-9400 9233 0
-9400 182 0
9400 -9233 -182 0
-9401 9235 0
-9401 182 0
9401 -9235 -182 0
-9402 9385 9386 0
-9402 -9385 -9386 0
9402 -9385 9386 0
9402 9385 -9386 0
-9403 9402 9387 0
-9403 -9402 -9387 0
9403 -9402 9387 0
9403 9402 -9387 0
-9404 9403 9388 0
-9404 -9403 -9388 0
9404 -9403 9388 0
9404 9403 -9388 0
-9405 9404 9389 0
-9405 -9404 -9389 0
9405 -9404 9389 0
9405 9404 -9389 0
-9406 9405 9390 0
-9406 -9405 -9390 0
9406 -9405 9390 0
9406 9405 -9390 0
-9407 9406 9391 0
-9407 -9406 -9391 0
9407 -9406 9391 0
9407 9406 -9391 0
-9408 9407 9392 0
-9408 -9407 -9392 0
9408 -9407 9392 0
9408 9407 -9392 0
-9409 9408 9393 0
-9409 -9408 -9393 0
9409 -9408 9393 0
9409 9408 -9393 0
-9410 9409 9394 0
-9410 -9409 -9394 0
9410 -9409 9394 0
9410 9409 -9394 0
-9411 9410 9395 0
-9411 -9410 -9395 0
9411 -9410 9395 0
9411 9410 -9395 0
-9412 9411 9396 0
-9412 -9411 -9396 0
9412 -9411 9396 0
9412 9411 -9396 0
-9413 9412 9397 0
-9413 -9412 -9397 0
9413 -9412 9397 0
9413 9412 -9397 0
-9414 9413 9398 0
-9414 -9413 -9398 0
9414 -9413 9398 0
9414 9413 -9398 0
-9415 9414 9399 0
-9415 -9414 -9399 0
9415 -9414 9399 0
9415 9414 -9399 0
-9416 9415 9400 0
-9416 -9415 -9400 0
9416 -9415 9400 0
9416 9415 -9400 0
-9417 9416 9401 0
-9417 -9416 -9401 0
9417 -9416 9401 0
9417 9416 -9401 0
-9417 0
-9418 9203 0
-9418 39 0
9418 -9203 -39 0
-9419 9205 0
-9419 40 0
9419 -9205 -40 0
-9420 9207 0
-9420 44 0
9420 -9207 -44 0
-9421 9209 0
-9421 42 0
9421 -9209 -42 0
-9422 9211 0
-9422 46 0
9422 -9211 -46 0
-9423 9213 0
-9423 47 0
9423 -9213 -47 0
-9424 9215 0
-9424 87 0
9424 -9215 -87 0
-9425 9217 0
-9425 88 0
9425 -9217 -88 0
-9426 9219 0
-9426 92 0
9426 -9219 -92 0
-9427 9221 0
-9427 90 0
9427 -9221 -90 0
-9428 9223 0
-9428 94 0
9428 -9223 -94 0
-9429 9225 0
-9429 95 0
9429 -9225 -95 0
-9430 9227 0
-9430 135 0
9430 -9227 -135 0
-9431 9229 0
-9431 136 0
9431 -9229 -136 0
-9432 9231 0
-9432 140 0
9432 -9231 -140 0
-9433 9233 0
-9433 183 0
9433 -9233 -183 0
-9434 9235 0
-9434 186 0
9434 -9235 -186 0
-9435 9418 9419 0
-9435 -9418 -9419 0
9435 -9418 9419 0
9435 9418 -9419 0
-9436 9435 9420 0
-9436 -9435 -9420 0
9436 -9435 9420 0
9436 9435 -9420 0
-9437 9436 9421 0
-9437 -9436 -9421 0
9437 -9436 9421 0
9437 9436 -9421 0
-9438 9437 9422 0
-9438 -9437 -9422 0
9438 -9437 9422 0
9438 9437 -9422 0
-9439 9438 9423 0
-9439 -9438 -9423 0
9439 -9438 9423 0
9439 9438 -9423 0
-9440 9439 9424 0
-9440 -9439 -9424 0
9440 -9439 9424 0
9440 9439 -9424 0
-9441 9440 9425 0
-9441 -9440 -9425 0
9441 -9440 9425 0
9441 9440 -9425 0
-9442 9441 9426 0
-9442 -9441 -9426 0
9442 -9441 9426 0
9442 9441 -9426 0
-9443 9442 9427 0
-9443 -9442 -9427 0
9443 -9442 9427 0
9443 9442 -9427 0
-9444 9443 9428 0
-9444 -9443 -9428 0
9444 -9443 9428 0
9444 9443 -9428 0
-9445 9444 9429 0
-9445 -9444 -9429 0
9445 -9444 9429 0
9445 9444 -9429 0
-9446 9445 9430 0
-9446 -9445 -9430 0
9446 -9445 9430 0
9446 9445 -9430 0
-9447 9446 9431 0
-9447 -9446 -9431 0
9447 -9446 9431 0
9447 9446 -9431 0
-9448 9447 9432 0
-9448 -9447 -9432 0
9448 -9447 9432 0
9448 9447 -9432 0
-9449 9448 9433 0
-9449 -9448 -9433 0
9449 -9448 9433 0
9449 9448 -9433 0
-9450 9449 9434 0
-9450 -9449 -9434 0
9450 -9449 9434 0
9450 9449 -9434 0
-9450 0
-9451 9203 0
-9451 40 0
9451 -9203 -40 0
-9452 9205 0
-9452 39 0
9452 -9205 -39 0
-9453 9207 0
-9453 42 0
9453 -9207 -42 0
-9454 9209 0
-9454 46 0
9454 -9209 -46 0
-9455 9211 0
-9455 42 0
9455 -9211 -42 0
-9456 9213 0
-9456 39 0
9456 -9213 -39 0
-9457 9215 0
-9457 88 0
9457 -9215 -88 0
-9458 9217 0
-9458 87 0
9458 -9217 -87 0
-9459 9219 0
-9459 90 0
9459 -9219 -90 0
-9460 9221 0
-9460 94 0
9460 -9221 -94 0
-9461 9223 0
-9461 90 0
9461 -9223 -90 0
-9462 9225 0
-9462 87 0
9462 -9225 -87 0
-9463 9227 0
-9463 136 0
9463 -9227 -136 0
-9464 9229 0
-9464 135 0
9464 -9229 -135 0
-9465 9231 0
-9465 138 0
9465 -9231 -138 0
-9466 9233 0
-9466 184 0
9466 -9233 -184 0
-9467 9235 0
-9467 190 0
9467 -9235 -190 0
-9468 9451 9452 0
-9468 -9451 -9452 0
9468 -9451 9452 0
9468 9451 -9452 0
-9469 9468 9453 0
-9469 -9468 -9453 0
9469 -9468 9453 0
9469 9468 -9453 0
-9470 9469 9454 0
-9470 -9469 -9454 0
9470 -9469 9454 0
9470 9469 -9454 0
-9471 9470 9455 0
-9471 -9470 -9455 0
9471 -9470 9455 0
9471 9470 -9455 0
-9472 9471 9456 0
-9472 -9471 -9456 0
9472 -9471 9456 0
9472 9471 -9456 0
-9473 9472 9457 0
-9473 -9472 -9457 0
9473 -9472 9457 0
9473 9472 -9457 0
-9474 9473 9458 0
-9474 -9473 -9458 0
9474 -9473 9458 0
9474 9473 -9458 0
-9475 9474 9459 0
-9475 -9474 -9459 0
9475 -9474 9459 0
9475 9474 -9459 0
-9476 9475 9460 0
-9476 -9475 -9460 0
9476 -9475 9460 0
9476 9475 -9460 0
-9477 9476 9461 0
-9477 -9476 -9461 0
9477 -9476 9461 0
9477 9476 -9461 0
-9478 9477 9462 0
-9478 -9477 -9462 0
9478 -9477 9462 0
9478 9477 -9462 0
-9479 9478 9463 0
-9479 -9478 -9463 0
9479 -9478 9463 0
9479 9478 -9463 0
-9480 9479 9464 0
-9480 -9479 -9464 0
9480 -9479 9464 0
9480 9479 -9464 0
-9481 9480 9465 0
-9481 -9480 -9465 0
9481 -9480 9465 0
9481 9480 -9465 0
-9482 9481 9466 0
-9482 -9481 -9466 0
9482 -9481 9466 0
9482 9481 -9466 0
-9483 9482 9467 0
-9483 -9482 -9467 0
9483 -9482 9467 0
9483 9482 -9467 0
-9483 0
-9484 9203 0
-9484 41 0
9484 -9203 -41 0
-9485 9205 0
-9485 45 0
9485 -9205 -45 0
-9486 9207 0
-9486 45 0
9486 -9207 -45 0
-9487 9209 0
-9487 35 0
9487 -9209 -35 0
-9488 9211 0
-9488 36 0
9488 -9211 -36 0
-9489 9213 0
-9489 36 0
9489 -9213 -36 0
-9490 9215 0
-9490 89 0
9490 -9215 -89 0
-9491 9217 0
-9491 93 0
9491 -9217 -93 0
-9492 9219 0
-9492 93 0
9492 -9219 -93 0
-9493 9221 0
-9493 83 0
9493 -9221 -83 0
-9494 9223 0
-9494 84 0
9494 -9223 -84 0
-9495 9225 0
-9495 84 0
9495 -9225 -84 0
-9496 9227 0
-9496 137 0
9496 -9227 -137 0
-9497 9229 0
-9497 141 0
9497 -9229 -141 0
-9498 9231 0
-9498 141 0
9498 -9231 -141 0
-9499 9233 0
-9499 185 0
9499 -9233 -185 0
-9500 9235 0
-9500 179 0
9500 -9235 -179 0
-9501 9484 9485 0
-9501 -9484 -9485 0
9501 -9484 9485 0
9501 9484 -9485 0
-9502 9501 9486 0
-9502 -9501 -9486 0
9502 -9501 9486 0
9502 9501 -9486 0
-9503 9502 9487 0
-9503 -9502 -9487 0
9503 -9502 9487 0
9503 9502 -9487 0
-9504 9503 9488 0
-9504 -9503 -9488 0
9504 -9503 9488 0
9504 9503 -9488 0
-9505 9504 9489 0
-9505 -9504 -9489 0
9505 -9504 9489 0
9505 9504 -9489 0
-9506 9505 9490 0
-9506 -9505 -9490 0
9506 -9505 9490 0
9506 9505 -9490 0
-9507 9506 9491 0
-9507 -9506 -9491 0
9507 -9506 9491 0
9507 9506 -9491 0
-9508 9507 9492 0
-9508 -9507 -9492 0
9508 -9507 9492 0
9508 9507 -9492 0
-9509 9508 9493 0
-9509 -9508 -9493 0
9509 -9508 9493 0
9509 9508 -9493 0
-9510 9509 9494 0
-9510 -9509 -9494 0
9510 -9509 9494 0
9510 9509 -9494 0
-9511 9510 9495 0
-9511 -9510 -9495 0
9511 -9510 9495 0
9511 9510 -9495 0
-9512 9511 9496 0
-9512 -9511 -9496 0
9512 -9511 9496 0
9512 9511 -9496 0
-9513 9512 9497 0
-9513 -9512 -9497 0
9513 -9512 9497 0
9513 9512 -9497 0
-9514 9513 9498 0
-9514 -9513 -9498 0
9514 -9513 9498 0
9514 9513 -9498 0
-9515 9514 9499 0
-9515 -9514 -9499 0
9515 -9514 9499 0
9515 9514 -9499 0
-9516 9515 9500 0
-9516 -9515 -9500 0
9516 -9515 9500 0
9516 9515 -9500 0
-9516 0
-9517 9203 0
-9517 42 0
9517 -9203 -42 0
-9518 9205 0
-9518 46 0
9518 -9205 -46 0
-9519 9207 0
-9519 47 0
9519 -9207 -47 0
-9520 9209 0
-9520 39 0
9520 -9209 -39 0
-9521 9211 0
-9521 40 0
9521 -9211 -40 0
-9522 9213 0
-9522 44 0
9522 -9213 -44 0
-9523 9215 0
-9523 90 0
9523 -9215 -90 0
-9524 9217 0
-9524 94 0
9524 -9217 -94 0
-9525 9219 0
-9525 95 0
9525 -9219 -95 0
-9526 9221 0
-9526 87 0
9526 -9221 -87 0
-9527 9223 0
-9527 88 0
9527 -9223 -88 0
-9528 9225 0
-9528 92 0
9528 -9225 -92 0
-9529 9227 0
-9529 138 0
9529 -9227 -138 0
-9530 9229 0
-9530 142 0
9530 -9229 -142 0
-9531 9231 0
-9531 143 0
9531 -9231 -143 0
-9532 9233 0
-9532 186 0
9532 -9233 -186 0
-9533 9235 0
-9533 183 0
9533 -9235 -183 0
-9534 9517 9518 0
-9534 -9517 -9518 0
9534 -9517 9518 0
9534 9517 -9518 0
-9535 9534 9519 0
-9535 -9534 -9519 0
9535 -9534 9519 0
9535 9534 -9519 0
-9536 9535 9520 0
-9536 -9535 -9520 0
9536 -9535 9520 0
9536 9535 -9520 0
-9537 9536 9521 0
-9537 -9536 -9521 0
9537 -9536 9521 0
9537 9536 -9521 0
-9538 9537 9522 0
-9538 -9537 -9522 0
9538 -9537 9522 0
9538 9537 -9522 0
-9539 9538 9523 0
-9539 -9538 -9523 0
9539 -9538 9523 0
9539 9538 -9523 0
-9540 9539 9524 0
-9540 -9539 -9524 0
9540 -9539 9524 0
9540 9539 -9524 0
-9541 9540 9525 0
-9541 -9540 -9525 0
9541 -9540 9525 0
9541 9540 -9525 0
-9542 9541 9526 0
-9542 -9541 -9526 0
9542 -9541 9526 0
9542 9541 -9526 0
-9543 9542 9527 0
-9543 -9542 -9527 0
9543 -9542 9527 0
9543 9542 -9527 0
-9544 9543 9528 0
-9544 -9543 -9528 0
9544 -9543 9528 0
9544 9543 -9528 0
-9545 9544 9529 0
-9545 -9544 -9529 0
9545 -9544 9529 0
9545 9544 -9529 0
-9546 9545 9530 0
-9546 -9545 -9530 0
9546 -9545 9530 0
9546 9545 -9530 0
-9547 9546 9531 0
-9547 -9546 -9531 0
9547 -9546 9531 0
9547 9546 -9531 0
-9548 9547 9532 0
-9548 -9547 -9532 0
9548 -9547 9532 0
9548 9547 -9532 0
-9549 9548 9533 0
-9549 -9548 -9533 0
9549 -9548 9533 0
9549 9548 -9533 0
-9549 0
-9550 9203 0
-9550 43 0
9550 -9203 -43 0
-9551 9205 0
-9551 48 0
9551 -9205 -48 0
-9552 9207 0
-9552 48 0
9552 -9207 -48 0
-9553 9209 0
-9553 43 0
9553 -9209 -43 0
-9554 9211 0
-9554 48 0
9554 -9211 -48 0
-9555 9213 0
-9555 48 0
9555 -9213 -48 0
-9556 9215 0
-9556 91 0
9556 -9215 -91 0
-9557 9217 0
-9557 96 0
9557 -9217 -96 0
-9558 9219 0
-9558 96 0
9558 -9219 -96 0
-9559 9221 0
-9559 91 0
9559 -9221 -91 0
-9560 9223 0
-9560 96 0
9560 -9223 -96 0
-9561 9225 0
-9561 96 0
9561 -9225 -96 0
-9562 9227 0
-9562 139 0
9562 -9227 -139 0
-9563 9229 0
-9563 144 0
9563 -9229 -144 0
-9564 9231 0
-9564 144 0
9564 -9231 -144 0
-9565 9233 0
-9565 187 0
9565 -9233 -187 0
-9566 9235 0
-9566 187 0
9566 -9235 -187 0
-9567 9550 9551 0
-9567 -9550 -9551 0
9567 -9550 9551 0
9567 9550 -9551 0
-9568 9567 9552 0
-9568 -9567 -9552 0
9568 -9567 9552 0
9568 9567 -9552 0
-9569 9568 9553 0
-9569 -9568 -9553 0
9569 -9568 9553 0
9569 9568 -9553 0
-9570 9569 9554 0
-9570 -9569 -9554 0
9570 -9569 9554 0
9570 9569 -9554 0
-9571 9570 9555 0
-9571 -9570 -9555 0
9571 -9570 9555 0
9571 9570 -9555 0
-9572 9571 9556 0
-9572 -9571 -9556 0
9572 -9571 9556 0
9572 9571 -9556 0
-9573 9572 9557 0
-9573 -9572 -9557 0
9573 -9572 9557 0
9573 9572 -9557 0
-9574 9573 9558 0
-9574 -9573 -9558 0
9574 -9573 9558 0
9574 9573 -9558 0
-9575 9574 9559 0
-9575 -9574 -9559 0
9575 -9574 9559 0
9575 9574 -9559 0
-9576 9575 9560 0
-9576 -9575 -9560 0
9576 -9575 9560 0
9576 9575 -9560 0
-9577 9576 9561 0
-9577 -9576 -9561 0
9577 -9576 9561 0
9577 9576 -9561 0
-9578 9577 9562 0
-9578 -9577 -9562 0
9578 -9577 9562 0
9578 9577 -9562 0
-9579 9578 9563 0
-9579 -9578 -9563 0
9579 -9578 9563 0
9579 9578 -9563 0
-9580 9579 9564 0
-9580 -9579 -9564 0
9580 -9579 9564 0
9580 9579 -9564 0
-9581 9580 9565 0
-9581 -9580 -9565 0
9581 -9580 9565 0
9581 9580 -9565 0
-9582 9581 9566 0
-9582 -9581 -9566 0
9582 -9581 9566 0
9582 9581 -9566 0
-9582 0
-9583 9203 0
-9583 44 0
9583 -9203 -44 0
-9584 9205 0
-9584 47 0
9584 -9205 -47 0
-9585 9207 0
-9585 46 0
9585 -9207 -46 0
-9586 9209 0
-9586 47 0
9586 -9209 -47 0
-9587 9211 0
-9587 44 0
9587 -9211 -44 0
-9588 9213 0
-9588 40 0
9588 -9213 -40 0
-9589 9215 0
-9589 92 0
9589 -9215 -92 0
-9590 9217 0
-9590 95 0
9590 -9217 -95 0
-9591 9219 0
-9591 94 0
9591 -9219 -94 0
-9592 9221 0
-9592 95 0
9592 -9221 -95 0
-9593 9223 0
-9593 92 0
9593 -9223 -92 0
-9594 9225 0
-9594 88 0
9594 -9225 -88 0
-9595 9227 0
-9595 140 0
9595 -9227 -140 0
-9596 9229 0
-9596 143 0
9596 -9229 -143 0
-9597 9231 0
-9597 142 0
9597 -9231 -142 0
-9598 9233 0
-9598 188 0
9598 -9233 -188 0
-9599 9235 0
-9599 191 0
9599 -9235 -191 0
-9600 9583 9584 0
-9600 -9583 -9584 0
9600 -9583 9584 0
9600 9583 -9584 0
-9601 9600 9585 0
-9601 -9600 -9585 0
9601 -9600 9585 0
9601 9600 -9585 0
-9602 9601 9586 0
-9602 -9601 -9586 0
9602 -9601 9586 0
9602 9601 -9586 0
-9603 9602 9587 0
-9603 -9602 -9587 0
9603 -9602 9587 0
9603 9602 -9587 0
-9604 9603 9588 0
-9604 -9603 -9588 0
9604 -9603 9588 0
9604 9603 -9588 0
-9605 9604 9589 0
-9605 -9604 -9589 0
9605 -9604 9589 0
9605 9604 -9589 0
-9606 9605 9590 0
-9606 -9605 -9590 0
9606 -9605 9590 0
9606 9605 -9590 0
-9607 9606 9591 0
-9607 -9606 -9591 0
9607 -9606 9591 0
9607 9606 -9591 0
-9608 9607 9592 0
-9608 -9607 -9592 0
9608 -9607 9592 0
9608 9607 -9592 0
-9609 9608 9593 0
-9609 -9608 -9593 0
9609 -9608 9593 0
9609 9608 -9593 0
-9610 9609 9594 0
-9610 -9609 -9594 0
9610 -9609 9594 0
9610 9609 -9594 0
-9611 9610 9595 0
-9611 -9610 -9595 0
9611 -9610 9595 0
9611 9610 -9595 0
-9612 9611 9596 0
-9612 -9611 -9596 0
9612 -9611 9596 0
9612 9611 -9596 0
-9613 9612 9597 0
-9613 -9612 -9597 0
9613 -9612 9597 0
9613 9612 -9597 0
-9614 9613 9598 0
-9614 -9613 -9598 0
9614 -9613 9598 0
9614 9613 -9598 0
-9615 9614 9599 0
-9615 -9614 -9599 0
9615 -9614 9599 0
9615 9614 -9599 0
-9615 0
-9616 9203 0
-9616 45 0
9616 -9203 -45 0
-9617 9205 0
-9617 41 0
9617 -9205 -41 0
-9618 9207 0
-9618 37 0
9618 -9207 -37 0
-9619 9209 0
-9619 36 0
9619 -9209 -36 0
-9620 9211 0
-9620 35 0
9620 -9211 -35 0
-9621 9213 0
-9621 34 0
9621 -9213 -34 0
-9622 9215 0
-9622 93 0
9622 -9215 -93 0
-9623 9217 0
-9623 89 0
9623 -9217 -89 0
-9624 9219 0
-9624 85 0
9624 -9219 -85 0
-9625 9221 0
-9625 84 0
9625 -9221 -84 0
-9626 9223 0
-9626 83 0
9626 -9223 -83 0
-9627 9225 0
-9627 82 0
9627 -9225 -82 0
-9628 9227 0
-9628 141 0
9628 -9227 -141 0
-9629 9229 0
-9629 137 0
9629 -9229 -137 0
-9630 9231 0
-9630 133 0
9630 -9231 -133 0
-9631 9233 0
-9631 189 0
9631 -9233 -189 0
-9632 9235 0
-9632 180 0
9632 -9235 -180 0
-9633 9616 9617 0
-9633 -9616 -9617 0
9633 -9616 9617 0
9633 9616 -9617 0
-9634 9633 9618 0
-9634 -9633 -9618 0
9634 -9633 9618 0
9634 9633 -9618 0
-9635 9634 9619 0
-9635 -9634 -9619 0
9635 -9634 9619 0
9635 9634 -9619 0
-9636 9635 9620 0
-9636 -9635 -9620 0
9636 -9635 9620 0
9636 9635 -9620 0
-9637 9636 9621 0
-9637 -9636 -9621 0
9637 -9636 9621 0
9637 9636 -9621 0
-9638 9637 9622 0
-9638 -9637 -9622 0
9638 -9637 9622 0
9638 9637 -9622 0
-9639 9638 9623 0
-9639 -9638 -9623 0
9639 -9638 9623 0
9639 9638 -9623 0
-9640 9639 9624 0
-9640 -9639 -9624 0
9640 -9639 9624 0
9640 9639 -9624 0
-9641 9640 9625 0
-9641 -9640 -9625 0
9641 -9640 9625 0
9641 9640 -9625 0
-9642 9641 9626 0
-9642 -9641 -9626 0
9642 -9641 9626 0
9642 9641 -9626 0
-9643 9642 9627 0
-9643 -9642 -9627 0
9643 -9642 9627 0
9643 9642 -9627 0
-9644 9643 9628 0
-9644 -9643 -9628 0
9644 -9643 9628 0
9644 9643 -9628 0
-9645 9644 9629 0
-9645 -9644 -9629 0
9645 -9644 9629 0
9645 9644 -9629 0
-9646 9645 9630 0
-9646 -9645 -9630 0
9646 -9645 9630 0
9646 9645 -9630 0
-9647 9646 9631 0
-9647 -9646 -9631 0
9647 -9646 9631 0
9647 9646 -9631 0
-9648 9647 9632 0
-9648 -9647 -9632 0
9648 -9647 9632 0
9648 9647 -9632 0
-9648 0
-9649 9203 0
-9649 46 0
9649 -9203 -46 0
-9650 9205 0
-9650 42 0
9650 -9205 -42 0
-9651 9207 0
-9651 39 0
9651 -9207 -39 0
-9652 9209 0
-9652 40 0
9652 -9209 -40 0
-9653 9211 0
-9653 39 0
9653 -9211 -39 0
-9654 9213 0
-9654 42 0
9654 -9213 -42 0
-9655 9215 0
-9655 94 0
9655 -9215 -94 0
-9656 9217 0
-9656 90 0
9656 -9217 -90 0
-9657 9219 0
-9657 87 0
9657 -9219 -87 0
-9658 9221 0
-9658 88 0
9658 -9221 -88 0
-9659 9223 0
-9659 87 0
9659 -9223 -87 0
-9660 9225 0
-9660 90 0
9660 -9225 -90 0
-9661 9227 0
-9661 142 0
9661 -9227 -142 0
-9662 9229 0
-9662 138 0
9662 -9229 -138 0
-9663 9231 0
-9663 135 0
9663 -9231 -135 0
-9664 9233 0
-9664 190 0
9664 -9233 -190 0
-9665 9235 0
-9665 184 0
9665 -9235 -184 0
-9666 9649 9650 0
-9666 -9649 -9650 0
9666 -9649 9650 0
9666 9649 -9650 0
-9667 9666 9651 0
-9667 -9666 -9651 0
9667 -9666 9651 0
9667 9666 -9651 0
-9668 9667 9652 0
-9668 -9667 -9652 0
9668 -9667 9652 0
9668 9667 -9652 0
-9669 9668 9653 0
-9669 -9668 -9653 0
9669 -9668 9653 0
9669 9668 -9653 0
-9670 9669 9654 0
-9670 -9669 -9654 0
9670 -9669 9654 0
9670 9669 -9654 0
-9671 9670 9655 0
-9671 -9670 -9655 0
9671 -9670 9655 0
9671 9670 -9655 0
-9672 9671 9656 0
-9672 -9671 -9656 0
9672 -9671 9656 0
9672 9671 -9656 0
-9673 9672 9657 0
-9673 -9672 -9657 0
9673 -9672 9657 0
9673 9672 -9657 0
-9674 9673 9658 0
-9674 -9673 -9658 0
9674 -9673 9658 0
9674 9673 -9658 0
-9675 9674 9659 0
-9675 -9674 -9659 0
9675 -9674 9659 0
9675 9674 -9659 0
-9676 9675 9660 0
-9676 -9675 -9660 0
9676 -9675 9660 0
9676 9675 -9660 0
-9677 9676 9661 0
-9677 -9676 -9661 0
9677 -9676 9661 0
9677 9676 -9661 0
-9678 9677 9662 0
-9678 -9677 -9662 0
9678 -9677 9662 0
9678 9677 -9662 0
-9679 9678 9663 0
-9679 -9678 -9663 0
9679 -9678 9663 0
9679 9678 -9663 0
-9680 9679 9664 0
-9680 -9679 -9664 0
9680 -9679 9664 0
9680 9679 -9664 0
-9681 9680 9665 0
-9681 -9680 -9665 0
9681 -9680 9665 0
9681 9680 -9665 0
-9681 0
-9682 9203 0
-9682 47 0
9682 -9203 -47 0
-9683 9205 0
-9683 44 0
9683 -9205 -44 0
-9684 9207 0
-9684 40 0
9684 -9207 -40 0
-9685 9209 0
-9685 44 0
9685 -9209 -44 0
-9686 9211 0
-9686 47 0
9686 -9211 -47 0
-9687 9213 0
-9687 46 0
9687 -9213 -46 0
-9688 9215 0
-9688 95 0
9688 -9215 -95 0
-9689 9217 0
-9689 92 0
9689 -9217 -92 0
-9690 9219 0
-9690 88 0
9690 -9219 -88 0
-9691 9221 0
-9691 92 0
9691 -9221 -92 0
-9692 9223 0
-9692 95 0
9692 -9223 -95 0
-9693 9225 0
-9693 94 0
9693 -9225 -94 0
-9694 9227 0
-9694 143 0
9694 -9227 -143 0
-9695 9229 0
-9695 140 0
9695 -9229 -140 0
-9696 9231 0
-9696 136 0
9696 -9231 -136 0
-9697 9233 0
-9697 191 0
9697 -9233 -191 0
-9698 9235 0
-9698 188 0
9698 -9235 -188 0
-9699 9682 9683 0
-9699 -9682 -9683 0
9699 -9682 9683 0
9699 9682 -9683 0
-9700 9699 9684 0
-9700 -9699 -9684 0
9700 -9699 9684 0
9700 9699 -9684 0
-9701 9700 9685 0
-9701 -9700 -9685 0
9701 -9700 9685 0
9701 9700 -9685 0
-9702 9701 9686 0
-9702 -9701 -9686 0
9702 -9701 9686 0
9702 9701 -9686 0
-9703 9702 9687 0
-9703 -9702 -9687 0
9703 -9702 9687 0
9703 9702 -9687 0
-9704 9703 9688 0
-9704 -9703 -9688 0
9704 -9703 9688 0
9704 9703 -9688 0
-9705 9704 9689 0
-9705 -9704 -9689 0
9705 -9704 9689 0
9705 9704 -9689 0
-9706 9705 9690 0
-9706 -9705 -9690 0
9706 -9705 9690 0
9706 9705 -9690 0
-9707 9706 9691 0
-9707 -9706 -9691 0
9707 -9706 9691 0
9707 9706 -9691 0
-9708 9707 9692 0
-9708 -9707 -9692 0
9708 -9707 9692 0
9708 9707 -9692 0
-9709 9708 9693 0
-9709 -9708 -9693 0
9709 -9708 9693 0
9709 9708 -9693 0
-9710 9709 9694 0
-9710 -9709 -9694 0
9710 -9709 9694 0
9710 9709 -9694 0
-9711 9710 9695 0
-9711 -9710 -9695 0
9711 -9710 9695 0
9711 9710 -9695 0
-9712 9711 9696 0
-9712 -9711 -9696 0
9712 -9711 9696 0
9712 9711 -9696 0
-9713 9712 9697 0
-9713 -9712 -9697 0
9713 -9712 9697 0
9713 9712 -9697 0
-9714 9713 9698 0
-9714 -9713 -9698 0
9714 -9713 9698 0
9714 9713 -9698 0
-9714 0
-9715 9203 0
-9715 48 0
9715 -9203 -48 0
-9716 9205 0
-9716 43 0
9716 -9205 -43 0
-9717 9207 0
-9717 38 0
9717 -9207 -38 0
-9718 9209 0
-9718 48 0
9718 -9209 -48 0
-9719 9211 0
-9719 43 0
9719 -9211 -43 0
-9720 9213 0
-9720 38 0
9720 -9213 -38 0
-9721 9215 0
-9721 96 0
9721 -9215 -96 0
-9722 9217 0
-9722 91 0
9722 -9217 -91 0
-9723 9219 0
-9723 86 0
9723 -9219 -86 0
-9724 9221 0
-9724 96 0
9724 -9221 -96 0
-9725 9223 0
-9725 91 0
9725 -9223 -91 0
-9726 9225 0
-9726 86 0
9726 -9225 -86 0
-9727 9227 0
-9727 144 0
9727 -9227 -144 0
-9728 9229 0
-9728 139 0
9728 -9229 -139 0
-9729 9231 0
-9729 134 0
9729 -9231 -134 0
-9730 9233 0
-9730 192 0
9730 -9233 -192 0
-9731 9235 0
-9731 192 0
9731 -9235 -192 0
-9732 9715 9716 0
-9732 -9715 -9716 0
9732 -9715 9716 0
9732 9715 -9716 0
-9733 9732 9717 0
-9733 -9732 -9717 0
9733 -9732 9717 0
9733 9732 -9717 0
-9734 9733 9718 0
-9734 -9733 -9718 0
9734 -9733 9718 0
9734 9733 -9718 0
-9735 9734 9719 0
-9735 -9734 -9719 0
9735 -9734 9719 0
9735 9734 -9719 0
-9736 9735 9720 0
-9736 -9735 -9720 0
9736 -9735 9720 0
9736 9735 -9720 0
-9737 9736 9721 0
-9737 -9736 -9721 0
9737 -9736 9721 0
9737 9736 -9721 0
-9738 9737 9722 0
-9738 -9737 -9722 0
9738 -9737 9722 0
9738 9737 -9722 0
-9739 9738 9723 0
-9739 -9738 -9723 0
9739 -9738 9723 0
9739 9738 -9723 0
-9740 9739 9724 0
-9740 -9739 -9724 0
9740 -9739 9724 0
9740 9739 -9724 0
-9741 9740 9725 0
-9741 -9740 -9725 0
9741 -9740 9725 0
9741 9740 -9725 0
-9742 9741 9726 0
-9742 -9741 -9726 0
9742 -9741 9726 0
9742 9741 -9726 0
-9743 9742 9727 0
-9743 -9742 -9727 0
9743 -9742 9727 0
9743 9742 -9727 0
-9744 9743 9728 0
-9744 -9743 -9728 0
9744 -9743 9728 0
9744 9743 -9728 0
-9745 9744 9729 0
-9745 -9744 -9729 0
9745 -9744 9729 0
9745 9744 -9729 0
-9746 9745 9730 0
-9746 -9745 -9730 0
9746 -9745 9730 0
9746 9745 -9730 0
-9747 9746 9731 0
-9747 -9746 -9731 0
9747 -9746 9731 0
9747 9746 -9731 0
-9747 0
-9748 5 0
-9748 31 0
9748 -5 -31 0
-9749 9748 0
-9749 33 0
9749 -9748 -33 0
-9750 6 0
-9750 32 0
9750 -6 -32 0
-9751 9750 0
-9751 33 0
9751 -9750 -33 0
-9752 10 0
-9752 32 0
9752 -10 -32 0
-9753 9752 0
-9753 33 0
9753 -9752 -33 0
-9754 18 0
-9754 12 0
9754 -18 -12 0
-9755 9754 0
-9755 33 0
9755 -9754 -33 0
-9756 22 0
-9756 16 0
9756 -22 -16 0
-9757 9756 0
-9757 33 0
9757 -9756 -33 0
-9758 23 0
-9758 16 0
9758 -23 -16 0
-9759 9758 0
-9759 33 0
9759 -9758 -33 0
-9760 53 0
-9760 79 0
9760 -53 -79 0
-9761 9760 0
-9761 81 0
9761 -9760 -81 0
-9762 54 0
-9762 80 0
9762 -54 -80 0
-9763 9762 0
-9763 81 0
9763 -9762 -81 0
-9764 58 0
-9764 80 0
9764 -58 -80 0
-9765 9764 0
-9765 81 0
9765 -9764 -81 0
-9766 66 0
-9766 60 0
9766 -66 -60 0
-9767 9766 0
-9767 81 0
9767 -9766 -81 0
-9768 70 0
-9768 64 0
9768 -70 -64 0
-9769 9768 0
-9769 81 0
9769 -9768 -81 0
-9770 71 0
-9770 64 0
9770 -71 -64 0
-9771 9770 0
-9771 81 0
9771 -9770 -81 0
-9772 101 0
-9772 127 0
9772 -101 -127 0
-9773 9772 0
-9773 129 0
9773 -9772 -129 0
-9774 102 0
-9774 128 0
9774 -102 -128 0
-9775 9774 0
-9775 129 0
9775 -9774 -129 0
-9776 106 0
-9776 128 0
9776 -106 -128 0
-9777 9776 0
-9777 129 0
9777 -9776 -129 0
-9778 149 0
-9778 175 0
9778 -149 -175 0
-9779 9778 0
-9779 177 0
9779 -9778 -177 0
-9780 162 0
-9780 156 0
9780 -162 -156 0
-9781 9780 0
-9781 177 0
9781 -9780 -177 0
-9782 9749 9751 0
-9782 -9749 -9751 0
9782 -9749 9751 0
9782 9749 -9751 0
-9783 9782 9753 0
-9783 -9782 -9753 0
9783 -9782 9753 0
9783 9782 -9753 0
-9784 9783 9755 0
-9784 -9783 -9755 0
9784 -9783 9755 0
9784 9783 -9755 0
-9785 9784 9757 0
-9785 -9784 -9757 0
9785 -9784 9757 0
9785 9784 -9757 0
-9786 9785 9759 0
-9786 -9785 -9759 0
9786 -9785 9759 0
9786 9785 -9759 0
-9787 9786 9761 0
-9787 -9786 -9761 0
9787 -9786 9761 0
9787 9786 -9761 0
-9788 9787 9763 0
-9788 -9787 -9763 0
9788 -9787 9763 0
9788 9787 -9763 0
-9789 9788 9765 0
-9789 -9788 -9765 0
9789 -9788 9765 0
9789 9788 -9765 0
-9790 9789 9767 0
-9790 -9789 -9767 0
9790 -9789 9767 0
9790 9789 -9767 0
-9791 9790 9769 0
-9791 -9790 -9769 0
9791 -9790 9769 0
9791 9790 -9769 0
-9792 9791 9771 0
-9792 -9791 -9771 0
9792 -9791 9771 0
9792 9791 -9771 0
-9793 9792 9773 0
-9793 -9792 -9773 0
9793 -9792 9773 0
9793 9792 -9773 0
-9794 9793 9775 0
-9794 -9793 -9775 0
9794 -9793 9775 0
9794 9793 -9775 0
-9795 9794 9777 0
-9795 -9794 -9777 0
9795 -9794 9777 0
9795 9794 -9777 0
-9796 9795 9779 0
-9796 -9795 -9779 0
9796 -9795 9779 0
9796 9795 -9779 0
-9797 9796 9781 0
-9797 -9796 -9781 0
9797 -9796 9781 0
9797 9796 -9781 0
-9797 0
-9798 9748 0
-9798 34 0
9798 -9748 -34 0
-9799 9750 0
-9799 34 0
9799 -9750 -34 0
-9800 9752 0
-9800 35 0
9800 -9752 -35 0
-9801 9754 0
-9801 37 0
9801 -9754 -37 0
-9802 9756 0
-9802 37 0
9802 -9756 -37 0
-9803 9758 0
-9803 41 0
9803 -9758 -41 0
-9804 9760 0
-9804 82 0
9804 -9760 -82 0
-9805 9762 0
-9805 82 0
9805 -9762 -82 0
-9806 9764 0
-9806 83 0
9806 -9764 -83 0
-9807 9766 0
-9807 85 0
9807 -9766 -85 0
-9808 9768 0
-9808 85 0
9808 -9768 -85 0
-9809 9770 0
-9809 89 0
9809 -9770 -89 0
-9810 9772 0
-9810 130 0
9810 -9772 -130 0
-9811 9774 0
-9811 130 0
9811 -9774 -130 0
-9812 9776 0
-9812 131 0
9812 -9776 -131 0
-9813 9778 0
-9813 178 0
9813 -9778 -178 0
-9814 9780 0
-9814 181 0
9814 -9780 -181 0
-9815 9798 9799 0
-9815 -9798 -9799 0
9815 -9798 9799 0
9815 9798 -9799 0
-9816 9815 9800 0
-9816 -9815 -9800 0
9816 -9815 9800 0
9816 9815 -9800 0
-9817 9816 9801 0
-9817 -9816 -9801 0
9817 -9816 9801 0
9817 9816 -9801 0
-9818 9817 9802 0
-9818 -9817 -9802 0
9818 -9817 9802 0
9818 9817 -9802 0
-9819 9818 9803 0
-9819 -9818 -9803 0
9819 -9818 9803 0
9819 9818 -9803 0
-9820 9819 9804 0
-9820 -9819 -9804 0
9820 -9819 9804 0
9820 9819 -9804 0
-9821 9820 9805 0
-9821 -9820 -9805 0
9821 -9820 9805 0
9821 9820 -9805 0
-9822 9821 9806 0
-9822 -9821 -9806 0
9822 -9821 9806 0
9822 9821 -9806 0
-9823 9822 9807 0
-9823 -9822 -9807 0
9823 -9822 9807 0
9823 9822 -9807 0
-9824 9823 9808 0
-9824 -9823 -9808 0
9824 -9823 9808 0
9824 9823 -9808 0
-9825 9824 9809 0
-9825 -9824 -9809 0
9825 -9824 9809 0
9825 9824 -9809 0
-9826 9825 9810 0
-9826 -9825 -9810 0
9826 -9825 9810 0
9826 9825 -9810 0
-9827 9826 9811 0
-9827 -9826 -9811 0
9827 -9826 9811 0
9827 9826 -9811 0
-9828 9827 9812 0
-9828 -9827 -9812 0
9828 -9827 9812 0
9828 9827 -9812 0
-9829 9828 9813 0
-9829 -9828 -9813 0
9829 -9828 9813 0
9829 9828 -9813 0
-9830 9829 9814 0
-9830 -9829 -9814 0
9830 -9829 9814 0
9830 9829 -9814 0
-9830 0
-9831 9748 0
-9831 35 0
9831 -9748 -35 0
-9832 9750 0
-9832 36 0
9832 -9750 -36 0
-9833 9752 0
-9833 36 0
9833 -9752 -36 0
-9834 9754 0
-9834 41 0
9834 -9754 -41 0
-9835 9756 0
-9835 45 0
9835 -9756 -45 0
-9836 9758 0
-9836 45 0
9836 -9758 -45 0
-9837 9760 0
-9837 83 0
9837 -9760 -83 0
-9838 9762 0
-9838 84 0
9838 -9762 -84 0
-9839 9764 0
-9839 84 0
9839 -9764 -84 0
-9840 9766 0
-9840 89 0
9840 -9766 -89 0
-9841 9768 0
-9841 93 0
9841 -9768 -93 0
-9842 9770 0
-9842 93 0
9842 -9770 -93 0
-9843 9772 0
-9843 131 0
9843 -9772 -131 0
-9844 9774 0
-9844 132 0
9844 -9774 -132 0
-9845 9776 0
-9845 132 0
9845 -9776 -132 0
-9846 9778 0
-9846 179 0
9846 -9778 -179 0
-9847 9780 0
-9847 185 0
9847 -9780 -185 0
-9848 9831 9832 0
-9848 -9831 -9832 0
9848 -9831 9832 0
9848 9831 -9832 0
-9849 9848 9833 0
-9849 -9848 -9833 0
9849 -9848 9833 0
9849 9848 -9833 0
-9850 9849 9834 0
-9850 -9849 -9834 0
9850 -9849 9834 0
9850 9849 -9834 0
-9851 9850 9835 0
-9851 -9850 -9835 0
9851 -9850 9835 0
9851 9850 -9835 0
-9852 9851 9836 0
-9852 -9851 -9836 0
9852 -9851 9836 0
9852 9851 -9836 0
-9853 9852 9837 0
-9853 -9852 -9837 0
9853 -9852 9837 0
9853 9852 -9837 0
-9854 9853 9838 0
-9854 -9853 -9838 0
9854 -9853 9838 0
9854 9853 -9838 0
-9855 9854 9839 0
-9855 -9854 -9839 0
9855 -9854 9839 0
9855 9854 -9839 0
-9856 9855 9840 0
-9856 -9855 -9840 0
9856 -9855 9840 0
9856 9855 -9840 0
-9857 9856 9841 0
-9857 -9856 -9841 0
9857 -9856 9841 0
9857 9856 -9841 0
-9858 9857 9842 0
-9858 -9857 -9842 0
9858 -9857 9842 0
9858 9857 -9842 0
-9859 9858 9843 0
-9859 -9858 -9843 0
9859 -9858 9843 0
9859 9858 -9843 0
-9860 9859 9844 0
-9860 -9859 -9844 0
9860 -9859 9844 0
9860 9859 -9844 0
-9861 9860 9845 0
-9861 -9860 -9845 0
9861 -9860 9845 0
9861 9860 -9845 0
-9862 9861 9846 0
-9862 -9861 -9846 0
9862 -9861 9846 0
9862 9861 -9846 0
-9863 9862 9847 0
-9863 -9862 -9847 0
9863 -9862 9847 0
9863 9862 -9847 0
-9863 0
-9864 9748 0
-9864 36 0
9864 -9748 -36 0
-9865 9750 0
-9865 35 0
9865 -9750 -35 0
-9866 9752 0
-9866 34 0
9866 -9752 -34 0
-9867 9754 0
-9867 45 0
9867 -9754 -45 0
-9868 9756 0
-9868 41 0
9868 -9756 -41 0
-9869 9758 0
-9869 37 0
9869 -9758 -37 0
-9870 9760 0
-9870 84 0
9870 -9760 -84 0
-9871 9762 0
-9871 83 0
9871 -9762 -83 0
-9872 9764 0
-9872 82 0
9872 -9764 -82 0
-9873 9766 0
-9873 93 0
9873 -9766 -93 0
-9874 9768 0
-9874 89 0
9874 -9768 -89 0
-9875 9770 0
-9875 85 0
9875 -9770 -85 0
-9876 9772 0
-9876 132 0
9876 -9772 -132 0
-9877 9774 0
-9877 131 0
9877 -9774 -131 0
-9878 9776 0
-9878 130 0
9878 -9776 -130 0
-9879 9778 0
-9879 180 0
9879 -9778 -180 0
-9880 9780 0
-9880 189 0
9880 -9780 -189 0
-9881 9864 9865 0
-9881 -9864 -9865 0
9881 -9864 9865 0
9881 9864 -9865 0
-9882 9881 9866 0
-9882 -9881 -9866 0
9882 -9881 9866 0
9882 9881 -9866 0
-9883 9882 9867 0
-9883 -9882 -9867 0
9883 -9882 9867 0
9883 9882 -9867 0
-9884 9883 9868 0
-9884 -9883 -9868 0
9884 -9883 9868 0
9884 9883 -9868 0
-9885 9884 9869 0
-9885 -9884 -9869 0
9885 -9884 9869 0
9885 9884 -9869 0
-9886 9885 9870 0
-9886 -9885 -9870 0
9886 -9885 9870 0
9886 9885 -9870 0
-9887 9886 9871 0
-9887 -9886 -9871 0
9887 -9886 9871 0
9887 9886 -9871 0
-9888 9887 9872 0
-9888 -9887 -9872 0
9888 -9887 9872 0
9888 9887 -9872 0
-9889 9888 9873 0
-9889 -9888 -9873 0
9889 -9888 9873 0
9889 9888 -9873 0
-9890 9889 9874 0
-9890 -9889 -9874 0
9890 -9889 9874 0
9890 9889 -9874 0
-9891 9890 9875 0
-9891 -9890 -9875 0
9891 -9890 9875 0
9891 9890 -9875 0
-9892 9891 9876 0
-9892 -9891 -9876 0
9892 -9891 9876 0
9892 9891 -9876 0
-9893 9892 9877 0
-9893 -9892 -9877 0
9893 -9892 9877 0
9893 9892 -9877 0
-9894 9893 9878 0
-9894 -9893 -9878 0
9894 -9893 9878 0
9894 9893 -9878 0
-9895 9894 9879 0
-9895 -9894 -9879 0
9895 -9894 9879 0
9895 9894 -9879 0
-9896 9895 9880 0
-9896 -9895 -9880 0
9896 -9895 9880 0
9896 9895 -9880 0
-9896 0
-9897 9748 0
-9897 37 0
9897 -9748 -37 0
-9898 9750 0
-9898 37 0
9898 -9750 -37 0
-9899 9752 0
-9899 41 0
9899 -9752 -41 0
-9900 9754 0
-9900 34 0
9900 -9754 -34 0
-9901 9756 0
-9901 34 0
9901 -9756 -34 0
-9902 9758 0
-9902 35 0
9902 -9758 -35 0
-9903 9760 0
-9903 85 0
9903 -9760 -85 0
-9904 9762 0
-9904 85 0
9904 -9762 -85 0
-9905 9764 0
-9905 89 0
9905 -9764 -89 0
-9906 9766 0
-9906 82 0
9906 -9766 -82 0
-9907 9768 0
-9907 82 0
9907 -9768 -82 0
-9908 9770 0
-9908 83 0
9908 -9770 -83 0
-9909 9772 0
-9909 133 0
9909 -9772 -133 0
-9910 9774 0
-9910 133 0
9910 -9774 -133 0
-9911 9776 0
-9911 137 0
9911 -9776 -137 0
-9912 9778 0
-9912 181 0
9912 -9778 -181 0
-9913 9780 0
-9913 178 0
9913 -9780 -178 0
-9914 9897 9898 0
-9914 -9897 -9898 0
9914 -9897 9898 0
9914 9897 -9898 0
-9915 9914 9899 0
-9915 -9914 -9899 0
9915 -9914 9899 0
9915 9914 -9899 0
-9916 9915 9900 0
-9916 -9915 -9900 0
9916 -9915 9900 0
9916 9915 -9900 0
-9917 9916 9901 0
-9917 -9916 -9901 0
9917 -9916 9901 0
9917 9916 -9901 0
-9918 9917 9902 0
-9918 -9917 -9902 0
9918 -9917 9902 0
9918 9917 -9902 0
-9919 9918 9903 0
-9919 -9918 -9903 0
9919 -9918 9903 0
9919 9918 -9903 0
-9920 9919 9904 0
-9920 -9919 -9904 0
9920 -9919 9904 0
9920 9919 -9904 0
-9921 9920 9905 0
-9921 -9920 -9905 0
9921 -9920 9905 0
9921 9920 -9905 0
-9922 9921 9906 0
-9922 -9921 -9906 0
9922 -9921 9906 0
9922 9921 -9906 0
-9923 9922 9907 0
-9923 -9922 -9907 0
9923 -9922 9907 0
9923 9922 -9907 0
-9924 9923 9908 0
-9924 -9923 -9908 0
9924 -9923 9908 0
9924 9923 -9908 0
-9925 9924 9909 0
-9925 -9924 -9909 0
9925 -9924 9909 0
9925 9924 -9909 0
-9926 9925 9910 0
-9926 -9925 -9910 0
9926 -9925 9910 0
9926 9925 -9910 0
-9927 9926 9911 0
-9927 -9926 -9911 0
9927 -9926 9911 0
9927 9926 -9911 0
-9928 9927 9912 0
-9928 -9927 -9912 0
9928 -9927 9912 0
9928 9927 -9912 0
-9929 9928 9913 0
-9929 -9928 -9913 0
9929 -9928 9913 0
9929 9928 -9913 0
-9929 0
-9930 9748 0
-9930 38 0
9930 -9748 -38 0
-9931 9750 0
-9931 38 0
9931 -9750 -38 0
-9932 9752 0
-9932 43 0
9932 -9752 -43 0
-9933 9754 0
-9933 38 0
9933 -9754 -38 0
-9934 9756 0
-9934 38 0
9934 -9756 -38 0
-9935 9758 0
-9935 43 0
9935 -9758 -43 0
-9936 9760 0
-9936 86 0
9936 -9760 -86 0
-9937 9762 0
-9937 86 0
9937 -9762 -86 0
-9938 9764 0
-9938 91 0
9938 -9764 -91 0
-9939 9766 0
-9939 86 0
9939 -9766 -86 0
-9940 9768 0
-9940 86 0
9940 -9768 -86 0
-9941 9770 0
-9941 91 0
9941 -9770 -91 0
-9942 9772 0
-9942 134 0
9942 -9772 -134 0
-9943 9774 0
-9943 134 0
9943 -9774 -134 0
-9944 9776 0
-9944 139 0
9944 -9776 -139 0
-9945 9778 0
-9945 182 0
9945 -9778 -182 0
-9946 9780 0
-9946 182 0
9946 -9780 -182 0
-9947 9930 9931 0
-9947 -9930 -9931 0
9947 -9930 9931 0
9947 9930 -9931 0
-9948 9947 9932 0
-9948 -9947 -9932 0
9948 -9947 9932 0
9948 9947 -9932 0
-9949 9948 9933 0
-9949 -9948 -9933 0
9949 -9948 9933 0
9949 9948 -9933 0
-9950 9949 9934 0
-9950 -9949 -9934 0
9950 -9949 9934 0
9950 9949 -9934 0
-9951 9950 9935 0
-9951 -9950 -9935 0
9951 -9950 9935 0
9951 9950 -9935 0
-9952 9951 9936 0
-9952 -9951 -9936 0
9952 -9951 9936 0
9952 9951 -9936 0
-9953 9952 9937 0
-9953 -9952 -9937 0
9953 -9952 9937 0
9953 9952 -9937 0
-9954 9953 9938 0
-9954 -9953 -9938 0
9954 -9953 9938 0
9954 9953 -9938 0
-9955 9954 9939 0
-9955 -9954 -9939 0
9955 -9954 9939 0
9955 9954 -9939 0
-9956 9955 9940 0
-9956 -9955 -9940 0
9956 -9955 9940 0
9956 9955 -9940 0
-9957 9956 9941 0
-9957 -9956 -9941 0
9957 -9956 9941 0
9957 9956 -9941 0
-9958 9957 9942 0
-9958 -9957 -9942 0
9958 -9957 9942 0
9958 9957 -9942 0
-9959 9958 9943 0
-9959 -9958 -9943 0
9959 -9958 9943 0
9959 9958 -9943 0
-9960 9959 9944 0
-9960 -9959 -9944 0
9960 -9959 9944 0
9960 9959 -9944 0
-9961 9960 9945 0
-9961 -9960 -9945 0
9961 -9960 9945 0
9961 9960 -9945 0
-9962 9961 9946 0
-9962 -9961 -9946 0
9962 -9961 9946 0
9962 9961 -9946 0
-9962 0
-9963 9748 0
-9963 39 0
9963 -9748 -39 0
-9964 9750 0
-9964 40 0
9964 -9750 -40 0
-9965 9752 0
-9965 44 0
9965 -9752 -44 0
-9966 9754 0
-9966 42 0
9966 -9754 -42 0
-9967 9756 0
-9967 46 0
9967 -9756 -46 0
-9968 9758 0
-9968 47 0
9968 -9758 -47 0
-9969 9760 0
-9969 87 0
9969 -9760 -87 0
-9970 9762 0
-9970 88 0
9970 -9762 -88 0
-9971 9764 0
-9971 92 0
9971 -9764 -92 0
-9972 9766 0
-9972 90 0
9972 -9766 -90 0
-9973 9768 0
-9973 94 0
9973 -9768 -94 0
-9974 9770 0
-9974 95 0
9974 -9770 -95 0
-9975 9772 0
-9975 135 0
9975 -9772 -135 0
-9976 9774 0
-9976 136 0
9976 -9774 -136 0
-9977 9776 0
-9977 140 0
9977 -9776 -140 0
-9978 9778 0
-9978 183 0
9978 -9778 -183 0
-9979 9780 0
-9979 186 0
9979 -9780 -186 0
-9980 9963 9964 0
-9980 -9963 -9964 0
9980 -9963 9964 0
9980 9963 -9964 0
-9981 9980 9965 0
-9981 -9980 -9965 0
9981 -9980 9965 0
9981 9980 -9965 0
-9982 9981 9966 0
-9982 -9981 -9966 0
9982 -9981 9966 0
9982 9981 -9966 0
-9983 9982 9967 0
-9983 -9982 -9967 0
9983 -9982 9967 0
9983 9982 -9967 0
-9984 9983 9968 0
-9984 -9983 -9968 0
9984 -9983 9968 0
9984 9983 -9968 0
-9985 9984 9969 0
-9985 -9984 -9969 0
9985 -9984 9969 0
9985 9984 -9969 0
-9986 9985 9970 0
-9986 -9985 -9970 0
9986 -9985 9970 0
9986 9985 -9970 0
-9987 9986 9971 0
-9987 -9986 -9971 0
9987 -9986 9971 0
9987 9986 -9971 0
-9988 9987 9972 0
-9988 -9987 -9972 0
9988 -9987 9972 0
9988 9987 -9972 0
-9989 9988 9973 0
-9989 -9988 -9973 0
9989 -9988 9973 0
9989 9988 -9973 0
-9990 9989 9974 0
-9990 -9989 -9974 0
9990 -9989 9974 0
9990 9989 -9974 0
-9991 9990 9975 0
-9991 -9990 -9975 0
9991 -9990 9975 0
9991 9990 -9975 0
-9992 9991 9976 0
-9992 -9991 -9976 0
9992 -9991 9976 0
9992 9991 -9976 0
-9993 9992 9977 0
-9993 -9992 -9977 0
9993 -9992 9977 0
9993 9992 -9977 0
-9994 9993 9978 0
-9994 -9993 -9978 0
9994 -9993 9978 0
9994 9993 -9978 0
-9995 9994 9979 0
-9995 -9994 -9979 0
9995 -9994 9979 0
9995 9994 -9979 0
-9995 0
-9996 9748 0
-9996 40 0
9996 -9748 -40 0
-9997 9750 0
-9997 39 0
9997 -9750 -39 0
-9998 9752 0
-9998 42 0
9998 -9752 -42 0
-9999 9754 0
-9999 46 0
9999 -9754 -46 0
-10000 9756 0
-10000 42 0
10000 -9756 -42 0
-10001 9758 0
-10001 39 0
10001 -9758 -39 0
-10002 9760 0
-10002 88 0
10002 -9760 -88 0
-10003 9762 0
-10003 87 0
10003 -9762 -87 0
-10004 9764 0
-10004 90 0
10004 -9764 -90 0
-10005 9766 0
-10005 94 0
10005 -9766 -94 0
-10006 9768 0
-10006 90 0
10006 -9768 -90 0
-10007 9770 0
-10007 87 0
10007 -9770 -87 0
-10008 9772 0
-10008 136 0
10008 -9772 -136 0
-10009 9774 0
-10009 135 0
10009 -9774 -135 0
-10010 9776 0
-10010 138 0
10010 -9776 -138 0
-10011 9778 0
-10011 184 0
10011 -9778 -184 0
-10012 9780 0
-10012 190 0
10012 -9780 -190 0
-10013 9996 9997 0
-10013 -9996 -9997 0
10013 -9996 9997 0
10013 9996 -9997 0
-10014 10013 9998 0
-10014 -10013 -9998 0
10014 -10013 9998 0
10014 10013 -9998 0
-10015 10014 9999 0
-10015 -10014 -9999 0
10015 -10014 9999 0
10015 10014 -9999 0
-10016 10015 10000 0
-10016 -10015 -10000 0
10016 -10015 10000 0
10016 10015 -10000 0
-10017 10016 10001 0
-10017 -10016 -10001 0
10017 -10016 10001 0
10017 10016 -10001 0
-10018 10017 10002 0
-10018 -10017 -10002 0
10018 -10017 10002 0
10018 10017 -10002 0
-10019 10018 10003 0
-10019 -10018 -10003 0
10019 -10018 10003 0
10019 10018 -10003 0
-10020 10019 10004 0
-10020 -10019 -10004 0
10020 -10019 10004 0
10020 10019 -10004 0
-10021 10020 10005 0
-10021 -10020 -10005 0
10021 -10020 10005 0
10021 10020 -10005 0
-10022 10021 10006 0
-10022 -10021 -10006 0
10022 -10021 10006 0
10022 10021 -10006 0
-10023 10022 10007 0
-10023 -10022 -10007 0
10023 -10022 10007 0
10023 10022 -10007 0
-10024 10023 10008 0
-10024 -10023 -10008 0
10024 -10023 10008 0
10024 10023 -10008 0
-10025 10024 10009 0
-10025 -10024 -10009 0
10025 -10024 10009 0
10025 10024 -10009 0
-10026 10025 10010 0
-10026 -10025 -10010 0
10026 -10025 10010 0
10026 10025 -10010 0
-10027 10026 10011 0
-10027 -10026 -10011 0
10027 -10026 10011 0
10027 10026 -10011 0
-10028 10027 10012 0
-10028 -10027 -10012 0
10028 -10027 10012 0
10028 10027 -10012 0
-10028 0
-10029 9748 0
-10029 41 0
10029 -9748 -41 0
-10030 9750 0
-10030 45 0
10030 -9750 -45 0
-10031 9752 0
-10031 45 0
10031 -9752 -45 0
-10032 9754 0
-10032 35 0
10032 -9754 -35 0
-10033 9756 0
-10033 36 0
10033 -9756 -36 0
-10034 9758 0
-10034 36 0
10034 -9758 -36 0
-10035 9760 0
-10035 89 0
10035 -9760 -89 0
-10036 9762 0
-10036 93 0
10036 -9762 -93 0
-10037 9764 0
-10037 93 0
10037 -9764 -93 0
-10038 9766 0
-10038 83 0
10038 -9766 -83 0
-10039 9768 0
-10039 84 0
10039 -9768 -84 0
-10040 9770 0
-10040 84 0
10040 -9770 -84 0
-10041 9772 0
-10041 137 0
10041 -9772 -137 0
-10042 9774 0
-10042 141 0
10042 -9774 -141 0
-10043 9776 0
-10043 141 0
10043 -9776 -141 0
-10044 9778 0
-10044 185 0
10044 -9778 -185 0
-10045 9780 0
-10045 179 0
10045 -9780 -179 0
-10046 10029 10030 0
-10046 -10029 -10030 0
10046 -10029 10030 0
10046 10029 -10030 0
-10047 10046 10031 0
-10047 -10046 -10031 0
10047 -10046 10031 0
10047 10046 -10031 0
-10048 10047 10032 0
-10048 -10047 -10032 0
10048 -10047 10032 0
10048 10047 -10032 0
-10049 10048 10033 0
-10049 -10048 -10033 0
10049 -10048 10033 0
10049 10048 -10033 0
-10050 10049 10034 0
-10050 -10049 -10034 0
10050 -10049 10034 0
10050 10049 -10034 0
-10051 10050 10035 0
-10051 -10050 -10035 0
10051 -10050 10035 0
10051 10050 -10035 0
-10052 10051 10036 0
-10052 -10051 -10036 0
10052 -10051 10036 0
10052 10051 -10036 0
-10053 10052 10037 0
-10053 -10052 -10037 0
10053 -10052 10037 0
10053 10052 -10037 0
-10054 10053 10038 0
-10054 -10053 -10038 0
10054 -10053 10038 0
10054 10053 -10038 0
-10055 10054 10039 0
-10055 -10054 -10039 0
10055 -10054 10039 0
10055 10054 -10039 0
-10056 10055 10040 0
-10056 -10055 -10040 0
10056 -10055 10040 0
10056 10055 -10040 0
-10057 10056 10041 0
-10057 -10056 -10041 0
10057 -10056 10041 0
10057 10056 -10041 0
-10058 10057 10042 0
-10058 -10057 -10042 0
10058 -10057 10042 0
10058 10057 -10042 0
-10059 10058 10043 0
-10059 -10058 -10043 0
10059 -10058 10043 0
10059 10058 -10043 0
-10060 10059 10044 0
-10060 -10059 -10044 0
10060 -10059 10044 0
10060 10059 -10044 0
-10061 10060 10045 0
-10061 -10060 -10045 0
10061 -10060 10045 0
10061 10060 -10045 0
-10061 0
-10062 9748 0
-10062 42 0
10062 -9748 -42 0
-10063 9750 0
-10063 46 0
10063 -9750 -46 0
-10064 9752 0
-10064 47 0
10064 -9752 -47 0
-10065 9754 0
-10065 39 0
10065 -9754 -39 0
-10066 9756 0
-10066 40 0
10066 -9756 -40 0
-10067 9758 0
-10067 44 0
10067 -9758 -44 0
-10068 9760 0
-10068 90 0
10068 -9760 -90 0
-10069 9762 0
-10069 94 0
10069 -9762 -94 0
-10070 9764 0
-10070 95 0
10070 -9764 -95 0
-10071 9766 0
-10071 87 0
10071 -9766 -87 0
-10072 9768 0
-10072 88 0
10072 -9768 -88 0
-10073 9770 0
-10073 92 0
10073 -9770 -92 0
-10074 9772 0
-10074 138 0
10074 -9772 -138 0
-10075 9774 0
-10075 142 0
10075 -9774 -142 0
-10076 9776 0
-10076 143 0
10076 -9776 -143 0
-10077 9778 0
-10077 186 0
10077 -9778 -186 0
-10078 9780 0
-10078 183 0
10078 -9780 -183 0
-10079 10062 10063 0
-10079 -10062 -10063 0
10079 -10062 10063 0
10079 10062 -10063 0
-10080 10079 10064 0
-10080 -10079 -10064 0
10080 -10079 10064 0
10080 10079 -10064 0
-10081 10080 10065 0
-10081 -10080 -10065 0
10081 -10080 10065 0
10081 10080 -10065 0
-10082 10081 10066 0
-10082 -10081 -10066 0
10082 -10081 10066 0
10082 10081 -10066 0
-10083 10082 10067 0
-10083 -10082 -10067 0
10083 -10082 10067 0
10083 10082 -10067 0
-10084 10083 10068 0
-10084 -10083 -10068 0
10084 -10083 10068 0
10084 10083 -10068 0
-10085 10084 10069 0
-10085 -10084 -10069 0
10085 -10084 10069 0
10085 10084 -10069 0
-10086 10085 10070 0
-10086 -10085 -10070 0
10086 -10085 10070 0
10086 10085 -10070 0
-10087 10086 10071 0
-10087 -10086 -10071 0
10087 -10086 10071 0
10087 10086 -10071 0
-10088 10087 10072 0
-10088 -10087 -10072 0
10088 -10087 10072 0
10088 10087 -10072 0
-10089 10088 10073 0
-10089 -10088 -10073 0
10089 -10088 10073 0
10089 10088 -10073 0
-10090 10089 10074 0
-10090 -10089 -10074 0
10090 -10089 10074 0
10090 10089 -10074 0
-10091 10090 10075 0
-10091 -10090 -10075 0
10091 -10090 10075 0
10091 10090 -10075 0
-10092 10091 10076 0
-10092 -10091 -10076 0
10092 -10091 10076 0
10092 10091 -10076 0
-10093 10092 10077 0
-10093 -10092 -10077 0
10093 -10092 10077 0
10093 10092 -10077 0
-10094 10093 10078 0
-10094 -10093 -10078 0
10094 -10093 10078 0
10094 10093 -10078 0
-10094 0
-10095 9748 0
-10095 43 0
10095 -9748 -43 0
-10096 9750 0
-10096 48 0
10096 -9750 -48 0
-10097 9752 0
-10097 48 0
10097 -9752 -48 0
-10098 9754 0
-10098 43 0
10098 -9754 -43 0
-10099 9756 0
-10099 48 0
10099 -9756 -48 0
-10100 9758 0
-10100 48 0
10100 -9758 -48 0
-10101 9760 0
-10101 91 0
10101 -9760 -91 0
-10102 9762 0
-10102 96 0
10102 -9762 -96 0
-10103 9764 0
-10103 96 0
10103 -9764 -96 0
-10104 9766 0
-10104 91 0
10104 -9766 -91 0
-10105 9768 0
-10105 96 0
10105 -9768 -96 0
-10106 9770 0
-10106 96 0
10106 -9770 -96 0
-10107 9772 0
-10107 139 0
10107 -9772 -139 0
-10108 9774 0
-10108 144 0
10108 -9774 -144 0
-10109 9776 0
-10109 144 0
10109 -9776 -144 0
-10110 9778 0
-10110 187 0
10110 -9778 -187 0
-10111 9780 0
-10111 187 0
10111 -9780 -187 0
-10112 10095 10096 0
-10112 -10095 -10096 0
10112 -10095 10096 0
10112 10095 -10096 0
-10113 10112 10097 0
-10113 -10112 -10097 0
10113 -10112 10097 0
10113 10112 -10097 0
-10114 10113 10098 0
-10114 -10113 -10098 0
10114 -10113 10098 0
10114 10113 -10098 0
-10115 10114 10099 0
-10115 -10114 -10099 0
10115 -10114 10099 0
10115 10114 -10099 0
-10116 10115 10100 0
-10116 -10115 -10100 0
10116 -10115 10100 0
10116 10115 -10100 0
-10117 10116 10101 0
-10117 -10116 -10101 0
10117 -10116 10101 0
10117 10116 -10101 0
-10118 10117 10102 0
-10118 -10117 -10102 0
10118 -10117 10102 0
10118 10117 -10102 0
-10119 10118 10103 0
-10119 -10118 -10103 0
10119 -10118 10103 0
10119 10118 -10103 0
-10120 10119 10104 0
-10120 -10119 -10104 0
10120 -10119 10104 0
10120 10119 -10104 0
-10121 10120 10105 0
-10121 -10120 -10105 0
10121 -10120 10105 0
10121 10120 -10105 0
-10122 10121 10106 0
-10122 -10121 -10106 0
10122 -10121 10106 0
10122 10121 -10106 0
-10123 10122 10107 0
-10123 -10122 -10107 0
10123 -10122 10107 0
10123 10122 -10107 0
-10124 10123 10108 0
-10124 -10123 -10108 0
10124 -10123 10108 0
10124 10123 -10108 0
-10125 10124 10109 0
-10125 -10124 -10109 0
10125 -10124 10109 0
10125 10124 -10109 0
-10126 10125 10110 0
-10126 -10125 -10110 0
10126 -10125 10110 0
10126 10125 -10110 0
-10127 10126 10111 0
-10127 -10126 -10111 0
10127 -10126 10111 0
10127 10126 -10111 0
-10127 0
-10128 9748 0
-10128 44 0
10128 -9748 -44 0
-10129 9750 0
-10129 47 0
10129 -9750 -47 0
-10130 9752 0
-10130 46 0
10130 -9752 -46 0
-10131 9754 0
-10131 47 0
10131 -9754 -47 0
-10132 9756 0
-10132 44 0
10132 -9756 -44 0
-10133 9758 0
-10133 40 0
10133 -9758 -40 0
-10134 9760 0
-10134 92 0
10134 -9760 -92 0
-10135 9762 0
-10135 95 0
10135 -9762 -95 0
-10136 9764 0
-10136 94 0
10136 -9764 -94 0
-10137 9766 0
-10137 95 0
10137 -9766 -95 0
-10138 9768 0
-10138 92 0
10138 -9768 -92 0
-10139 9770 0
-10139 88 0
10139 -9770 -88 0
-10140 9772 0
-10140 140 0
10140 -9772 -140 0
-10141 9774 0
-10141 143 0
10141 -9774 -143 0
-10142 9776 0
-10142 142 0
10142 -9776 -142 0
-10143 9778 0
-10143 188 0
10143 -9778 -188 0
-10144 9780 0
-10144 191 0
10144 -9780 -191 0
-10145 10128 10129 0
-10145 -10128 -10129 0
10145 -10128 10129 0
10145 10128 -10129 0
-10146 10145 10130 0
-10146 -10145 -10130 0
10146 -10145 10130 0
10146 10145 -10130 0
-10147 10146 10131 0
-10147 -10146 -10131 0
10147 -10146 10131 0
10147 10146 -10131 0
-10148 10147 10132 0
-10148 -10147 -10132 0
10148 -10147 10132 0
10148 10147 -10132 0
-10149 10148 10133 0
-10149 -10148 -10133 0
10149 -10148 10133 0
10149 10148 -10133 0
-10150 10149 10134 0
-10150 -10149 -10134 0
10150 -10149 10134 0
10150 10149 -10134 0
-10151 10150 10135 0
-10151 -10150 -10135 0
10151 -10150 10135 0
10151 10150 -10135 0
-10152 10151 10136 0
-10152 -10151 -10136 0
10152 -10151 10136 0
10152 10151 -10136 0
-10153 10152 10137 0
-10153 -10152 -10137 0
10153 -10152 10137 0
10153 10152 -10137 0
-10154 10153 10138 0
-10154 -10153 -10138 0
10154 -10153 10138 0
10154 10153 -10138 0
-10155 10154 10139 0
-10155 -10154 -10139 0
10155 -10154 10139 0
10155 10154 -10139 0
-10156 10155 10140 0
-10156 -10155 -10140 0
10156 -10155 10140 0
10156 10155 -10140 0
-10157 10156 10141 0
-10157 -10156 -10141 0
10157 -10156 10141 0
10157 10156 -10141 0
-10158 10157 10142 0
-10158 -10157 -10142 0
10158 -10157 10142 0
10158 10157 -10142 0
-10159 10158 10143 0
-10159 -10158 -10143 0
10159 -10158 10143 0
10159 10158 -10143 0
-10160 10159 10144 0
-10160 -10159 -10144 0
10160 -10159 10144 0
10160 10159 -10144 0
-10160 0
-10161 9748 0
-10161 45 0
10161 -9748 -45 0
-10162 9750 0
-10162 41 0
10162 -9750 -41 0
-10163 9752 0
-10163 37 0
10163 -9752 -37 0
-10164 9754 0
-10164 36 0
10164 -9754 -36 0
-10165 9756 0
-10165 35 0
10165 -9756 -35 0
-10166 9758 0
-10166 34 0
10166 -9758 -34 0
-10167 9760 0
-10167 93 0
10167 -9760 -93 0
-10168 9762 0
-10168 89 0
10168 -9762 -89 0
-10169 9764 0
-10169 85 0
10169 -9764 -85 0
-10170 9766 0
-10170 84 0
10170 -9766 -84 0
-10171 9768 0
-10171 83 0
10171 -9768 -83 0
-10172 9770 0
-10172 82 0
10172 -9770 -82 0
-10173 9772 0
-10173 141 0
10173 -9772 -141 0
-10174 9774 0
-10174 137 0
10174 -9774 -137 0
-10175 9776 0
-10175 133 0
10175 -9776 -133 0
-10176 9778 0
-10176 189 0
10176 -9778 -189 0
-10177 9780 0
-10177 180 0
10177 -9780 -180 0
-10178 10161 10162 0
-10178 -10161 -10162 0
10178 -10161 10162 0
10178 10161 -10162 0
-10179 10178 10163 0
-10179 -10178 -10163 0
10179 -10178 10163 0
10179 10178 -10163 0
-10180 10179 10164 0
-10180 -10179 -10164 0
10180 -10179 10164 0
10180 10179 -10164 0
-10181 10180 10165 0
-10181 -10180 -10165 0
10181 -10180 10165 0
10181 10180 -10165 0
-10182 10181 10166 0
-10182 -10181 -10166 0
10182 -10181 10166 0
10182 10181 -10166 0
-10183 10182 10167 0
-10183 -10182 -10167 0
10183 -10182 10167 0
10183 10182 -10167 0
-10184 10183 10168 0
-10184 -10183 -10168 0
10184 -10183 10168 0
10184 10183 -10168 0
-10185 10184 10169 0
-10185 -10184 -10169 0
10185 -10184 10169 0
10185 10184 -10169 0
-10186 10185 10170 0
-10186 -10185 -10170 0
10186 -10185 10170 0
10186 10185 -10170 0
-10187 10186 10171 0
-10187 -10186 -10171 0
10187 -10186 10171 0
10187 10186 -10171 0
-10188 10187 10172 0
-10188 -10187 -10172 0
10188 -10187 10172 0
10188 10187 -10172 0
-10189 10188 10173 0
-10189 -10188 -10173 0
10189 -10188 10173 0
10189 10188 -10173 0
-10190 10189 10174 0
-10190 -10189 -10174 0
10190 -10189 10174 0
10190 10189 -10174 0
-10191 10190 10175 0
-10191 -10190 -10175 0
10191 -10190 10175 0
10191 10190 -10175 0
-10192 10191 10176 0
-10192 -10191 -10176 0
10192 -10191 10176 0
10192 10191 -10176 0
-10193 10192 10177 0
-10193 -10192 -10177 0
10193 -10192 10177 0
10193 10192 -10177 0
-10193 0
-10194 9748 0
-10194 46 0
10194 -9748 -46 0
-10195 9750 0
-10195 42 0
10195 -9750 -42 0
-10196 9752 0
-10196 39 0
10196 -9752 -39 0
-10197 9754 0
-10197 40 0
10197 -9754 -40 0
-10198 9756 0
-10198 39 0
10198 -9756 -39 0
-10199 9758 0
-10199 42 0
10199 -9758 -42 0
-10200 9760 0
-10200 94 0
10200 -9760 -94 0
-10201 9762 0
-10201 90 0
10201 -9762 -90 0
-10202 9764 0
-10202 87 0
10202 -9764 -87 0
-10203 9766 0
-10203 88 0
10203 -9766 -88 0
-10204 9768 0
-10204 87 0
10204 -9768 -87 0
-10205 9770 0
-10205 90 0
10205 -9770 -90 0
-10206 9772 0
-10206 142 0
10206 -9772 -142 0
-10207 9774 0
-10207 138 0
10207 -9774 -138 0
-10208 9776 0
-10208 135 0
10208 -9776 -135 0
-10209 9778 0
-10209 190 0
10209 -9778 -190 0
-10210 9780 0
-10210 184 0
10210 -9780 -184 0
-10211 10194 10195 0
-10211 -10194 -10195 0
10211 -10194 10195 0
10211 10194 -10195 0
-10212 10211 10196 0
-10212 -10211 -10196 0
10212 -10211 10196 0
10212 10211 -10196 0
-10213 10212 10197 0
-10213 -10212 -10197 0
10213 -10212 10197 0
10213 10212 -10197 0
-10214 10213 10198 0
-10214 -10213 -10198 0
10214 -10213 10198 0
10214 10213 -10198 0
-10215 10214 10199 0
-10215 -10214 -10199 0
10215 -10214 10199 0
10215 10214 -10199 0
-10216 10215 10200 0
-10216 -10215 -10200 0
10216 -10215 10200 0
10216 10215 -10200 0
-10217 10216 10201 0
-10217 -10216 -10201 0
10217 -10216 10201 0
10217 10216 -10201 0
-10218 10217 10202 0
-10218 -10217 -10202 0
10218 -10217 10202 0
10218 10217 -10202 0
-10219 10218 10203 0
-10219 -10218 -10203 0
10219 -10218 10203 0
10219 10218 -10203 0
-10220 10219 10204 0
-10220 -10219 -10204 0
10220 -10219 10204 0
10220 10219 -10204 0
-10221 10220 10205 0
-10221 -10220 -10205 0
10221 -10220 10205 0
10221 10220 -10205 0
-10222 10221 10206 0
-10222 -10221 -10206 0
10222 -10221 10206 0
10222 10221 -10206 0
-10223 10222 10207 0
-10223 -10222 -10207 0
10223 -10222 10207 0
10223 10222 -10207 0
-10224 10223 10208 0
-10224 -10223 -10208 0
10224 -10223 10208 0
10224 10223 -10208 0
-10225 10224 10209 0
-10225 -10224 -10209 0
10225 -10224 10209 0
10225 10224 -10209 0
-10226 10225 10210 0
-10226 -10225 -10210 0
10226 -10225 10210 0
10226 10225 -10210 0
-10226 0
-10227 9748 0
-10227 47 0
10227 -9748 -47 0
-10228 9750 0
-10228 44 0
10228 -9750 -44 0
-10229 9752 0
-10229 40 0
10229 -9752 -40 0
-10230 9754 0
-10230 44 0
10230 -9754 -44 0
-10231 9756 0
-10231 47 0
10231 -9756 -47 0
-10232 9758 0
-10232 46 0
10232 -9758 -46 0
-10233 9760 0
-10233 95 0
10233 -9760 -95 0
-10234 9762 0
-10234 92 0
10234 -9762 -92 0
-10235 9764 0
-10235 88 0
10235 -9764 -88 0
-10236 9766 0
-10236 92 0
10236 -9766 -92 0
-10237 9768 0
-10237 95 0
10237 -9768 -95 0
-10238 9770 0
-10238 94 0
10238 -9770 -94 0
-10239 9772 0
-10239 143 0
10239 -9772 -143 0
-10240 9774 0
-10240 140 0
10240 -9774 -140 0
-10241 9776 0
-10241 136 0
10241 -9776 -136 0
-10242 9778 0
-10242 191 0
10242 -9778 -191 0
-10243 9780 0
-10243 188 0
10243 -9780 -188 0
-10244 10227 10228 0
-10244 -10227 -10228 0
10244 -10227 10228 0
10244 10227 -10228 0
-10245 10244 10229 0
-10245 -10244 -10229 0
10245 -10244 10229 0
10245 10244 -10229 0
-10246 10245 10230 0
-10246 -10245 -10230 0
10246 -10245 10230 0
10246 10245 -10230 0
-10247 10246 10231 0
-10247 -10246 -10231 0
10247 -10246 10231 0
10247 10246 -10231 0
-10248 10247 10232 0
-10248 -10247 -10232 0
10248 -10247 10232 0
10248 10247 -10232 0
-10249 10248 10233 0
-10249 -10248 -10233 0
10249 -10248 10233 0
10249 10248 -10233 0
-10250 10249 10234 0
-10250 -10249 -10234 0
10250 -10249 10234 0
10250 10249 -10234 0
-10251 10250 10235 0
-10251 -10250 -10235 0
10251 -10250 10235 0
10251 10250 -10235 0
-10252 10251 10236 0
-10252 -10251 -10236 0
10252 -10251 10236 0
10252 10251 -10236 0
-10253 10252 10237 0
-10253 -10252 -10237 0
10253 -10252 10237 0
10253 10252 -10237 0
-10254 10253 10238 0
-10254 -10253 -10238 0
10254 -10253 10238 0
10254 10253 -10238 0
-10255 10254 10239 0
-10255 -10254 -10239 0
10255 -10254 10239 0
10255 10254 -10239 0
-10256 10255 10240 0
-10256 -10255 -10240 0
10256 -10255 10240 0
10256 10255 -10240 0
-10257 10256 10241 0
-10257 -10256 -10241 0
10257 -10256 10241 0
10257 10256 -10241 0
-10258 10257 10242 0
-10258 -10257 -10242 0
10258 -10257 10242 0
10258 10257 -10242 0
-10259 10258 10243 0
-10259 -10258 -10243 0
10259 -10258 10243 0
10259 10258 -10243 0
-10259 0
-10260 9748 0
-10260 48 0
10260 -9748 -48 0
-10261 9750 0
-10261 43 0
10261 -9750 -43 0
-10262 9752 0
-10262 38 0
10262 -9752 -38 0
-10263 9754 0
-10263 48 0
10263 -9754 -48 0
-10264 9756 0
-10264 43 0
10264 -9756 -43 0
-10265 9758 0
-10265 38 0
10265 -9758 -38 0
-10266 9760 0
-10266 96 0
10266 -9760 -96 0
-10267 9762 0
-10267 91 0
10267 -9762 -91 0
-10268 9764 0
-10268 86 0
10268 -9764 -86 0
-10269 9766 0
-10269 96 0
10269 -9766 -96 0
-10270 9768 0
-10270 91 0
10270 -9768 -91 0
-10271 9770 0
-10271 86 0
10271 -9770 -86 0
-10272 9772 0
-10272 144 0
10272 -9772 -144 0
-10273 9774 0
-10273 139 0
10273 -9774 -139 0
-10274 9776 0
-10274 134 0
10274 -9776 -134 0
-10275 9778 0
-10275 192 0
10275 -9778 -192 0
-10276 9780 0
-10276 192 0
10276 -9780 -192 0
-10277 10260 10261 0
-10277 -10260 -10261 0
10277 -10260 10261 0
10277 10260 -10261 0
-10278 10277 10262 0
-10278 -10277 -10262 0
10278 -10277 10262 0
10278 10277 -10262 0
-10279 10278 10263 0
-10279 -10278 -10263 0
10279 -10278 10263 0
10279 10278 -10263 0
-10280 10279 10264 0
-10280 -10279 -10264 0
10280 -10279 10264 0
10280 10279 -10264 0
-10281 10280 10265 0
-10281 -10280 -10265 0
10281 -10280 10265 0
10281 10280 -10265 0
-10282 10281 10266 0
-10282 -10281 -10266 0
10282 -10281 10266 0
10282 10281 -10266 0
-10283 10282 10267 0
-10283 -10282 -10267 0
10283 -10282 10267 0
10283 10282 -10267 0
-10284 10283 10268 0
-10284 -10283 -10268 0
10284 -10283 10268 0
10284 10283 -10268 0
-10285 10284 10269 0
-10285 -10284 -10269 0
10285 -10284 10269 0
10285 10284 -10269 0
-10286 10285 10270 0
-10286 -10285 -10270 0
10286 -10285 10270 0
10286 10285 -10270 0
-10287 10286 10271 0
-10287 -10286 -10271 0
10287 -10286 10271 0
10287 10286 -10271 0
-10288 10287 10272 0
-10288 -10287 -10272 0
10288 -10287 10272 0
10288 10287 -10272 0
-10289 10288 10273 0
-10289 -10288 -10273 0
10289 -10288 10273 0
10289 10288 -10273 0
-10290 10289 10274 0
-10290 -10289 -10274 0
10290 -10289 10274 0
10290 10289 -10274 0
-10291 10290 10275 0
-10291 -10290 -10275 0
10291 -10290 10275 0
10291 10290 -10275 0
-10292 10291 10276 0
-10292 -10291 -10276 0
10292 -10291 10276 0
10292 10291 -10276 0
-10292 0
-10293 5 0
-10293 32 0
10293 -5 -32 0
-10294 10293 0
-10294 33 0
10294 -10293 -33 0
-10295 6 0
-10295 31 0
10295 -6 -31 0
-10296 10295 0
-10296 33 0
10296 -10295 -33 0
-10297 10 0
-10297 30 0
10297 -10 -30 0
-10298 10297 0
-10298 33 0
10298 -10297 -33 0
-10299 18 0
-10299 16 0
10299 -18 -16 0
-10300 10299 0
-10300 33 0
10300 -10299 -33 0
-10301 22 0
-10301 12 0
10301 -22 -12 0
-10302 10301 0
-10302 33 0
10302 -10301 -33 0
-10303 23 0
-10303 8 0
10303 -23 -8 0
-10304 10303 0
-10304 33 0
10304 -10303 -33 0
-10305 53 0
-10305 80 0
10305 -53 -80 0
-10306 10305 0
-10306 81 0
10306 -10305 -81 0
-10307 54 0
-10307 79 0
10307 -54 -79 0
-10308 10307 0
-10308 81 0
10308 -10307 -81 0
-10309 58 0
-10309 78 0
10309 -58 -78 0
-10310 10309 0
-10310 81 0
10310 -10309 -81 0
-10311 66 0
-10311 64 0
10311 -66 -64 0
-10312 10311 0
-10312 81 0
10312 -10311 -81 0
-10313 70 0
-10313 60 0
10313 -70 -60 0
-10314 10313 0
-10314 81 0
10314 -10313 -81 0
-10315 71 0
-10315 56 0
10315 -71 -56 0
-10316 10315 0
-10316 81 0
10316 -10315 -81 0
-10317 101 0
-10317 128 0
10317 -101 -128 0
-10318 10317 0
-10318 129 0
10318 -10317 -129 0
-10319 102 0
-10319 127 0
10319 -102 -127 0
-10320 10319 0
-10320 129 0
10320 -10319 -129 0
-10321 106 0
-10321 126 0
10321 -106 -126 0
-10322 10321 0
-10322 129 0
10322 -10321 -129 0
-10323 149 0
-10323 176 0
10323 -149 -176 0
-10324 10323 0
-10324 177 0
10324 -10323 -177 0
-10325 162 0
-10325 160 0
10325 -162 -160 0
-10326 10325 0
-10326 177 0
10326 -10325 -177 0
-10327 10294 10296 0
-10327 -10294 -10296 0
10327 -10294 10296 0
10327 10294 -10296 0
-10328 10327 10298 0
-10328 -10327 -10298 0
10328 -10327 10298 0
10328 10327 -10298 0
-10329 10328 10300 0
-10329 -10328 -10300 0
10329 -10328 10300 0
10329 10328 -10300 0
-10330 10329 10302 0
-10330 -10329 -10302 0
10330 -10329 10302 0
10330 10329 -10302 0
-10331 10330 10304 0
-10331 -10330 -10304 0
10331 -10330 10304 0
10331 10330 -10304 0
-10332 10331 10306 0
-10332 -10331 -10306 0
10332 -10331 10306 0
10332 10331 -10306 0
-10333 10332 10308 0
-10333 -10332 -10308 0
10333 -10332 10308 0
10333 10332 -10308 0
-10334 10333 10310 0
-10334 -10333 -10310 0
10334 -10333 10310 0
10334 10333 -10310 0
-10335 10334 10312 0
-10335 -10334 -10312 0
10335 -10334 10312 0
10335 10334 -10312 0
-10336 10335 10314 0
-10336 -10335 -10314 0
10336 -10335 10314 0
10336 10335 -10314 0
-10337 10336 10316 0
-10337 -10336 -10316 0
10337 -10336 10316 0
10337 10336 -10316 0
-10338 10337 10318 0
-10338 -10337 -10318 0
10338 -10337 10318 0
10338 10337 -10318 0
-10339 10338 10320 0
-10339 -10338 -10320 0
10339 -10338 10320 0
10339 10338 -10320 0
-10340 10339 10322 0
-10340 -10339 -10322 0
10340 -10339 10322 0
10340 10339 -10322 0
-10341 10340 10324 0
-10341 -10340 -10324 0
10341 -10340 10324 0
10341 10340 -10324 0
-10342 10341 10326 0
-10342 -10341 -10326 0
10342 -10341 10326 0
10342 10341 -10326 0
-10342 0
-10343 10293 0
-10343 34 0
10343 -10293 -34 0
-10344 10295 0
-10344 34 0
10344 -10295 -34 0
-10345 10297 0
-10345 35 0
10345 -10297 -35 0
-10346 10299 0
-10346 37 0
10346 -10299 -37 0
-10347 10301 0
-10347 37 0
10347 -10301 -37 0
-10348 10303 0
-10348 41 0
10348 -10303 -41 0
-10349 10305 0
-10349 82 0
10349 -10305 -82 0
-10350 10307 0
-10350 82 0
10350 -10307 -82 0
-10351 10309 0
-10351 83 0
10351 -10309 -83 0
-10352 10311 0
-10352 85 0
10352 -10311 -85 0
-10353 10313 0
-10353 85 0
10353 -10313 -85 0
-10354 10315 0
-10354 89 0
10354 -10315 -89 0
-10355 10317 0
-10355 130 0
10355 -10317 -130 0
-10356 10319 0
-10356 130 0
10356 -10319 -130 0
-10357 10321 0
-10357 131 0
10357 -10321 -131 0
-10358 10323 0
-10358 178 0
10358 -10323 -178 0
-10359 10325 0
-10359 181 0
10359 -10325 -181 0
-10360 10343 10344 0
-10360 -10343 -10344 0
10360 -10343 10344 0
10360 10343 -10344 0
-10361 10360 10345 0
-10361 -10360 -10345 0
10361 -10360 10345 0
10361 10360 -10345 0
-10362 10361 10346 0
-10362 -10361 -10346 0
10362 -10361 10346 0
10362 10361 -10346 0
-10363 10362 10347 0
-10363 -10362 -10347 0
10363 -10362 10347 0
10363 10362 -10347 0
-10364 10363 10348 0
-10364 -10363 -10348 0
10364 -10363 10348 0
10364 10363 -10348 0
-10365 10364 10349 0
-10365 -10364 -10349 0
10365 -10364 10349 0
10365 10364 -10349 0
-10366 10365 10350 0
-10366 -10365 -10350 0
10366 -10365 10350 0
10366 10365 -10350 0
-10367 10366 10351 0
-10367 -10366 -10351 0
10367 -10366 10351 0
10367 10366 -10351 0
-10368 10367 10352 0
-10368 -10367 -10352 0
10368 -10367 10352 0
10368 10367 -10352 0
-10369 10368 10353 0
-10369 -10368 -10353 0
10369 -10368 10353 0
10369 10368 -10353 0
-10370 10369 10354 0
-10370 -10369 -10354 0
10370 -10369 10354 0
10370 10369 -10354 0
-10371 10370 10355 0
-10371 -10370 -10355 0
10371 -10370 10355 0
10371 10370 -10355 0
-10372 10371 10356 0
-10372 -10371 -10356 0
10372 -10371 10356 0
10372 10371 -10356 0
-10373 10372 10357 0
-10373 -10372 -10357 0
10373 -10372 10357 0
10373 10372 -10357 0
-10374 10373 10358 0
-10374 -10373 -10358 0
10374 -10373 10358 0
10374 10373 -10358 0
-10375 10374 10359 0
-10375 -10374 -10359 0
10375 -10374 10359 0
10375 10374 -10359 0
10375 0
-10376 10293 0
-10376 35 0
10376 -10293 -35 0
-10377 10295 0
-10377 36 0
10377 -10295 -36 0
-10378 10297 0
-10378 36 0
10378 -10297 -36 0
-10379 10299 0
-10379 41 0
10379 -10299 -41 0
-10380 10301 0
-10380 45 0
10380 -10301 -45 0
-10381 10303 0
-10381 45 0
10381 -10303 -45 0
-10382 10305 0
-10382 83 0
10382 -10305 -83 0
-10383 10307 0
-10383 84 0
10383 -10307 -84 0
-10384 10309 0
-10384 84 0
10384 -10309 -84 0
-10385 10311 0
-10385 89 0
10385 -10311 -89 0
-10386 10313 0
-10386 93 0
10386 -10313 -93 0
-10387 10315 0
-10387 93 0
10387 -10315 -93 0
-10388 10317 0
-10388 131 0
10388 -10317 -131 0
-10389 10319 0
-10389 132 0
10389 -10319 -132 0
-10390 10321 0
-10390 132 0
10390 -10321 -132 0
-10391 10323 0
-10391 179 0
10391 -10323 -179 0
-10392 10325 0
-10392 185 0
10392 -10325 -185 0
-10393 10376 10377 0
-10393 -10376 -10377 0
10393 -10376 10377 0
10393 10376 -10377 0
-10394 10393 10378 0
-10394 -10393 -10378 0
10394 -10393 10378 0
10394 10393 -10378 0
-10395 10394 10379 0
-10395 -10394 -10379 0
10395 -10394 10379 0
10395 10394 -10379 0
-10396 10395 10380 0
-10396 -10395 -10380 0
10396 -10395 10380 0
10396 10395 -10380 0
-10397 10396 10381 0
-10397 -10396 -10381 0
10397 -10396 10381 0
10397 10396 -10381 0
-10398 10397 10382 0
-10398 -10397 -10382 0
10398 -10397 10382 0
10398 10397 -10382 0
-10399 10398 10383 0
-10399 -10398 -10383 0
10399 -10398 10383 0
10399 10398 -10383 0
-10400 10399 10384 0
-10400 -10399 -10384 0
10400 -10399 10384 0
10400 10399 -10384 0
-10401 10400 10385 0
-10401 -10400 -10385 0
10401 -10400 10385 0
10401 10400 -10385 0
-10402 10401 10386 0
-10402 -10401 -10386 0
10402 -10401 10386 0
10402 10401 -10386 0
-10403 10402 10387 0
-10403 -10402 -10387 0
10403 -10402 10387 0
10403 10402 -10387 0
-10404 10403 10388 0
-10404 -10403 -10388 0
10404 -10403 10388 0
10404 10403 -10388 0
-10405 10404 10389 0
-10405 -10404 -10389 0
10405 -10404 10389 0
10405 10404 -10389 0
-10406 10405 10390 0
-10406 -10405 -10390 0
10406 -10405 10390 0
10406 10405 -10390 0
-10407 10406 10391 0
-10407 -10406 -10391 0
10407 -10406 10391 0
10407 10406 -10391 0
-10408 10407 10392 0
-10408 -10407 -10392 0
10408 -10407 10392 0
10408 10407 -10392 0
-10408 0
-10409 10293 0
-10409 36 0
10409 -10293 -36 0
-10410 10295 0
-10410 35 0
10410 -10295 -35 0
-10411 10297 0
-10411 34 0
10411 -10297 -34 0
-10412 10299 0
-10412 45 0
10412 -10299 -45 0
-10413 10301 0
-10413 41 0
10413 -10301 -41 0
-10414 10303 0
-10414 37 0
10414 -10303 -37 0
-10415 10305 0
-10415 84 0
10415 -10305 -84 0
-10416 10307 0
-10416 83 0
10416 -10307 -83 0
-10417 10309 0
-10417 82 0
10417 -10309 -82 0
-10418 10311 0
-10418 93 0
10418 -10311 -93 0
-10419 10313 0
-10419 89 0
10419 -10313 -89 0
-10420 10315 0
-10420 85 0
10420 -10315 -85 0
-10421 10317 0
-10421 132 0
10421 -10317 -132 0
-10422 10319 0
-10422 131 0
10422 -10319 -131 0
-10423 10321 0
-10423 130 0
10423 -10321 -130 0
-10424 10323 0
-10424 180 0
10424 -10323 -180 0
-10425 10325 0
-10425 189 0
10425 -10325 -189 0
-10426 10409 10410 0
-10426 -10409 -10410 0
10426 -10409 10410 0
10426 10409 -10410 0
-10427 10426 10411 0
-10427 -10426 -10411 0
10427 -10426 10411 0
10427 10426 -10411 0
-10428 10427 10412 0
-10428 -10427 -10412 0
10428 -10427 10412 0
10428 10427 -10412 0
-10429 10428 10413 0
-10429 -10428 -10413 0
10429 -10428 10413 0
10429 10428 -10413 0
-10430 10429 10414 0
-10430 -10429 -10414 0
10430 -10429 10414 0
10430 10429 -10414 0
-10431 10430 10415 0
-10431 -10430 -10415 0
10431 -10430 10415 0
10431 10430 -10415 0
-10432 10431 10416 0
-10432 -10431 -10416 0
10432 -10431 10416 0
10432 10431 -10416 0
-10433 10432 10417 0
-10433 -10432 -10417 0
10433 -10432 10417 0
10433 10432 -10417 0
-10434 10433 10418 0
-10434 -10433 -10418 0
10434 -10433 10418 0
10434 10433 -10418 0
-10435 10434 10419 0
-10435 -10434 -10419 0
10435 -10434 10419 0
10435 10434 -10419 0
-10436 10435 10420 0
-10436 -10435 -10420 0
10436 -10435 10420 0
10436 10435 -10420 0
-10437 10436 10421 0
-10437 -10436 -10421 0
10437 -10436 10421 0
10437 10436 -10421 0
-10438 10437 10422 0
-10438 -10437 -10422 0
10438 -10437 10422 0
10438 10437 -10422 0
-10439 10438 10423 0
-10439 -10438 -10423 0
10439 -10438 10423 0
10439 10438 -10423 0
-10440 10439 10424 0
-10440 -10439 -10424 0
10440 -10439 10424 0
10440 10439 -10424 0
-10441 10440 10425 0
-10441 -10440 -10425 0
10441 -10440 10425 0
10441 10440 -10425 0
-10441 0
-10442 10293 0
-10442 37 0
10442 -10293 -37 0
-10443 10295 0
-10443 37 0
10443 -10295 -37 0
-10444 10297 0
-10444 41 0
10444 -10297 -41 0
-10445 10299 0
-10445 34 0
10445 -10299 -34 0
-10446 10301 0
-10446 34 0
10446 -10301 -34 0
-10447 10303 0
-10447 35 0
10447 -10303 -35 0
-10448 10305 0
-10448 85 0
10448 -10305 -85 0
-10449 10307 0
-10449 85 0
10449 -10307 -85 0
-10450 10309 0
-10450 89 0
10450 -10309 -89 0
-10451 10311 0
-10451 82 0
10451 -10311 -82 0
-10452 10313 0
-10452 82 0
10452 -10313 -82 0
-10453 10315 0
-10453 83 0
10453 -10315 -83 0
-10454 10317 0
-10454 133 0
10454 -10317 -133 0
-10455 10319 0
-10455 133 0
10455 -10319 -133 0
-10456 10321 0
-10456 137 0
10456 -10321 -137 0
-10457 10323 0
-10457 181 0
10457 -10323 -181 0
-10458 10325 0
-10458 178 0
10458 -10325 -178 0
-10459 10442 10443 0
-10459 -10442 -10443 0
10459 -10442 10443 0
10459 10442 -10443 0
-10460 10459 10444 0
-10460 -10459 -10444 0
10460 -10459 10444 0
10460 10459 -10444 0
-10461 10460 10445 0
-10461 -10460 -10445 0
10461 -10460 10445 0
10461 10460 -10445 0
-10462 10461 10446 0
-10462 -10461 -10446 0
10462 -10461 10446 0
10462 10461 -10446 0
-10463 10462 10447 0
-10463 -10462 -10447 0
10463 -10462 10447 0
10463 10462 -10447 0
-10464 10463 10448 0
-10464 -10463 -10448 0
10464 -10463 10448 0
10464 10463 -10448 0
-10465 10464 10449 0
-10465 -10464 -10449 0
10465 -10464 10449 0
10465 10464 -10449 0
-10466 10465 10450 0
-10466 -10465 -10450 0
10466 -10465 10450 0
10466 10465 -10450 0
-10467 10466 10451 0
-10467 -10466 -10451 0
10467 -10466 10451 0
10467 10466 -10451 0
-10468 10467 10452 0
-10468 -10467 -10452 0
10468 -10467 10452 0
10468 10467 -10452 0
-10469 10468 10453 0
-10469 -10468 -10453 0
10469 -10468 10453 0
10469 10468 -10453 0
-10470 10469 10454 0
-10470 -10469 -10454 0
10470 -10469 10454 0
10470 10469 -10454 0
-10471 10470 10455 0
-10471 -10470 -10455 0
10471 -10470 10455 0
10471 10470 -10455 0
-10472 10471 10456 0
-10472 -10471 -10456 0
10472 -10471 10456 0
10472 10471 -10456 0
-10473 10472 10457 0
-10473 -10472 -10457 0
10473 -10472 10457 0
10473 10472 -10457 0
-10474 10473 10458 0
-10474 -10473 -10458 0
10474 -10473 10458 0
10474 10473 -10458 0
-10474 0
-10475 10293 0
-10475 38 0
10475 -10293 -38 0
-10476 10295 0
-10476 38 0
10476 -10295 -38 0
-10477 10297 0
-10477 43 0
10477 -10297 -43 0
-10478 10299 0
-10478 38 0
10478 -10299 -38 0
-10479 10301 0
-10479 38 0
10479 -10301 -38 0
-10480 10303 0
-10480 43 0
10480 -10303 -43 0
-10481 10305 0
-10481 86 0
10481 -10305 -86 0
-10482 10307 0
-10482 86 0
10482 -10307 -86 0
-10483 10309 0
-10483 91 0
10483 -10309 -91 0
-10484 10311 0
-10484 86 0
10484 -10311 -86 0
-10485 10313 0
-10485 86 0
10485 -10313 -86 0
-10486 10315 0
-10486 91 0
10486 -10315 -91 0
-10487 10317 0
-10487 134 0
10487 -10317 -134 0
-10488 10319 0
-10488 134 0
10488 -10319 -134 0
-10489 10321 0
-10489 139 0
10489 -10321 -139 0
-10490 10323 0
-10490 182 0
10490 -10323 -182 0
-10491 10325 0
-10491 182 0
10491 -10325 -182 0
-10492 10475 10476 0
-10492 -10475 -10476 0
10492 -10475 10476 0
10492 10475 -10476 0
-10493 10492 10477 0
-10493 -10492 -10477 0
10493 -10492 10477 0
10493 10492 -10477 0
-10494 10493 10478 0
-10494 -10493 -10478 0
10494 -10493 10478 0
10494 10493 -10478 0
-10495 10494 10479 0
-10495 -10494 -10479 0
10495 -10494 10479 0
10495 10494 -10479 0
-10496 10495 10480 0
-10496 -10495 -10480 0
10496 -10495 10480 0
10496 10495 -10480 0
-10497 10496 10481 0
-10497 -10496 -10481 0
10497 -10496 10481 0
10497 10496 -10481 0
-10498 10497 10482 0
-10498 -10497 -10482 0
10498 -10497 10482 0
10498 10497 -10482 0
-10499 10498 10483 0
-10499 -10498 -10483 0
10499 -10498 10483 0
10499 10498 -10483 0
-10500 10499 10484 0
-10500 -10499 -10484 0
10500 -10499 10484 0
10500 10499 -10484 0
-10501 10500 10485 0
-10501 -10500 -10485 0
10501 -10500 10485 0
10501 10500 -10485 0
-10502 10501 10486 0
-10502 -10501 -10486 0
10502 -10501 10486 0
10502 10501 -10486 0
-10503 10502 10487 0
-10503 -10502 -10487 0
10503 -10502 10487 0
10503 10502 -10487 0
-10504 10503 10488 0
-10504 -10503 -10488 0
10504 -10503 10488 0
10504 10503 -10488 0
-10505 10504 10489 0
-10505 -10504 -10489 0
10505 -10504 10489 0
10505 10504 -10489 0
-10506 10505 10490 0
-10506 -10505 -10490 0
10506 -10505 10490 0
10506 10505 -10490 0
-10507 10506 10491 0
-10507 -10506 -10491 0
10507 -10506 10491 0
10507 10506 -10491 0
-10507 0
-10508 10293 0
-10508 39 0
10508 -10293 -39 0
-10509 10295 0
-10509 40 0
10509 -10295 -40 0
-10510 10297 0
-10510 44 0
10510 -10297 -44 0
-10511 10299 0
-10511 42 0
10511 -10299 -42 0
-10512 10301 0
-10512 46 0
10512 -10301 -46 0
-10513 10303 0
-10513 47 0
10513 -10303 -47 0
-10514 10305 0
-10514 87 0
10514 -10305 -87 0
-10515 10307 0
-10515 88 0
10515 -10307 -88 0
-10516 10309 0
-10516 92 0
10516 -10309 -92 0
-10517 10311 0
-10517 90 0
10517 -10311 -90 0
-10518 10313 0
-10518 94 0
10518 -10313 -94 0
-10519 10315 0
-10519 95 0
10519 -10315 -95 0
-10520 10317 0
-10520 135 0
10520 -10317 -135 0
-10521 10319 0
-10521 136 0
10521 -10319 -136 0
-10522 10321 0
-10522 140 0
10522 -10321 -140 0
-10523 10323 0
-10523 183 0
10523 -10323 -183 0
-10524 10325 0
-10524 186 0
10524 -10325 -186 0
-10525 10508 10509 0
-10525 -10508 -10509 0
10525 -10508 10509 0
10525 10508 -10509 0
-10526 10525 10510 0
-10526 -10525 -10510 0
10526 -10525 10510 0
10526 10525 -10510 0
-10527 10526 10511 0
-10527 -10526 -10511 0
10527 -10526 10511 0
10527 10526 -10511 0
-10528 10527 10512 0
-10528 -10527 -10512 0
10528 -10527 10512 0
10528 10527 -10512 0
-10529 10528 10513 0
-10529 -10528 -10513 0
10529 -10528 10513 0
10529 10528 -10513 0
-10530 10529 10514 0
-10530 -10529 -10514 0
10530 -10529 10514 0
10530 10529 -10514 0
-10531 10530 10515 0
-10531 -10530 -10515 0
10531 -10530 10515 0
10531 10530 -10515 0
-10532 10531 10516 0
-10532 -10531 -10516 0
10532 -10531 10516 0
10532 10531 -10516 0
-10533 10532 10517 0
-10533 -10532 -10517 0
10533 -10532 10517 0
10533 10532 -10517 0
-10534 10533 10518 0
-10534 -10533 -10518 0
10534 -10533 10518 0
10534 10533 -10518 0
-10535 10534 10519 0
-10535 -10534 -10519 0
10535 -10534 10519 0
10535 10534 -10519 0
-10536 10535 10520 0
-10536 -10535 -10520 0
10536 -10535 10520 0
10536 10535 -10520 0
-10537 10536 10521 0
-10537 -10536 -10521 0
10537 -10536 10521 0
10537 10536 -10521 0
-10538 10537 10522 0
-10538 -10537 -10522 0
10538 -10537 10522 0
10538 10537 -10522 0
-10539 10538 10523 0
-10539 -10538 -10523 0
10539 -10538 10523 0
10539 10538 -10523 0
-10540 10539 10524 0
-10540 -10539 -10524 0
10540 -10539 10524 0
10540 10539 -10524 0
-10540 0
-10541 10293 0
-10541 40 0
10541 -10293 -40 0
-10542 10295 0
-10542 39 0
10542 -10295 -39 0
-10543 10297 0
-10543 42 0
10543 -10297 -42 0
-10544 10299 0
-10544 46 0
10544 -10299 -46 0
-10545 10301 0
-10545 42 0
10545 -10301 -42 0
-10546 10303 0
-10546 39 0
10546 -10303 -39 0
-10547 10305 0
-10547 88 0
10547 -10305 -88 0
-10548 10307 0
-10548 87 0
10548 -10307 -87 0
-10549 10309 0
-10549 90 0
10549 -10309 -90 0
-10550 10311 0
-10550 94 0
10550 -10311 -94 0
-10551 10313 0
-10551 90 0
10551 -10313 -90 0
-10552 10315 0
-10552 87 0
10552 -10315 -87 0
-10553 10317 0
-10553 136 0
10553 -10317 -136 0
-10554 10319 0
-10554 135 0
10554 -10319 -135 0
-10555 10321 0
-10555 138 0
10555 -10321 -138 0
-10556 10323 0
-10556 184 0
10556 -10323 -184 0
-10557 10325 0
-10557 190 0
10557 -10325 -190 0
-10558 10541 10542 0
-10558 -10541 -10542 0
10558 -10541 10542 0
10558 10541 -10542 0
-10559 10558 10543 0
-10559 -10558 -10543 0
10559 -10558 10543 0
10559 10558 -10543 0
-10560 10559 10544 0
-10560 -10559 -10544 0
10560 -10559 10544 0
10560 10559 -10544 0
-10561 10560 10545 0
-10561 -10560 -10545 0
10561 -10560 10545 0
10561 10560 -10545 0
-10562 10561 10546 0
-10562 -10561 -10546 0
10562 -10561 10546 0
10562 10561 -10546 0
-10563 10562 10547 0
-10563 -10562 -10547 0
10563 -10562 10547 0
10563 10562 -10547 0
-10564 10563 10548 0
-10564 -10563 -10548 0
10564 -10563 10548 0
10564 10563 -10548 0
-10565 10564 10549 0
-10565 -10564 -10549 0
10565 -10564 10549 0
10565 10564 -10549 0
-10566 10565 10550 0
-10566 -10565 -10550 0
10566 -10565 10550 0
10566 10565 -10550 0
-10567 10566 10551 0
-10567 -10566 -10551 0
10567 -10566 10551 0
10567 10566 -10551 0
-10568 10567 10552 0
-10568 -10567 -10552 0
10568 -10567 10552 0
10568 10567 -10552 0
-10569 10568 10553 0
-10569 -10568 -10553 0
10569 -10568 10553 0
10569 10568 -10553 0
-10570 10569 10554 0
-10570 -10569 -10554 0
10570 -10569 10554 0
10570 10569 -10554 0
-10571 10570 10555 0
-10571 -10570 -10555 0
10571 -10570 10555 0
10571 10570 -10555 0
-10572 10571 10556 0
-10572 -10571 -10556 0
10572 -10571 10556 0
10572 10571 -10556 0
-10573 10572 10557 0
-10573 -10572 -10557 0
10573 -10572 10557 0
10573 10572 -10557 0
-10573 0
-10574 10293 0
-10574 41 0
10574 -10293 -41 0
-10575 10295 0
-10575 45 0
10575 -10295 -45 0
-10576 10297 0
-10576 45 0
10576 -10297 -45 0
-10577 10299 0
-10577 35 0
10577 -10299 -35 0
-10578 10301 0
-10578 36 0
10578 -10301 -36 0
-10579 10303 0
-10579 36 0
10579 -10303 -36 0
-10580 10305 0
-10580 89 0
10580 -10305 -89 0
-10581 10307 0
-10581 93 0
10581 -10307 -93 0
-10582 10309 0
-10582 93 0
10582 -10309 -93 0
-10583 10311 0
-10583 83 0
10583 -10311 -83 0
-10584 10313 0
-10584 84 0
10584 -10313 -84 0
-10585 10315 0
-10585 84 0
10585 -10315 -84 0
-10586 10317 0
-10586 137 0
10586 -10317 -137 0
-10587 10319 0
-10587 141 0
10587 -10319 -141 0
-10588 10321 0
-10588 141 0
10588 -10321 -141 0
-10589 10323 0
-10589 185 0
10589 -10323 -185 0
-10590 10325 0
-10590 179 0
10590 -10325 -179 0
-10591 10574 10575 0
-10591 -10574 -10575 0
10591 -10574 10575 0
10591 10574 -10575 0
-10592 10591 10576 0
-10592 -10591 -10576 0
10592 -10591 10576 0
10592 10591 -10576 0
-10593 10592 10577 0
-10593 -10592 -10577 0
10593 -10592 10577 0
10593 10592 -10577 0
-10594 10593 10578 0
-10594 -10593 -10578 0
10594 -10593 10578 0
10594 10593 -10578 0
-10595 10594 10579 0
-10595 -10594 -10579 0
10595 -10594 10579 0
10595 10594 -10579 0
-10596 10595 10580 0
-10596 -10595 -10580 0
10596 -10595 10580 0
10596 10595 -10580 0
-10597 10596 10581 0
-10597 -10596 -10581 0
10597 -10596 10581 0
10597 10596 -10581 0
-10598 10597 10582 0
-10598 -10597 -10582 0
10598 -10597 10582 0
10598 10597 -10582 0
-10599 10598 10583 0
-10599 -10598 -10583 0
10599 -10598 10583 0
10599 10598 -10583 0
-10600 10599 10584 0
-10600 -10599 -10584 0
10600 -10599 10584 0
10600 10599 -10584 0
-10601 10600 10585 0
-10601 -10600 -10585 0
10601 -10600 10585 0
10601 10600 -10585 0
-10602 10601 10586 0
-10602 -10601 -10586 0
10602 -10601 10586 0
10602 10601 -10586 0
-10603 10602 10587 0
-10603 -10602 -10587 0
10603 -10602 10587 0
10603 10602 -10587 0
-10604 10603 10588 0
-10604 -10603 -10588 0
10604 -10603 10588 0
10604 10603 -10588 0
-10605 10604 10589 0
-10605 -10604 -10589 0
10605 -10604 10589 0
10605 10604 -10589 0
-10606 10605 10590 0
-10606 -10605 -10590 0
10606 -10605 10590 0
10606 10605 -10590 0
-10606 0
-10607 10293 0
-10607 42 0
10607 -10293 -42 0
-10608 10295 0
-10608 46 0
10608 -10295 -46 0
-10609 10297 0
-10609 47 0
10609 -10297 -47 0
-10610 10299 0
-10610 39 0
10610 -10299 -39 0
-10611 10301 0
-10611 40 0
10611 -10301 -40 0
-10612 10303 0
-10612 44 0
10612 -10303 -44 0
-10613 10305 0
-10613 90 0
10613 -10305 -90 0
-10614 10307 0
-10614 94 0
10614 -10307 -94 0
-10615 10309 0
-10615 95 0
10615 -10309 -95 0
-10616 10311 0
-10616 87 0
10616 -10311 -87 0
-10617 10313 0
-10617 88 0
10617 -10313 -88 0
-10618 10315 0
-10618 92 0
10618 -10315 -92 0
-10619 10317 0
-10619 138 0
10619 -10317 -138 0
-10620 10319 0
-10620 142 0
10620 -10319 -142 0
-10621 10321 0
-10621 143 0
10621 -10321 -143 0
-10622 10323 0
-10622 186 0
10622 -10323 -186 0
-10623 10325 0
-10623 183 0
10623 -10325 -183 0
-10624 10607 10608 0
-10624 -10607 -10608 0
10624 -10607 10608 0
10624 10607 -10608 0
-10625 10624 10609 0
-10625 -10624 -10609 0
10625 -10624 10609 0
10625 10624 -10609 0
-10626 10625 10610 0
-10626 -10625 -10610 0
10626 -10625 10610 0
10626 10625 -10610 0
-10627 10626 10611 0
-10627 -10626 -10611 0
10627 -10626 10611 0
10627 10626 -10611 0
-10628 10627 10612 0
-10628 -10627 -10612 0
10628 -10627 10612 0
10628 10627 -10612 0
-10629 10628 10613 0
-10629 -10628 -10613 0
10629 -10628 10613 0
10629 10628 -10613 0
-10630 10629 10614 0
-10630 -10629 -10614 0
10630 -10629 10614 0
10630 10629 -10614 0
-10631 10630 10615 0
-10631 -10630 -10615 0
10631 -10630 10615 0
10631 10630 -10615 0
-10632 10631 10616 0
-10632 -10631 -10616 0
10632 -10631 10616 0
10632 10631 -10616 0
-10633 10632 10617 0
-10633 -10632 -10617 0
10633 -10632 10617 0
10633 10632 -10617 0
-10634 10633 10618 0
-10634 -10633 -10618 0
10634 -10633 10618 0
10634 10633 -10618 0
-10635 10634 10619 0
-10635 -10634 -10619 0
10635 -10634 10619 0
10635 10634 -10619 0
-10636 10635 10620 0
-10636 -10635 -10620 0
10636 -10635 10620 0
10636 10635 -10620 0
-10637 10636 10621 0
-10637 -10636 -10621 0
10637 -10636 10621 0
10637 10636 -10621 0
-10638 10637 10622 0
-10638 -10637 -10622 0
10638 -10637 10622 0
10638 10637 -10622 0
-10639 10638 10623 0
-10639 -10638 -10623 0
10639 -10638 10623 0
10639 10638 -10623 0
10639 0
-10640 10293 0
-10640 43 0
10640 -10293 -43 0
-10641 10295 0
-10641 48 0
10641 -10295 -48 0
-10642 10297 0
-10642 48 0
10642 -10297 -48 0
-10643 10299 0
-10643 43 0
10643 -10299 -43 0
-10644 10301 0
-10644 48 0
10644 -10301 -48 0
-10645 10303 0
-10645 48 0
10645 -10303 -48 0
-10646 10305 0
-10646 91 0
10646 -10305 -91 0
-10647 10307 0
-10647 96 0
10647 -10307 -96 0
-10648 10309 0
-10648 96 0
10648 -10309 -96 0
-10649 10311 0
-10649 91 0
10649 -10311 -91 0
-10650 10313 0
-10650 96 0
10650 -10313 -96 0
-10651 10315 0
-10651 96 0
10651 -10315 -96 0
-10652 10317 0
-10652 139 0
10652 -10317 -139 0
-10653 10319 0
-10653 144 0
10653 -10319 -144 0
-10654 10321 0
-10654 144 0
10654 -10321 -144 0
-10655 10323 0
-10655 187 0
10655 -10323 -187 0
-10656 10325 0
-10656 187 0
10656 -10325 -187 0
-10657 10640 10641 0
-10657 -10640 -10641 0
10657 -10640 10641 0
10657 10640 -10641 0
-10658 10657 10642 0
-10658 -10657 -10642 0
10658 -10657 10642 0
10658 10657 -10642 0
-10659 10658 10643 0
-10659 -10658 -10643 0
10659 -10658 10643 0
10659 10658 -10643 0
-10660 10659 10644 0
-10660 -10659 -10644 0
10660 -10659 10644 0
10660 10659 -10644 0
-10661 10660 10645 0
-10661 -10660 -10645 0
10661 -10660 10645 0
10661 10660 -10645 0
-10662 10661 10646 0
-10662 -10661 -10646 0
10662 -10661 10646 0
10662 10661 -10646 0
-10663 10662 10647 0
-10663 -10662 -10647 0
10663 -10662 10647 0
10663 10662 -10647 0
-10664 10663 10648 0
-10664 -10663 -10648 0
10664 -10663 10648 0
10664 10663 -10648 0
-10665 10664 10649 0
-10665 -10664 -10649 0
10665 -10664 10649 0
10665 10664 -10649 0
-10666 10665 10650 0
-10666 -10665 -10650 0
10666 -10665 10650 0
10666 10665 -10650 0
-10667 10666 10651 0
-10667 -10666 -10651 0
10667 -10666 10651 0
10667 10666 -10651 0
-10668 10667 10652 0
-10668 -10667 -10652 0
10668 -10667 10652 0
10668 10667 -10652 0
-10669 10668 10653 0
-10669 -10668 -10653 0
10669 -10668 10653 0
10669 10668 -10653 0
-10670 10669 10654 0
-10670 -10669 -10654 0
10670 -10669 10654 0
10670 10669 -10654 0
-10671 10670 10655 0
-10671 -10670 -10655 0
10671 -10670 10655 0
10671 10670 -10655 0
-10672 10671 10656 0
-10672 -10671 -10656 0
10672 -10671 10656 0
10672 10671 -10656 0
10672 0
-10673 10293 0
-10673 44 0
10673 -10293 -44 0
-10674 10295 0
-10674 47 0
10674 -10295 -47 0
-10675 10297 0
-10675 46 0
10675 -10297 -46 0
-10676 10299 0
-10676 47 0
10676 -10299 -47 0
-10677 10301 0
-10677 44 0
10677 -10301 -44 0
-10678 10303 0
-10678 40 0
10678 -10303 -40 0
-10679 10305 0
-10679 92 0
10679 -10305 -92 0
-10680 10307 0
-10680 95 0
10680 -10307 -95 0
-10681 10309 0
-10681 94 0
10681 -10309 -94 0
-10682 10311 0
-10682 95 0
10682 -10311 -95 0
-10683 10313 0
-10683 92 0
10683 -10313 -92 0
-10684 10315 0
-10684 88 0
10684 -10315 -88 0
-10685 10317 0
-10685 140 0
10685 -10317 -140 0
-10686 10319 0
-10686 143 0
10686 -10319 -143 0
-10687 10321 0
-10687 142 0
10687 -10321 -142 0
-10688 10323 0
-10688 188 0
10688 -10323 -188 0
-10689 10325 0
-10689 191 0
10689 -10325 -191 0
-10690 10673 10674 0
-10690 -10673 -10674 0
10690 -10673 10674 0
10690 10673 -10674 0
-10691 10690 10675 0
-10691 -10690 -10675 0
10691 -10690 10675 0
10691 10690 -10675 0
-10692 10691 10676 0
-10692 -10691 -10676 0
10692 -10691 10676 0
10692 10691 -10676 0
-10693 10692 10677 0
-10693 -10692 -10677 0
10693 -10692 10677 0
10693 10692 -10677 0
-10694 10693 10678 0
-10694 -10693 -10678 0
10694 -10693 10678 0
10694 10693 -10678 0
-10695 10694 10679 0
-10695 -10694 -10679 0
10695 -10694 10679 0
10695 10694 -10679 0
-10696 10695 10680 0
-10696 -10695 -10680 0
10696 -10695 10680 0
10696 10695 -10680 0
-10697 10696 10681 0
-10697 -10696 -10681 0
10697 -10696 10681 0
10697 10696 -10681 0
-10698 10697 10682 0
-10698 -10697 -10682 0
10698 -10697 10682 0
10698 10697 -10682 0
-10699 10698 10683 0
-10699 -10698 -10683 0
10699 -10698 10683 0
10699 10698 -10683 0
-10700 10699 10684 0
-10700 -10699 -10684 0
10700 -10699 10684 0
10700 10699 -10684 0
-10701 10700 10685 0
-10701 -10700 -10685 0
10701 -10700 10685 0
10701 10700 -10685 0
-10702 10701 10686 0
-10702 -10701 -10686 0
10702 -10701 10686 0
10702 10701 -10686 0
-10703 10702 10687 0
-10703 -10702 -10687 0
10703 -10702 10687 0
10703 10702 -10687 0
-10704 10703 10688 0
-10704 -10703 -10688 0
10704 -10703 10688 0
10704 10703 -10688 0
-10705 10704 10689 0
-10705 -10704 -10689 0
10705 -10704 10689 0
10705 10704 -10689 0
-10705 0
-10706 10293 0
-10706 45 0
10706 -10293 -45 0
-10707 10295 0
-10707 41 0
10707 -10295 -41 0
-10708 10297 0
-10708 37 0
10708 -10297 -37 0
-10709 10299 0
-10709 36 0
10709 -10299 -36 0
-10710 10301 0
-10710 35 0
10710 -10301 -35 0
-10711 10303 0
-10711 34 0
10711 -10303 -34 0
-10712 10305 0
-10712 93 0
10712 -10305 -93 0
-10713 10307 0
-10713 89 0
10713 -10307 -89 0
-10714 10309 0
-10714 85 0
10714 -10309 -85 0
-10715 10311 0
-10715 84 0
10715 -10311 -84 0
-10716 10313 0
-10716 83 0
10716 -10313 -83 0
-10717 10315 0
-10717 82 0
10717 -10315 -82 0
-10718 10317 0
-10718 141 0
10718 -10317 -141 0
-10719 10319 0
-10719 137 0
10719 -10319 -137 0
-10720 10321 0
-10720 133 0
10720 -10321 -133 0
-10721 10323 0
-10721 189 0
10721 -10323 -189 0
-10722 10325 0
-10722 180 0
10722 -10325 -180 0
-10723 10706 10707 0
-10723 -10706 -10707 0
10723 -10706 10707 0
10723 10706 -10707 0
-10724 10723 10708 0
-10724 -10723 -10708 0
10724 -10723 10708 0
10724 10723 -10708 0
-10725 10724 10709 0
-10725 -10724 -10709 0
10725 -10724 10709 0
10725 10724 -10709 0
-10726 10725 10710 0
-10726 -10725 -10710 0
10726 -10725 10710 0
10726 10725 -10710 0
-10727 10726 10711 0
-10727 -10726 -10711 0
10727 -10726 10711 0
10727 10726 -10711 0
-10728 10727 10712 0
-10728 -10727 -10712 0
10728 -10727 10712 0
10728 10727 -10712 0
-10729 10728 10713 0
-10729 -10728 -10713 0
10729 -10728 10713 0
10729 10728 -10713 0
-10730 10729 10714 0
-10730 -10729 -10714 0
10730 -10729 10714 0
10730 10729 -10714 0
-10731 10730 10715 0
-10731 -10730 -10715 0
10731 -10730 10715 0
10731 10730 -10715 0
-10732 10731 10716 0
-10732 -10731 -10716 0
10732 -10731 10716 0
10732 10731 -10716 0
-10733 10732 10717 0
-10733 -10732 -10717 0
10733 -10732 10717 0
10733 10732 -10717 0
-10734 10733 10718 0
-10734 -10733 -10718 0
10734 -10733 10718 0
10734 10733 -10718 0
-10735 10734 10719 0
-10735 -10734 -10719 0
10735 -10734 10719 0
10735 10734 -10719 0
-10736 10735 10720 0
-10736 -10735 -10720 0
10736 -10735 10720 0
10736 10735 -10720 0
-10737 10736 10721 0
-10737 -10736 -10721 0
10737 -10736 10721 0
10737 10736 -10721 0
-10738 10737 10722 0
-10738 -10737 -10722 0
10738 -10737 10722 0
10738 10737 -10722 0
-10738 0
-10739 10293 0
-10739 46 0
10739 -10293 -46 0
-10740 10295 0
-10740 42 0
10740 -10295 -42 0
-10741 10297 0
-10741 39 0
10741 -10297 -39 0
-10742 10299 0
-10742 40 0
10742 -10299 -40 0
-10743 10301 0
-10743 39 0
10743 -10301 -39 0
-10744 10303 0
-10744 42 0
10744 -10303 -42 0
-10745 10305 0
-10745 94 0
10745 -10305 -94 0
-10746 10307 0
-10746 90 0
10746 -10307 -90 0
-10747 10309 0
-10747 87 0
10747 -10309 -87 0
-10748 10311 0
-10748 88 0
10748 -10311 -88 0
-10749 10313 0
-10749 87 0
10749 -10313 -87 0
-10750 10315 0
-10750 90 0
10750 -10315 -90 0
-10751 10317 0
-10751 142 0
10751 -10317 -142 0
-10752 10319 0
-10752 138 0
10752 -10319 -138 0
-10753 10321 0
-10753 135 0
10753 -10321 -135 0
-10754 10323 0
-10754 190 0
10754 -10323 -190 0
-10755 10325 0
-10755 184 0
10755 -10325 -184 0
-10756 10739 10740 0
-10756 -10739 -10740 0
10756 -10739 10740 0
10756 10739 -10740 0
-10757 10756 10741 0
-10757 -10756 -10741 0
10757 -10756 10741 0
10757 10756 -10741 0
-10758 10757 10742 0
-10758 -10757 -10742 0
10758 -10757 10742 0
10758 10757 -10742 0
-10759 10758 10743 0
-10759 -10758 -10743 0
10759 -10758 10743 0
10759 10758 -10743 0
-10760 10759 10744 0
-10760 -10759 -10744 0
10760 -10759 10744 0
10760 10759 -10744 0
-10761 10760 10745 0
-10761 -10760 -10745 0
10761 -10760 10745 0
10761 10760 -10745 0
-10762 10761 10746 0
-10762 -10761 -10746 0
10762 -10761 10746 0
10762 10761 -10746 0
-10763 10762 10747 0
-10763 -10762 -10747 0
10763 -10762 10747 0
10763 10762 -10747 0
-10764 10763 10748 0
-10764 -10763 -10748 0
10764 -10763 10748 0
10764 10763 -10748 0
-10765 10764 10749 0
-10765 -10764 -10749 0
10765 -10764 10749 0
10765 10764 -10749 0
-10766 10765 10750 0
-10766 -10765 -10750 0
10766 -10765 10750 0
10766 10765 -10750 0
-10767 10766 10751 0
-10767 -10766 -10751 0
10767 -10766 10751 0
10767 10766 -10751 0
-10768 10767 10752 0
-10768 -10767 -10752 0
10768 -10767 10752 0
10768 10767 -10752 0
-10769 10768 10753 0
-10769 -10768 -10753 0
10769 -10768 10753 0
10769 10768 -10753 0
-10770 10769 10754 0
-10770 -10769 -10754 0
10770 -10769 10754 0
10770 10769 -10754 0
-10771 10770 10755 0
-10771 -10770 -10755 0
10771 -10770 10755 0
10771 10770 -10755 0
-10771 0
-10772 10293 0
-10772 47 0
10772 -10293 -47 0
-10773 10295 0
-10773 44 0
10773 -10295 -44 0
-10774 10297 0
-10774 40 0
10774 -10297 -40 0
-10775 10299 0
-10775 44 0
10775 -10299 -44 0
-10776 10301 0
-10776 47 0
10776 -10301 -47 0
-10777 10303 0
-10777 46 0
10777 -10303 -46 0
-10778 10305 0
-10778 95 0
10778 -10305 -95 0
-10779 10307 0
-10779 92 0
10779 -10307 -92 0
-10780 10309 0
-10780 88 0
10780 -10309 -88 0
-10781 10311 0
-10781 92 0
10781 -10311 -92 0
-10782 10313 0
-10782 95 0
10782 -10313 -95 0
-10783 10315 0
-10783 94 0
10783 -10315 -94 0
-10784 10317 0
-10784 143 0
10784 -10317 -143 0
-10785 10319 0
-10785 140 0
10785 -10319 -140 0
-10786 10321 0
-10786 136 0
10786 -10321 -136 0
-10787 10323 0
-10787 191 0
10787 -10323 -191 0
-10788 10325 0
-10788 188 0
10788 -10325 -188 0
-10789 10772 10773 0
-10789 -10772 -10773 0
10789 -10772 10773 0
10789 10772 -10773 0
-10790 10789 10774 0
-10790 -10789 -10774 0
10790 -10789 10774 0
10790 10789 -10774 0
-10791 10790 10775 0
-10791 -10790 -10775 0
10791 -10790 10775 0
10791 10790 -10775 0
-10792 10791 10776 0
-10792 -10791 -10776 0
10792 -10791 10776 0
10792 10791 -10776 0
-10793 10792 10777 0
-10793 -10792 -10777 0
10793 -10792 10777 0
10793 10792 -10777 0
-10794 10793 10778 0
-10794 -10793 -10778 0
10794 -10793 10778 0
10794 10793 -10778 0
-10795 10794 10779 0
-10795 -10794 -10779 0
10795 -10794 10779 0
10795 10794 -10779 0
-10796 10795 10780 0
-10796 -10795 -10780 0
10796 -10795 10780 0
10796 10795 -10780 0
-10797 10796 10781 0
-10797 -10796 -10781 0
10797 -10796 10781 0
10797 10796 -10781 0
-10798 10797 10782 0
-10798 -10797 -10782 0
10798 -10797 10782 0
10798 10797 -10782 0
-10799 10798 10783 0
-10799 -10798 -10783 0
10799 -10798 10783 0
10799 10798 -10783 0
-10800 10799 10784 0
-10800 -10799 -10784 0
10800 -10799 10784 0
10800 10799 -10784 0
-10801 10800 10785 0
-10801 -10800 -10785 0
10801 -10800 10785 0
10801 10800 -10785 0
-10802 10801 10786 0
-10802 -10801 -10786 0
10802 -10801 10786 0
10802 10801 -10786 0
-10803 10802 10787 0
-10803 -10802 -10787 0
10803 -10802 10787 0
10803 10802 -10787 0
-10804 10803 10788 0
-10804 -10803 -10788 0
10804 -10803 10788 0
10804 10803 -10788 0
-10804 0
-10805 10293 0
-10805 48 0
10805 -10293 -48 0
-10806 10295 0
-10806 43 0
10806 -10295 -43 0
-10807 10297 0
-10807 38 0
10807 -10297 -38 0
-10808 10299 0
-10808 48 0
10808 -10299 -48 0
-10809 10301 0
-10809 43 0
10809 -10301 -43 0
-10810 10303 0
-10810 38 0
10810 -10303 -38 0
-10811 10305 0
-10811 96 0
10811 -10305 -96 0
-10812 10307 0
-10812 91 0
10812 -10307 -91 0
-10813 10309 0
-10813 86 0
10813 -10309 -86 0
-10814 10311 0
-10814 96 0
10814 -10311 -96 0
-10815 10313 0
-10815 91 0
10815 -10313 -91 0
-10816 10315 0
-10816 86 0
10816 -10315 -86 0
-10817 10317 0
-10817 144 0
10817 -10317 -144 0
-10818 10319 0
-10818 139 0
10818 -10319 -139 0
-10819 10321 0
-10819 134 0
10819 -10321 -134 0
-10820 10323 0
-10820 192 0
10820 -10323 -192 0
-10821 10325 0
-10821 192 0
10821 -10325 -192 0
-10822 10805 10806 0
-10822 -10805 -10806 0
10822 -10805 10806 0
10822 10805 -10806 0
-10823 10822 10807 0
-10823 -10822 -10807 0
10823 -10822 10807 0
10823 10822 -10807 0
-10824 10823 10808 0
-10824 -10823 -10808 0
10824 -10823 10808 0
10824 10823 -10808 0
-10825 10824 10809 0
-10825 -10824 -10809 0
10825 -10824 10809 0
10825 10824 -10809 0
-10826 10825 10810 0
-10826 -10825 -10810 0
10826 -10825 10810 0
10826 10825 -10810 0
-10827 10826 10811 0
-10827 -10826 -10811 0
10827 -10826 10811 0
10827 10826 -10811 0
-10828 10827 10812 0
-10828 -10827 -10812 0
10828 -10827 10812 0
10828 10827 -10812 0
-10829 10828 10813 0
-10829 -10828 -10813 0
10829 -10828 10813 0
10829 10828 -10813 0
-10830 10829 10814 0
-10830 -10829 -10814 0
10830 -10829 10814 0
10830 10829 -10814 0
-10831 10830 10815 0
-10831 -10830 -10815 0
10831 -10830 10815 0
10831 10830 -10815 0
-10832 10831 10816 0
-10832 -10831 -10816 0
10832 -10831 10816 0
10832 10831 -10816 0
-10833 10832 10817 0
-10833 -10832 -10817 0
10833 -10832 10817 0
10833 10832 -10817 0
-10834 10833 10818 0
-10834 -10833 -10818 0
10834 -10833 10818 0
10834 10833 -10818 0
-10835 10834 10819 0
-10835 -10834 -10819 0
10835 -10834 10819 0
10835 10834 -10819 0
-10836 10835 10820 0
-10836 -10835 -10820 0
10836 -10835 10820 0
10836 10835 -10820 0
-10837 10836 10821 0
-10837 -10836 -10821 0
10837 -10836 10821 0
10837 10836 -10821 0
-10837 0
-10838 7 0
-10838 19 0
10838 -7 -19 0
-10839 10838 0
-10839 33 0
10839 -10838 -33 0
-10840 7 0
-10840 24 0
10840 -7 -24 0
-10841 10840 0
-10841 33 0
10841 -10840 -33 0
-10842 9 0
-10842 24 0
10842 -9 -24 0
-10843 10842 0
-10843 33 0
10843 -10842 -33 0
-10844 26 0
-10844 9 0
10844 -26 -9 0
-10845 10844 0
-10845 33 0
10845 -10844 -33 0
-10846 26 0
-10846 14 0
10846 -26 -14 0
-10847 10846 0
-10847 33 0
10847 -10846 -33 0
-10848 19 0
-10848 14 0
10848 -19 -14 0
-10849 10848 0
-10849 33 0
10849 -10848 -33 0
-10850 55 0
-10850 67 0
10850 -55 -67 0
-10851 10850 0
-10851 81 0
10851 -10850 -81 0
-10852 55 0
-10852 72 0
10852 -55 -72 0
-10853 10852 0
-10853 81 0
10853 -10852 -81 0
-10854 57 0
-10854 72 0
10854 -57 -72 0
-10855 10854 0
-10855 81 0
10855 -10854 -81 0
-10856 74 0
-10856 57 0
10856 -74 -57 0
-10857 10856 0
-10857 81 0
10857 -10856 -81 0
-10858 74 0
-10858 62 0
10858 -74 -62 0
-10859 10858 0
-10859 81 0
10859 -10858 -81 0
-10860 67 0
-10860 62 0
10860 -67 -62 0
-10861 10860 0
-10861 81 0
10861 -10860 -81 0
-10862 103 0
-10862 115 0
10862 -103 -115 0
-10863 10862 0
-10863 129 0
10863 -10862 -129 0
-10864 103 0
-10864 120 0
10864 -103 -120 0
-10865 10864 0
-10865 129 0
10865 -10864 -129 0
-10866 105 0
-10866 120 0
10866 -105 -120 0
-10867 10866 0
-10867 129 0
10867 -10866 -129 0
-10868 151 0
-10868 163 0
10868 -151 -163 0
-10869 10868 0
-10869 177 0
10869 -10868 -177 0
-10870 170 0
-10870 153 0
10870 -170 -153 0
-10871 10870 0
-10871 177 0
10871 -10870 -177 0
-10872 10839 10841 0
-10872 -10839 -10841 0
10872 -10839 10841 0
10872 10839 -10841 0
-10873 10872 10843 0
-10873 -10872 -10843 0
10873 -10872 10843 0
10873 10872 -10843 0
-10874 10873 10845 0
-10874 -10873 -10845 0
10874 -10873 10845 0
10874 10873 -10845 0
-10875 10874 10847 0
-10875 -10874 -10847 0
10875 -10874 10847 0
10875 10874 -10847 0
-10876 10875 10849 0
-10876 -10875 -10849 0
10876 -10875 10849 0
10876 10875 -10849 0
-10877 10876 10851 0
-10877 -10876 -10851 0
10877 -10876 10851 0
10877 10876 -10851 0
-10878 10877 10853 0
-10878 -10877 -10853 0
10878 -10877 10853 0
10878 10877 -10853 0
-10879 10878 10855 0
-10879 -10878 -10855 0
10879 -10878 10855 0
10879 10878 -10855 0
-10880 10879 10857 0
-10880 -10879 -10857 0
10880 -10879 10857 0
10880 10879 -10857 0
-10881 10880 10859 0
-10881 -10880 -10859 0
10881 -10880 10859 0
10881 10880 -10859 0
-10882 10881 10861 0
-10882 -10881 -10861 0
10882 -10881 10861 0
10882 10881 -10861 0
-10883 10882 10863 0
-10883 -10882 -10863 0
10883 -10882 10863 0
10883 10882 -10863 0
-10884 10883 10865 0
-10884 -10883 -10865 0
10884 -10883 10865 0
10884 10883 -10865 0
-10885 10884 10867 0
-10885 -10884 -10867 0
10885 -10884 10867 0
10885 10884 -10867 0
-10886 10885 10869 0
-10886 -10885 -10869 0
10886 -10885 10869 0
10886 10885 -10869 0
-10887 10886 10871 0
-10887 -10886 -10871 0
10887 -10886 10871 0
10887 10886 -10871 0
-10887 0
-10888 10838 0
-10888 34 0
10888 -10838 -34 0
-10889 10840 0
-10889 34 0
10889 -10840 -34 0
-10890 10842 0
-10890 35 0
10890 -10842 -35 0
-10891 10844 0
-10891 37 0
10891 -10844 -37 0
-10892 10846 0
-10892 37 0
10892 -10846 -37 0
-10893 10848 0
-10893 41 0
10893 -10848 -41 0
-10894 10850 0
-10894 82 0
10894 -10850 -82 0
-10895 10852 0
-10895 82 0
10895 -10852 -82 0
-10896 10854 0
-10896 83 0
10896 -10854 -83 0
-10897 10856 0
-10897 85 0
10897 -10856 -85 0
-10898 10858 0
-10898 85 0
10898 -10858 -85 0
-10899 10860 0
-10899 89 0
10899 -10860 -89 0
-10900 10862 0
-10900 130 0
10900 -10862 -130 0
-10901 10864 0
-10901 130 0
10901 -10864 -130 0
-10902 10866 0
-10902 131 0
10902 -10866 -131 0
-10903 10868 0
-10903 178 0
10903 -10868 -178 0
-10904 10870 0
-10904 181 0
10904 -10870 -181 0
-10905 10888 10889 0
-10905 -10888 -10889 0
10905 -10888 10889 0
10905 10888 -10889 0
-10906 10905 10890 0
-10906 -10905 -10890 0
10906 -10905 10890 0
10906 10905 -10890 0
-10907 10906 10891 0
-10907 -10906 -10891 0
10907 -10906 10891 0
10907 10906 -10891 0
-10908 10907 10892 0
-10908 -10907 -10892 0
10908 -10907 10892 0
10908 10907 -10892 0
-10909 10908 10893 0
-10909 -10908 -10893 0
10909 -10908 10893 0
10909 10908 -10893 0
-10910 10909 10894 0
-10910 -10909 -10894 0
10910 -10909 10894 0
10910 10909 -10894 0
-10911 10910 10895 0
-10911 -10910 -10895 0
10911 -10910 10895 0
10911 10910 -10895 0
-10912 10911 10896 0
-10912 -10911 -10896 0
10912 -10911 10896 0
10912 10911 -10896 0
-10913 10912 10897 0
-10913 -10912 -10897 0
10913 -10912 10897 0
10913 10912 -10897 0
-10914 10913 10898 0
-10914 -10913 -10898 0
10914 -10913 10898 0
10914 10913 -10898 0
-10915 10914 10899 0
-10915 -10914 -10899 0
10915 -10914 10899 0
10915 10914 -10899 0
-10916 10915 10900 0
-10916 -10915 -10900 0
10916 -10915 10900 0
10916 10915 -10900 0
-10917 10916 10901 0
-10917 -10916 -10901 0
10917 -10916 10901 0
10917 10916 -10901 0
-10918 10917 10902 0
-10918 -10917 -10902 0
10918 -10917 10902 0
10918 10917 -10902 0
-10919 10918 10903 0
-10919 -10918 -10903 0
10919 -10918 10903 0
10919 10918 -10903 0
-10920 10919 10904 0
-10920 -10919 -10904 0
10920 -10919 10904 0
10920 10919 -10904 0
10920 0
-10921 10838 0
-10921 35 0
10921 -10838 -35 0
-10922 10840 0
-10922 36 0
10922 -10840 -36 0
-10923 10842 0
-10923 36 0
10923 -10842 -36 0
-10924 10844 0
-10924 41 0
10924 -10844 -41 0
-10925 10846 0
-10925 45 0
10925 -10846 -45 0
-10926 10848 0
-10926 45 0
10926 -10848 -45 0
-10927 10850 0
-10927 83 0
10927 -10850 -83 0
-10928 10852 0
-10928 84 0
10928 -10852 -84 0
-10929 10854 0
-10929 84 0
10929 -10854 -84 0
-10930 10856 0
-10930 89 0
10930 -10856 -89 0
-10931 10858 0
-10931 93 0
10931 -10858 -93 0
-10932 10860 0
-10932 93 0
10932 -10860 -93 0
-10933 10862 0
-10933 131 0
10933 -10862 -131 0
-10934 10864 0
-10934 132 0
10934 -10864 -132 0
-10935 10866 0
-10935 132 0
10935 -10866 -132 0
-10936 10868 0
-10936 179 0
10936 -10868 -179 0
-10937 10870 0
-10937 185 0
10937 -10870 -185 0
-10938 10921 10922 0
-10938 -10921 -10922 0
10938 -10921 10922 0
10938 10921 -10922 0
-10939 10938 10923 0
-10939 -10938 -10923 0
10939 -10938 10923 0
10939 10938 -10923 0
-10940 10939 10924 0
-10940 -10939 -10924 0
10940 -10939 10924 0
10940 10939 -10924 0
-10941 10940 10925 0
-10941 -10940 -10925 0
10941 -10940 10925 0
10941 10940 -10925 0
-10942 10941 10926 0
-10942 -10941 -10926 0
10942 -10941 10926 0
10942 10941 -10926 0
-10943 10942 10927 0
-10943 -10942 -10927 0
10943 -10942 10927 0
10943 10942 -10927 0
-10944 10943 10928 0
-10944 -10943 -10928 0
10944 -10943 10928 0
10944 10943 -10928 0
-10945 10944 10929 0
-10945 -10944 -10929 0
10945 -10944 10929 0
10945 10944 -10929 0
-10946 10945 10930 0
-10946 -10945 -10930 0
10946 -10945 10930 0
10946 10945 -10930 0
-10947 10946 10931 0
-10947 -10946 -10931 0
10947 -10946 10931 0
10947 10946 -10931 0
-10948 10947 10932 0
-10948 -10947 -10932 0
10948 -10947 10932 0
10948 10947 -10932 0
-10949 10948 10933 0
-10949 -10948 -10933 0
10949 -10948 10933 0
10949 10948 -10933 0
-10950 10949 10934 0
-10950 -10949 -10934 0
10950 -10949 10934 0
10950 10949 -10934 0
-10951 10950 10935 0
-10951 -10950 -10935 0
10951 -10950 10935 0
10951 10950 -10935 0
-10952 10951 10936 0
-10952 -10951 -10936 0
10952 -10951 10936 0
10952 10951 -10936 0
-10953 10952 10937 0
-10953 -10952 -10937 0
10953 -10952 10937 0
10953 10952 -10937 0
-10953 0
-10954 10838 0
-10954 36 0
10954 -10838 -36 0
-10955 10840 0
-10955 35 0
10955 -10840 -35 0
-10956 10842 0
-10956 34 0
10956 -10842 -34 0
-10957 10844 0
-10957 45 0
10957 -10844 -45 0
-10958 10846 0
-10958 41 0
10958 -10846 -41 0
-10959 10848 0
-10959 37 0
10959 -10848 -37 0
-10960 10850 0
-10960 84 0
10960 -10850 -84 0
-10961 10852 0
-10961 83 0
10961 -10852 -83 0
-10962 10854 0
-10962 82 0
10962 -10854 -82 0
-10963 10856 0
-10963 93 0
10963 -10856 -93 0
-10964 10858 0
-10964 89 0
10964 -10858 -89 0
-10965 10860 0
-10965 85 0
10965 -10860 -85 0
-10966 10862 0
-10966 132 0
10966 -10862 -132 0
-10967 10864 0
-10967 131 0
10967 -10864 -131 0
-10968 10866 0
-10968 130 0
10968 -10866 -130 0
-10969 10868 0
-10969 180 0
10969 -10868 -180 0
-10970 10870 0
-10970 189 0
10970 -10870 -189 0
-10971 10954 10955 0
-10971 -10954 -10955 0
10971 -10954 10955 0
10971 10954 -10955 0
-10972 10971 10956 0
-10972 -10971 -10956 0
10972 -10971 10956 0
10972 10971 -10956 0
-10973 10972 10957 0
-10973 -10972 -10957 0
10973 -10972 10957 0
10973 10972 -10957 0
-10974 10973 10958 0
-10974 -10973 -10958 0
10974 -10973 10958 0
10974 10973 -10958 0
-10975 10974 10959 0
-10975 -10974 -10959 0
10975 -10974 10959 0
10975 10974 -10959 0
-10976 10975 10960 0
-10976 -10975 -10960 0
10976 -10975 10960 0
10976 10975 -10960 0
-10977 10976 10961 0
-10977 -10976 -10961 0
10977 -10976 10961 0
10977 10976 -10961 0
-10978 10977 10962 0
-10978 -10977 -10962 0
10978 -10977 10962 0
10978 10977 -10962 0
-10979 10978 10963 0
-10979 -10978 -10963 0
10979 -10978 10963 0
10979 10978 -10963 0
-10980 10979 10964 0
-10980 -10979 -10964 0
10980 -10979 10964 0
10980 10979 -10964 0
-10981 10980 10965 0
-10981 -10980 -10965 0
10981 -10980 10965 0
10981 10980 -10965 0
-10982 10981 10966 0
-10982 -10981 -10966 0
10982 -10981 10966 0
10982 10981 -10966 0
-10983 10982 10967 0
-10983 -10982 -10967 0
10983 -10982 10967 0
10983 10982 -10967 0
-10984 10983 10968 0
-10984 -10983 -10968 0
10984 -10983 10968 0
10984 10983 -10968 0
-10985 10984 10969 0
-10985 -10984 -10969 0
10985 -10984 10969 0
10985 10984 -10969 0
-10986 10985 10970 0
-10986 -10985 -10970 0
10986 -10985 10970 0
10986 10985 -10970 0
-10986 0
-10987 10838 0
-10987 38 0
10987 -10838 -38 0
-10988 10840 0
-10988 38 0
10988 -10840 -38 0
-10989 10842 0
-10989 43 0
10989 -10842 -43 0
-10990 10844 0
-10990 38 0
10990 -10844 -38 0
-10991 10846 0
-10991 38 0
10991 -10846 -38 0
-10992 10848 0
-10992 43 0
10992 -10848 -43 0
-10993 10850 0
-10993 86 0
10993 -10850 -86 0
-10994 10852 0
-10994 86 0
10994 -10852 -86 0
-10995 10854 0
-10995 91 0
10995 -10854 -91 0
-10996 10856 0
-10996 86 0
10996 -10856 -86 0
-10997 10858 0
-10997 86 0
10997 -10858 -86 0
-10998 10860 0
-10998 91 0
10998 -10860 -91 0
-10999 10862 0
-10999 134 0
10999 -10862 -134 0
-11000 10864 0
-11000 134 0
11000 -10864 -134 0
-11001 10866 0
-11001 139 0
11001 -10866 -139 0
-11002 10868 0
-11002 182 0
11002 -10868 -182 0
-11003 10870 0
-11003 182 0
11003 -10870 -182 0
-11004 10987 10988 0
-11004 -10987 -10988 0
11004 -10987 10988 0
11004 10987 -10988 0
-11005 11004 10989 0
-11005 -11004 -10989 0
11005 -11004 10989 0
11005 11004 -10989 0
-11006 11005 10990 0
-11006 -11005 -10990 0
11006 -11005 10990 0
11006 11005 -10990 0
-11007 11006 10991 0
-11007 -11006 -10991 0
11007 -11006 10991 0
11007 11006 -10991 0
-11008 11007 10992 0
-11008 -11007 -10992 0
11008 -11007 10992 0
11008 11007 -10992 0
-11009 11008 10993 0
-11009 -11008 -10993 0
11009 -11008 10993 0
11009 11008 -10993 0
-11010 11009 10994 0
-11010 -11009 -10994 0
11010 -11009 10994 0
11010 11009 -10994 0
-11011 11010 10995 0
-11011 -11010 -10995 0
11011 -11010 10995 0
11011 11010 -10995 0
-11012 11011 10996 0
-11012 -11011 -10996 0
11012 -11011 10996 0
11012 11011 -10996 0
-11013 11012 10997 0
-11013 -11012 -10997 0
11013 -11012 10997 0
11013 11012 -10997 0
-11014 11013 10998 0
-11014 -11013 -10998 0
11014 -11013 10998 0
11014 11013 -10998 0
-11015 11014 10999 0
-11015 -11014 -10999 0
11015 -11014 10999 0
11015 11014 -10999 0
-11016 11015 11000 0
-11016 -11015 -11000 0
11016 -11015 11000 0
11016 11015 -11000 0
-11017 11016 11001 0
-11017 -11016 -11001 0
11017 -11016 11001 0
11017 11016 -11001 0
-11018 11017 11002 0
-11018 -11017 -11002 0
11018 -11017 11002 0
11018 11017 -11002 0
-11019 11018 11003 0
-11019 -11018 -11003 0
11019 -11018 11003 0
11019 11018 -11003 0
-11019 0
-11020 10838 0
-11020 39 0
11020 -10838 -39 0
-11021 10840 0
-11021 40 0
11021 -10840 -40 0
-11022 10842 0
-11022 44 0
11022 -10842 -44 0
-11023 10844 0
-11023 42 0
11023 -10844 -42 0
-11024 10846 0
-11024 46 0
11024 -10846 -46 0
-11025 10848 0
-11025 47 0
11025 -10848 -47 0
-11026 10850 0
-11026 87 0
11026 -10850 -87 0
-11027 10852 0
-11027 88 0
11027 -10852 -88 0
-11028 10854 0
-11028 92 0
11028 -10854 -92 0
-11029 10856 0
-11029 90 0
11029 -10856 -90 0
-11030 10858 0
-11030 94 0
11030 -10858 -94 0
-11031 10860 0
-11031 95 0
11031 -10860 -95 0
-11032 10862 0
-11032 135 0
11032 -10862 -135 0
-11033 10864 0
-11033 136 0
11033 -10864 -136 0
-11034 10866 0
-11034 140 0
11034 -10866 -140 0
-11035 10868 0
-11035 183 0
11035 -10868 -183 0
-11036 10870 0
-11036 186 0
11036 -10870 -186 0
-11037 11020 11021 0
-11037 -11020 -11021 0
11037 -11020 11021 0
11037 11020 -11021 0
-11038 11037 11022 0
-11038 -11037 -11022 0
11038 -11037 11022 0
11038 11037 -11022 0
-11039 11038 11023 0
-11039 -11038 -11023 0
11039 -11038 11023 0
11039 11038 -11023 0
-11040 11039 11024 0
-11040 -11039 -11024 0
11040 -11039 11024 0
11040 11039 -11024 0
-11041 11040 11025 0
-11041 -11040 -11025 0
11041 -11040 11025 0
11041 11040 -11025 0
-11042 11041 11026 0
-11042 -11041 -11026 0
11042 -11041 11026 0
11042 11041 -11026 0
-11043 11042 11027 0
-11043 -11042 -11027 0
11043 -11042 11027 0
11043 11042 -11027 0
-11044 11043 11028 0
-11044 -11043 -11028 0
11044 -11043 11028 0
11044 11043 -11028 0
-11045 11044 11029 0
-11045 -11044 -11029 0
11045 -11044 11029 0
11045 11044 -11029 0
-11046 11045 11030 0
-11046 -11045 -11030 0
11046 -11045 11030 0
11046 11045 -11030 0
-11047 11046 11031 0
-11047 -11046 -11031 0
11047 -11046 11031 0
11047 11046 -11031 0
-11048 11047 11032 0
-11048 -11047 -11032 0
11048 -11047 11032 0
11048 11047 -11032 0
-11049 11048 11033 0
-11049 -11048 -11033 0
11049 -11048 11033 0
11049 11048 -11033 0
-11050 11049 11034 0
-11050 -11049 -11034 0
11050 -11049 11034 0
11050 11049 -11034 0
-11051 11050 11035 0
-11051 -11050 -11035 0
11051 -11050 11035 0
11051 11050 -11035 0
-11052 11051 11036 0
-11052 -11051 -11036 0
11052 -11051 11036 0
11052 11051 -11036 0
-11052 0
-11053 10838 0
-11053 40 0
11053 -10838 -40 0
-11054 10840 0
-11054 39 0
11054 -10840 -39 0
-11055 10842 0
-11055 42 0
11055 -10842 -42 0
-11056 10844 0
-11056 46 0
11056 -10844 -46 0
-11057 10846 0
-11057 42 0
11057 -10846 -42 0
-11058 10848 0
-11058 39 0
11058 -10848 -39 0
-11059 10850 0
-11059 88 0
11059 -10850 -88 0
-11060 10852 0
-11060 87 0
11060 -10852 -87 0
-11061 10854 0
-11061 90 0
11061 -10854 -90 0
-11062 10856 0
-11062 94 0
11062 -10856 -94 0
-11063 10858 0
-11063 90 0
11063 -10858 -90 0
-11064 10860 0
-11064 87 0
11064 -10860 -87 0
-11065 10862 0
-11065 136 0
11065 -10862 -136 0
-11066 10864 0
-11066 135 0
11066 -10864 -135 0
-11067 10866 0
-11067 138 0
11067 -10866 -138 0
-11068 10868 0
-11068 184 0
11068 -10868 -184 0
-11069 10870 0
-11069 190 0
11069 -10870 -190 0
-11070 11053 11054 0
-11070 -11053 -11054 0
11070 -11053 11054 0
11070 11053 -11054 0
-11071 11070 11055 0
-11071 -11070 -11055 0
11071 -11070 11055 0
11071 11070 -11055 0
-11072 11071 11056 0
-11072 -11071 -11056 0
11072 -11071 11056 0
11072 11071 -11056 0
-11073 11072 11057 0
-11073 -11072 -11057 0
11073 -11072 11057 0
11073 11072 -11057 0
-11074 11073 11058 0
-11074 -11073 -11058 0
11074 -11073 11058 0
11074 11073 -11058 0
-11075 11074 11059 0
-11075 -11074 -11059 0
11075 -11074 11059 0
11075 11074 -11059 0
-11076 11075 11060 0
-11076 -11075 -11060 0
11076 -11075 11060 0
11076 11075 -11060 0
-11077 11076 11061 0
-11077 -11076 -11061 0
11077 -11076 11061 0
11077 11076 -11061 0
-11078 11077 11062 0
-11078 -11077 -11062 0
11078 -11077 11062 0
11078 11077 -11062 0
-11079 11078 11063 0
-11079 -11078 -11063 0
11079 -11078 11063 0
11079 11078 -11063 0
-11080 11079 11064 0
-11080 -11079 -11064 0
11080 -11079 11064 0
11080 11079 -11064 0
-11081 11080 11065 0
-11081 -11080 -11065 0
11081 -11080 11065 0
11081 11080 -11065 0
-11082 11081 11066 0
-11082 -11081 -11066 0
11082 -11081 11066 0
11082 11081 -11066 0
-11083 11082 11067 0
-11083 -11082 -11067 0
11083 -11082 11067 0
11083 11082 -11067 0
-11084 11083 11068 0
-11084 -11083 -11068 0
11084 -11083 11068 0
11084 11083 -11068 0
-11085 11084 11069 0
-11085 -11084 -11069 0
11085 -11084 11069 0
11085 11084 -11069 0
-11085 0
-11086 10838 0
-11086 42 0
11086 -10838 -42 0
-11087 10840 0
-11087 46 0
11087 -10840 -46 0
-11088 10842 0
-11088 47 0
11088 -10842 -47 0
-11089 10844 0
-11089 39 0
11089 -10844 -39 0
-11090 10846 0
-11090 40 0
11090 -10846 -40 0
-11091 10848 0
-11091 44 0
11091 -10848 -44 0
-11092 10850 0
-11092 90 0
11092 -10850 -90 0
-11093 10852 0
-11093 94 0
11093 -10852 -94 0
-11094 10854 0
-11094 95 0
11094 -10854 -95 0
-11095 10856 0
-11095 87 0
11095 -10856 -87 0
-11096 10858 0
-11096 88 0
11096 -10858 -88 0
-11097 10860 0
-11097 92 0
11097 -10860 -92 0
-11098 10862 0
-11098 138 0
11098 -10862 -138 0
-11099 10864 0
-11099 142 0
11099 -10864 -142 0
-11100 10866 0
-11100 143 0
11100 -10866 -143 0
-11101 10868 0
-11101 186 0
11101 -10868 -186 0
-11102 10870 0
-11102 183 0
11102 -10870 -183 0
-11103 11086 11087 0
-11103 -11086 -11087 0
11103 -11086 11087 0
11103 11086 -11087 0
-11104 11103 11088 0
-11104 -11103 -11088 0
11104 -11103 11088 0
11104 11103 -11088 0
-11105 11104 11089 0
-11105 -11104 -11089 0
11105 -11104 11089 0
11105 11104 -11089 0
-11106 11105 11090 0
-11106 -11105 -11090 0
11106 -11105 11090 0
11106 11105 -11090 0
-11107 11106 11091 0
-11107 -11106 -11091 0
11107 -11106 11091 0
11107 11106 -11091 0
-11108 11107 11092 0
-11108 -11107 -11092 0
11108 -11107 11092 0
11108 11107 -11092 0
-11109 11108 11093 0
-11109 -11108 -11093 0
11109 -11108 11093 0
11109 11108 -11093 0
-11110 11109 11094 0
-11110 -11109 -11094 0
11110 -11109 11094 0
11110 11109 -11094 0
-11111 11110 11095 0
-11111 -11110 -11095 0
11111 -11110 11095 0
11111 11110 -11095 0
-11112 11111 11096 0
-11112 -11111 -11096 0
11112 -11111 11096 0
11112 11111 -11096 0
-11113 11112 11097 0
-11113 -11112 -11097 0
11113 -11112 11097 0
11113 11112 -11097 0
-11114 11113 11098 0
-11114 -11113 -11098 0
11114 -11113 11098 0
11114 11113 -11098 0
-11115 11114 11099 0
-11115 -11114 -11099 0
11115 -11114 11099 0
11115 11114 -11099 0
-11116 11115 11100 0
-11116 -11115 -11100 0
11116 -11115 11100 0
11116 11115 -11100 0
-11117 11116 11101 0
-11117 -11116 -11101 0
11117 -11116 11101 0
11117 11116 -11101 0
-11118 11117 11102 0
-11118 -11117 -11102 0
11118 -11117 11102 0
11118 11117 -11102 0
-11118 0
-11119 10838 0
-11119 44 0
11119 -10838 -44 0
-11120 10840 0
-11120 47 0
11120 -10840 -47 0
-11121 10842 0
-11121 46 0
11121 -10842 -46 0
-11122 10844 0
-11122 47 0
11122 -10844 -47 0
-11123 10846 0
-11123 44 0
11123 -10846 -44 0
-11124 10848 0
-11124 40 0
11124 -10848 -40 0
-11125 10850 0
-11125 92 0
11125 -10850 -92 0
-11126 10852 0
-11126 95 0
11126 -10852 -95 0
-11127 10854 0
-11127 94 0
11127 -10854 -94 0
-11128 10856 0
-11128 95 0
11128 -10856 -95 0
-11129 10858 0
-11129 92 0
11129 -10858 -92 0
-11130 10860 0
-11130 88 0
11130 -10860 -88 0
-11131 10862 0
-11131 140 0
11131 -10862 -140 0
-11132 10864 0
-11132 143 0
11132 -10864 -143 0
-11133 10866 0
-11133 142 0
11133 -10866 -142 0
-11134 10868 0
-11134 188 0
11134 -10868 -188 0
-11135 10870 0
-11135 191 0
11135 -10870 -191 0
-11136 11119 11120 0
-11136 -11119 -11120 0
11136 -11119 11120 0
11136 11119 -11120 0
-11137 11136 11121 0
-11137 -11136 -11121 0
11137 -11136 11121 0
11137 11136 -11121 0
-11138 11137 11122 0
-11138 -11137 -11122 0
11138 -11137 11122 0
11138 11137 -11122 0
-11139 11138 11123 0
-11139 -11138 -11123 0
11139 -11138 11123 0
11139 11138 -11123 0
-11140 11139 11124 0
-11140 -11139 -11124 0
11140 -11139 11124 0
11140 11139 -11124 0
-11141 11140 11125 0
-11141 -11140 -11125 0
11141 -11140 11125 0
11141 11140 -11125 0
-11142 11141 11126 0
-11142 -11141 -11126 0
11142 -11141 11126 0
11142 11141 -11126 0
-11143 11142 11127 0
-11143 -11142 -11127 0
11143 -11142 11127 0
11143 11142 -11127 0
-11144 11143 11128 0
-11144 -11143 -11128 0
11144 -11143 11128 0
11144 11143 -11128 0
-11145 11144 11129 0
-11145 -11144 -11129 0
11145 -11144 11129 0
11145 11144 -11129 0
-11146 11145 11130 0
-11146 -11145 -11130 0
11146 -11145 11130 0
11146 11145 -11130 0
-11147 11146 11131 0
-11147 -11146 -11131 0
11147 -11146 11131 0
11147 11146 -11131 0
-11148 11147 11132 0
-11148 -11147 -11132 0
11148 -11147 11132 0
11148 11147 -11132 0
-11149 11148 11133 0
-11149 -11148 -11133 0
11149 -11148 11133 0
11149 11148 -11133 0
-11150 11149 11134 0
-11150 -11149 -11134 0
11150 -11149 11134 0
11150 11149 -11134 0
-11151 11150 11135 0
-11151 -11150 -11135 0
11151 -11150 11135 0
11151 11150 -11135 0
-11151 0
-11152 10838 0
-11152 48 0
11152 -10838 -48 0
-11153 10840 0
-11153 43 0
11153 -10840 -43 0
-11154 10842 0
-11154 38 0
11154 -10842 -38 0
-11155 10844 0
-11155 48 0
11155 -10844 -48 0
-11156 10846 0
-11156 43 0
11156 -10846 -43 0
-11157 10848 0
-11157 38 0
11157 -10848 -38 0
-11158 10850 0
-11158 96 0
11158 -10850 -96 0
-11159 10852 0
-11159 91 0
11159 -10852 -91 0
-11160 10854 0
-11160 86 0
11160 -10854 -86 0
-11161 10856 0
-11161 96 0
11161 -10856 -96 0
-11162 10858 0
-11162 91 0
11162 -10858 -91 0
-11163 10860 0
-11163 86 0
11163 -10860 -86 0
-11164 10862 0
-11164 144 0
11164 -10862 -144 0
-11165 10864 0
-11165 139 0
11165 -10864 -139 0
-11166 10866 0
-11166 134 0
11166 -10866 -134 0
-11167 10868 0
-11167 192 0
11167 -10868 -192 0
-11168 10870 0
-11168 192 0
11168 -10870 -192 0
-11169 11152 11153 0
-11169 -11152 -11153 0
11169 -11152 11153 0
11169 11152 -11153 0
-11170 11169 11154 0
-11170 -11169 -11154 0
11170 -11169 11154 0
11170 11169 -11154 0
-11171 11170 11155 0
-11171 -11170 -11155 0
11171 -11170 11155 0
11171 11170 -11155 0
-11172 11171 11156 0
-11172 -11171 -11156 0
11172 -11171 11156 0
11172 11171 -11156 0
-11173 11172 11157 0
-11173 -11172 -11157 0
11173 -11172 11157 0
11173 11172 -11157 0
-11174 11173 11158 0
-11174 -11173 -11158 0
11174 -11173 11158 0
11174 11173 -11158 0
-11175 11174 11159 0
-11175 -11174 -11159 0
11175 -11174 11159 0
11175 11174 -11159 0
-11176 11175 11160 0
-11176 -11175 -11160 0
11176 -11175 11160 0
11176 11175 -11160 0
-11177 11176 11161 0
-11177 -11176 -11161 0
11177 -11176 11161 0
11177 11176 -11161 0
-11178 11177 11162 0
-11178 -11177 -11162 0
11178 -11177 11162 0
11178 11177 -11162 0
-11179 11178 11163 0
-11179 -11178 -11163 0
11179 -11178 11163 0
11179 11178 -11163 0
-11180 11179 11164 0
-11180 -11179 -11164 0
11180 -11179 11164 0
11180 11179 -11164 0
-11181 11180 11165 0
-11181 -11180 -11165 0
11181 -11180 11165 0
11181 11180 -11165 0
-11182 11181 11166 0
-11182 -11181 -11166 0
11182 -11181 11166 0
11182 11181 -11166 0
-11183 11182 11167 0
-11183 -11182 -11167 0
11183 -11182 11167 0
11183 11182 -11167 0
-11184 11183 11168 0
-11184 -11183 -11168 0
11184 -11183 11168 0
11184 11183 -11168 0
-11184 0
-11185 7 0
-11185 26 0
11185 -7 -26 0
-11186 11185 0
-11186 33 0
11186 -11185 -33 0
-11187 9 0
-11187 19 0
11187 -9 -19 0
-11188 11187 0
-11188 33 0
11188 -11187 -33 0
-11189 55 0
-11189 74 0
11189 -55 -74 0
-11190 11189 0
-11190 81 0
11190 -11189 -81 0
-11191 57 0
-11191 67 0
11191 -57 -67 0
-11192 11191 0
-11192 81 0
11192 -11191 -81 0
-11193 103 0
-11193 122 0
11193 -103 -122 0
-11194 11193 0
-11194 129 0
11194 -11193 -129 0
-11195 105 0
-11195 115 0
11195 -105 -115 0
-11196 11195 0
-11196 129 0
11196 -11195 -129 0
-11197 151 0
-11197 170 0
11197 -151 -170 0
-11198 11197 0
-11198 177 0
11198 -11197 -177 0
-11199 11186 11186 0
-11199 -11186 -11186 0
11199 -11186 11186 0
11199 11186 -11186 0
-11200 11199 11188 0
-11200 -11199 -11188 0
11200 -11199 11188 0
11200 11199 -11188 0
-11201 11200 11186 0
-11201 -11200 -11186 0
11201 -11200 11186 0
11201 11200 -11186 0
-11202 11201 11186 0
-11202 -11201 -11186 0
11202 -11201 11186 0
11202 11201 -11186 0
-11203 11202 11188 0
-11203 -11202 -11188 0
11203 -11202 11188 0
11203 11202 -11188 0
-11204 11203 11190 0
-11204 -11203 -11190 0
11204 -11203 11190 0
11204 11203 -11190 0
-11205 11204 11190 0
-11205 -11204 -11190 0
11205 -11204 11190 0
11205 11204 -11190 0
-11206 11205 11192 0
-11206 -11205 -11192 0
11206 -11205 11192 0
11206 11205 -11192 0
-11207 11206 11190 0
-11207 -11206 -11190 0
11207 -11206 11190 0
11207 11206 -11190 0
-11208 11207 11190 0
-11208 -11207 -11190 0
11208 -11207 11190 0
11208 11207 -11190 0
-11209 11208 11192 0
-11209 -11208 -11192 0
11209 -11208 11192 0
11209 11208 -11192 0
-11210 11209 11194 0
-11210 -11209 -11194 0
11210 -11209 11194 0
11210 11209 -11194 0
-11211 11210 11194 0
-11211 -11210 -11194 0
11211 -11210 11194 0
11211 11210 -11194 0
-11212 11211 11196 0
-11212 -11211 -11196 0
11212 -11211 11196 0
11212 11211 -11196 0
-11213 11212 11198 0
-11213 -11212 -11198 0
11213 -11212 11198 0
11213 11212 -11198 0
-11214 11213 11198 0
-11214 -11213 -11198 0
11214 -11213 11198 0
11214 11213 -11198 0
-11214 0
-11215 11185 0
-11215 34 0
11215 -11185 -34 0
-11216 11187 0
-11216 35 0
11216 -11187 -35 0
-11217 11185 0
-11217 37 0
11217 -11185 -37 0
-11218 11187 0
-11218 41 0
11218 -11187 -41 0
-11219 11189 0
-11219 82 0
11219 -11189 -82 0
-11220 11191 0
-11220 83 0
11220 -11191 -83 0
-11221 11189 0
-11221 85 0
11221 -11189 -85 0
-11222 11191 0
-11222 89 0
11222 -11191 -89 0
-11223 11193 0
-11223 130 0
11223 -11193 -130 0
-11224 11195 0
-11224 131 0
11224 -11195 -131 0
-11225 11197 0
-11225 178 0
11225 -11197 -178 0
-11226 11197 0
-11226 181 0
11226 -11197 -181 0
-11227 11215 11215 0
-11227 -11215 -11215 0
11227 -11215 11215 0
11227 11215 -11215 0
-11228 11227 11216 0
-11228 -11227 -11216 0
11228 -11227 11216 0
11228 11227 -11216 0
-11229 11228 11217 0
-11229 -11228 -11217 0
11229 -11228 11217 0
11229 11228 -11217 0
-11230 11229 11217 0
-11230 -11229 -11217 0
11230 -11229 11217 0
11230 11229 -11217 0
-11231 11230 11218 0
-11231 -11230 -11218 0
11231 -11230 11218 0
11231 11230 -11218 0
-11232 11231 11219 0
-11232 -11231 -11219 0
11232 -11231 11219 0
11232 11231 -11219 0
-11233 11232 11219 0
-11233 -11232 -11219 0
11233 -11232 11219 0
11233 11232 -11219 0
-11234 11233 11220 0
-11234 -11233 -11220 0
11234 -11233 11220 0
11234 11233 -11220 0
-11235 11234 11221 0
-11235 -11234 -11221 0
11235 -11234 11221 0
11235 11234 -11221 0
-11236 11235 11221 0
-11236 -11235 -11221 0
11236 -11235 11221 0
11236 11235 -11221 0
-11237 11236 11222 0
-11237 -11236 -11222 0
11237 -11236 11222 0
11237 11236 -11222 0
-11238 11237 11223 0
-11238 -11237 -11223 0
11238 -11237 11223 0
11238 11237 -11223 0
-11239 11238 11223 0
-11239 -11238 -11223 0
11239 -11238 11223 0
11239 11238 -11223 0
-11240 11239 11224 0
-11240 -11239 -11224 0
11240 -11239 11224 0
11240 11239 -11224 0
-11241 11240 11225 0
-11241 -11240 -11225 0
11241 -11240 11225 0
11241 11240 -11225 0
-11242 11241 11226 0
-11242 -11241 -11226 0
11242 -11241 11226 0
11242 11241 -11226 0
-11242 0
-11243 11185 0
-11243 35 0
11243 -11185 -35 0
-11244 11185 0
-11244 36 0
11244 -11185 -36 0
-11245 11187 0
-11245 36 0
11245 -11187 -36 0
-11246 11185 0
-11246 41 0
11246 -11185 -41 0
-11247 11185 0
-11247 45 0
11247 -11185 -45 0
-11248 11187 0
-11248 45 0
11248 -11187 -45 0
-11249 11189 0
-11249 83 0
11249 -11189 -83 0
-11250 11189 0
-11250 84 0
11250 -11189 -84 0
-11251 11191 0
-11251 84 0
11251 -11191 -84 0
-11252 11189 0
-11252 89 0
11252 -11189 -89 0
-11253 11189 0
-11253 93 0
11253 -11189 -93 0
-11254 11191 0
-11254 93 0
11254 -11191 -93 0
-11255 11193 0
-11255 131 0
11255 -11193 -131 0
-11256 11193 0
-11256 132 0
11256 -11193 -132 0
-11257 11195 0
-11257 132 0
11257 -11195 -132 0
-11258 11197 0
-11258 179 0
11258 -11197 -179 0
-11259 11197 0
-11259 185 0
11259 -11197 -185 0
-11260 11243 11244 0
-11260 -11243 -11244 0
11260 -11243 11244 0
11260 11243 -11244 0
-11261 11260 11245 0
-11261 -11260 -11245 0
11261 -11260 11245 0
11261 11260 -11245 0
-11262 11261 11246 0
-11262 -11261 -11246 0
11262 -11261 11246 0
11262 11261 -11246 0
-11263 11262 11247 0
-11263 -11262 -11247 0
11263 -11262 11247 0
11263 11262 -11247 0
-11264 11263 11248 0
-11264 -11263 -11248 0
11264 -11263 11248 0
11264 11263 -11248 0
-11265 11264 11249 0
-11265 -11264 -11249 0
11265 -11264 11249 0
11265 11264 -11249 0
-11266 11265 11250 0
-11266 -11265 -11250 0
11266 -11265 11250 0
11266 11265 -11250 0
-11267 11266 11251 0
-11267 -11266 -11251 0
11267 -11266 11251 0
11267 11266 -11251 0
-11268 11267 11252 0
-11268 -11267 -11252 0
11268 -11267 11252 0
11268 11267 -11252 0
-11269 11268 11253 0
-11269 -11268 -11253 0
11269 -11268 11253 0
11269 11268 -11253 0
-11270 11269 11254 0
-11270 -11269 -11254 0
11270 -11269 11254 0
11270 11269 -11254 0
-11271 11270 11255 0
-11271 -11270 -11255 0
11271 -11270 11255 0
11271 11270 -11255 0
-11272 11271 11256 0
-11272 -11271 -11256 0
11272 -11271 11256 0
11272 11271 -11256 0
-11273 11272 11257 0
-11273 -11272 -11257 0
11273 -11272 11257 0
11273 11272 -11257 0
-11274 11273 11258 0
-11274 -11273 -11258 0
11274 -11273 11258 0
11274 11273 -11258 0
-11275 11274 11259 0
-11275 -11274 -11259 0
11275 -11274 11259 0
11275 11274 -11259 0
-11275 0
-11276 11185 0
-11276 38 0
11276 -11185 -38 0
-11277 11187 0
-11277 43 0
11277 -11187 -43 0
-11278 11189 0
-11278 86 0
11278 -11189 -86 0
-11279 11191 0
-11279 91 0
11279 -11191 -91 0
-11280 11193 0
-11280 134 0
11280 -11193 -134 0
-11281 11195 0
-11281 139 0
11281 -11195 -139 0
-11282 11197 0
-11282 182 0
11282 -11197 -182 0
-11283 11276 11276 0
-11283 -11276 -11276 0
11283 -11276 11276 0
11283 11276 -11276 0
-11284 11283 11277 0
-11284 -11283 -11277 0
11284 -11283 11277 0
11284 11283 -11277 0
-11285 11284 11276 0
-11285 -11284 -11276 0
11285 -11284 11276 0
11285 11284 -11276 0
-11286 11285 11276 0
-11286 -11285 -11276 0
11286 -11285 11276 0
11286 11285 -11276 0
-11287 11286 11277 0
-11287 -11286 -11277 0
11287 -11286 11277 0
11287 11286 -11277 0
-11288 11287 11278 0
-11288 -11287 -11278 0
11288 -11287 11278 0
11288 11287 -11278 0
-11289 11288 11278 0
-11289 -11288 -11278 0
11289 -11288 11278 0
11289 11288 -11278 0
-11290 11289 11279 0
-11290 -11289 -11279 0
11290 -11289 11279 0
11290 11289 -11279 0
-11291 11290 11278 0
-11291 -11290 -11278 0
11291 -11290 11278 0
11291 11290 -11278 0
-11292 11291 11278 0
-11292 -11291 -11278 0
11292 -11291 11278 0
11292 11291 -11278 0
-11293 11292 11279 0
-11293 -11292 -11279 0
11293 -11292 11279 0
11293 11292 -11279 0
-11294 11293 11280 0
-11294 -11293 -11280 0
11294 -11293 11280 0
11294 11293 -11280 0
-11295 11294 11280 0
-11295 -11294 -11280 0
11295 -11294 11280 0
11295 11294 -11280 0
-11296 11295 11281 0
-11296 -11295 -11281 0
11296 -11295 11281 0
11296 11295 -11281 0
-11297 11296 11282 0
-11297 -11296 -11282 0
11297 -11296 11282 0
11297 11296 -11282 0
-11298 11297 11282 0
-11298 -11297 -11282 0
11298 -11297 11282 0
11298 11297 -11282 0
-11298 0
-11299 11185 0
-11299 39 0
11299 -11185 -39 0
-11300 11185 0
-11300 40 0
11300 -11185 -40 0
-11301 11187 0
-11301 44 0
11301 -11187 -44 0
-11302 11185 0
-11302 42 0
11302 -11185 -42 0
-11303 11185 0
-11303 46 0
11303 -11185 -46 0
-11304 11187 0
-11304 47 0
11304 -11187 -47 0
-11305 11189 0
-11305 87 0
11305 -11189 -87 0
-11306 11189 0
-11306 88 0
11306 -11189 -88 0
-11307 11191 0
-11307 92 0
11307 -11191 -92 0
-11308 11189 0
-11308 90 0
11308 -11189 -90 0
-11309 11189 0
-11309 94 0
11309 -11189 -94 0
-11310 11191 0
-11310 95 0
11310 -11191 -95 0
-11311 11193 0
-11311 135 0
11311 -11193 -135 0
-11312 11193 0
-11312 136 0
11312 -11193 -136 0
-11313 11195 0
-11313 140 0
11313 -11195 -140 0
-11314 11197 0
-11314 183 0
11314 -11197 -183 0
-11315 11197 0
-11315 186 0
11315 -11197 -186 0
-11316 11299 11300 0
-11316 -11299 -11300 0
11316 -11299 11300 0
11316 11299 -11300 0
-11317 11316 11301 0
-11317 -11316 -11301 0
11317 -11316 11301 0
11317 11316 -11301 0
-11318 11317 11302 0
-11318 -11317 -11302 0
11318 -11317 11302 0
11318 11317 -11302 0
-11319 11318 11303 0
-11319 -11318 -11303 0
11319 -11318 11303 0
11319 11318 -11303 0
-11320 11319 11304 0
-11320 -11319 -11304 0
11320 -11319 11304 0
11320 11319 -11304 0
-11321 11320 11305 0
-11321 -11320 -11305 0
11321 -11320 11305 0
11321 11320 -11305 0
-11322 11321 11306 0
-11322 -11321 -11306 0
11322 -11321 11306 0
11322 11321 -11306 0
-11323 11322 11307 0
-11323 -11322 -11307 0
11323 -11322 11307 0
11323 11322 -11307 0
-11324 11323 11308 0
-11324 -11323 -11308 0
11324 -11323 11308 0
11324 11323 -11308 0
-11325 11324 11309 0
-11325 -11324 -11309 0
11325 -11324 11309 0
11325 11324 -11309 0
-11326 11325 11310 0
-11326 -11325 -11310 0
11326 -11325 11310 0
11326 11325 -11310 0
-11327 11326 11311 0
-11327 -11326 -11311 0
11327 -11326 11311 0
11327 11326 -11311 0
-11328 11327 11312 0
-11328 -11327 -11312 0
11328 -11327 11312 0
11328 11327 -11312 0
-11329 11328 11313 0
-11329 -11328 -11313 0
11329 -11328 11313 0
11329 11328 -11313 0
-11330 11329 11314 0
-11330 -11329 -11314 0
11330 -11329 11314 0
11330 11329 -11314 0
-11331 11330 11315 0
-11331 -11330 -11315 0
11331 -11330 11315 0
11331 11330 -11315 0
-11331 0
-11332 11185 0
-11332 43 0
11332 -11185 -43 0
-11333 11185 0
-11333 48 0
11333 -11185 -48 0
-11334 11187 0
-11334 48 0
11334 -11187 -48 0
-11335 11189 0
-11335 91 0
11335 -11189 -91 0
-11336 11189 0
-11336 96 0
11336 -11189 -96 0
-11337 11191 0
-11337 96 0
11337 -11191 -96 0
-11338 11193 0
-11338 139 0
11338 -11193 -139 0
-11339 11193 0
-11339 144 0
11339 -11193 -144 0
-11340 11195 0
-11340 144 0
11340 -11195 -144 0
-11341 11197 0
-11341 187 0
11341 -11197 -187 0
-11342 11332 11333 0
-11342 -11332 -11333 0
11342 -11332 11333 0
11342 11332 -11333 0
-11343 11342 11334 0
-11343 -11342 -11334 0
11343 -11342 11334 0
11343 11342 -11334 0
-11344 11343 11332 0
-11344 -11343 -11332 0
11344 -11343 11332 0
11344 11343 -11332 0
-11345 11344 11333 0
-11345 -11344 -11333 0
11345 -11344 11333 0
11345 11344 -11333 0
-11346 11345 11334 0
-11346 -11345 -11334 0
11346 -11345 11334 0
11346 11345 -11334 0
-11347 11346 11335 0
-11347 -11346 -11335 0
11347 -11346 11335 0
11347 11346 -11335 0
-11348 11347 11336 0
-11348 -11347 -11336 0
11348 -11347 11336 0
11348 11347 -11336 0
-11349 11348 11337 0
-11349 -11348 -11337 0
11349 -11348 11337 0
11349 11348 -11337 0
-11350 11349 11335 0
-11350 -11349 -11335 0
11350 -11349 11335 0
11350 11349 -11335 0
-11351 11350 11336 0
-11351 -11350 -11336 0
11351 -11350 11336 0
11351 11350 -11336 0
-11352 11351 11337 0
-11352 -11351 -11337 0
11352 -11351 11337 0
11352 11351 -11337 0
-11353 11352 11338 0
-11353 -11352 -11338 0
11353 -11352 11338 0
11353 11352 -11338 0
-11354 11353 11339 0
-11354 -11353 -11339 0
11354 -11353 11339 0
11354 11353 -11339 0
-11355 11354 11340 0
-11355 -11354 -11340 0
11355 -11354 11340 0
11355 11354 -11340 0
-11356 11355 11341 0
-11356 -11355 -11341 0
11356 -11355 11341 0
11356 11355 -11341 0
-11357 11356 11341 0
-11357 -11356 -11341 0
11357 -11356 11341 0
11357 11356 -11341 0
-11357 0
-11358 11185 0
-11358 44 0
11358 -11185 -44 0
-11359 11185 0
-11359 47 0
11359 -11185 -47 0
-11360 11187 0
-11360 46 0
11360 -11187 -46 0
-11361 11187 0
-11361 40 0
11361 -11187 -40 0
-11362 11189 0
-11362 92 0
11362 -11189 -92 0
-11363 11189 0
-11363 95 0
11363 -11189 -95 0
-11364 11191 0
-11364 94 0
11364 -11191 -94 0
-11365 11191 0
-11365 88 0
11365 -11191 -88 0
-11366 11193 0
-11366 140 0
11366 -11193 -140 0
-11367 11193 0
-11367 143 0
11367 -11193 -143 0
-11368 11195 0
-11368 142 0
11368 -11195 -142 0
-11369 11197 0
-11369 188 0
11369 -11197 -188 0
-11370 11197 0
-11370 191 0
11370 -11197 -191 0
-11371 11358 11359 0
-11371 -11358 -11359 0
11371 -11358 11359 0
11371 11358 -11359 0
-11372 11371 11360 0
-11372 -11371 -11360 0
11372 -11371 11360 0
11372 11371 -11360 0
-11373 11372 11359 0
-11373 -11372 -11359 0
11373 -11372 11359 0
11373 11372 -11359 0
-11374 11373 11358 0
-11374 -11373 -11358 0
11374 -11373 11358 0
11374 11373 -11358 0
-11375 11374 11361 0
-11375 -11374 -11361 0
11375 -11374 11361 0
11375 11374 -11361 0
-11376 11375 11362 0
-11376 -11375 -11362 0
11376 -11375 11362 0
11376 11375 -11362 0
-11377 11376 11363 0
-11377 -11376 -11363 0
11377 -11376 11363 0
11377 11376 -11363 0
-11378 11377 11364 0
-11378 -11377 -11364 0
11378 -11377 11364 0
11378 11377 -11364 0
-11379 11378 11363 0
-11379 -11378 -11363 0
11379 -11378 11363 0
11379 11378 -11363 0
-11380 11379 11362 0
-11380 -11379 -11362 0
11380 -11379 11362 0
11380 11379 -11362 0
-11381 11380 11365 0
-11381 -11380 -11365 0
11381 -11380 11365 0
11381 11380 -11365 0
-11382 11381 11366 0
-11382 -11381 -11366 0
11382 -11381 11366 0
11382 11381 -11366 0
-11383 11382 11367 0
-11383 -11382 -11367 0
11383 -11382 11367 0
11383 11382 -11367 0
-11384 11383 11368 0
-11384 -11383 -11368 0
11384 -11383 11368 0
11384 11383 -11368 0
-11385 11384 11369 0
-11385 -11384 -11369 0
11385 -11384 11369 0
11385 11384 -11369 0
-11386 11385 11370 0
-11386 -11385 -11370 0
11386 -11385 11370 0
11386 11385 -11370 0
-11386 0
-11387 7 0
-11387 30 0
11387 -7 -30 0
-11388 11387 0
-11388 33 0
11388 -11387 -33 0
-11389 9 0
-11389 31 0
11389 -9 -31 0
-11390 11389 0
-11390 33 0
11390 -11389 -33 0
-11391 26 0
-11391 8 0
11391 -26 -8 0
-11392 11391 0
-11392 33 0
11392 -11391 -33 0
-11393 19 0
-11393 12 0
11393 -19 -12 0
-11394 11393 0
-11394 33 0
11394 -11393 -33 0
-11395 55 0
-11395 78 0
11395 -55 -78 0
-11396 11395 0
-11396 81 0
11396 -11395 -81 0
-11397 57 0
-11397 79 0
11397 -57 -79 0
-11398 11397 0
-11398 81 0
11398 -11397 -81 0
-11399 74 0
-11399 56 0
11399 -74 -56 0
-11400 11399 0
-11400 81 0
11400 -11399 -81 0
-11401 67 0
-11401 60 0
11401 -67 -60 0
-11402 11401 0
-11402 81 0
11402 -11401 -81 0
-11403 103 0
-11403 126 0
11403 -103 -126 0
-11404 11403 0
-11404 129 0
11404 -11403 -129 0
-11405 105 0
-11405 127 0
11405 -105 -127 0
-11406 11405 0
-11406 129 0
11406 -11405 -129 0
-11407 151 0
-11407 174 0
11407 -151 -174 0
-11408 11407 0
-11408 177 0
11408 -11407 -177 0
-11409 170 0
-11409 152 0
11409 -170 -152 0
-11410 11409 0
-11410 177 0
11410 -11409 -177 0
-11411 11388 11388 0
-11411 -11388 -11388 0
11411 -11388 11388 0
11411 11388 -11388 0
-11412 11411 11390 0
-11412 -11411 -11390 0
11412 -11411 11390 0
11412 11411 -11390 0
-11413 11412 11392 0
-11413 -11412 -11392 0
11413 -11412 11392 0
11413 11412 -11392 0
-11414 11413 11392 0
-11414 -11413 -11392 0
11414 -11413 11392 0
11414 11413 -11392 0
-11415 11414 11394 0
-11415 -11414 -11394 0
11415 -11414 11394 0
11415 11414 -11394 0
-11416 11415 11396 0
-11416 -11415 -11396 0
11416 -11415 11396 0
11416 11415 -11396 0
-11417 11416 11396 0
-11417 -11416 -11396 0
11417 -11416 11396 0
11417 11416 -11396 0
-11418 11417 11398 0
-11418 -11417 -11398 0
11418 -11417 11398 0
11418 11417 -11398 0
-11419 11418 11400 0
-11419 -11418 -11400 0
11419 -11418 11400 0
11419 11418 -11400 0
-11420 11419 11400 0
-11420 -11419 -11400 0
11420 -11419 11400 0
11420 11419 -11400 0
-11421 11420 11402 0
-11421 -11420 -11402 0
11421 -11420 11402 0
11421 11420 -11402 0
-11422 11421 11404 0
-11422 -11421 -11404 0
11422 -11421 11404 0
11422 11421 -11404 0
-11423 11422 11404 0
-11423 -11422 -11404 0
11423 -11422 11404 0
11423 11422 -11404 0
-11424 11423 11406 0
-11424 -11423 -11406 0
11424 -11423 11406 0
11424 11423 -11406 0
-11425 11424 11408 0
-11425 -11424 -11408 0
11425 -11424 11408 0
11425 11424 -11408 0
-11426 11425 11410 0
-11426 -11425 -11410 0
11426 -11425 11410 0
11426 11425 -11410 0
-11426 0
-11427 11387 0
-11427 34 0
11427 -11387 -34 0
-11428 11389 0
-11428 35 0
11428 -11389 -35 0
-11429 11391 0
-11429 37 0
11429 -11391 -37 0
-11430 11393 0
-11430 41 0
11430 -11393 -41 0
-11431 11395 0
-11431 82 0
11431 -11395 -82 0
-11432 11397 0
-11432 83 0
11432 -11397 -83 0
-11433 11399 0
-11433 85 0
11433 -11399 -85 0
-11434 11401 0
-11434 89 0
11434 -11401 -89 0
-11435 11403 0
-11435 130 0
11435 -11403 -130 0
-11436 11405 0
-11436 131 0
11436 -11405 -131 0
-11437 11407 0
-11437 178 0
11437 -11407 -178 0
-11438 11409 0
-11438 181 0
11438 -11409 -181 0
-11439 11427 11427 0
-11439 -11427 -11427 0
11439 -11427 11427 0
11439 11427 -11427 0
-11440 11439 11428 0
-11440 -11439 -11428 0
11440 -11439 11428 0
11440 11439 -11428 0
-11441 11440 11429 0
-11441 -11440 -11429 0
11441 -11440 11429 0
11441 11440 -11429 0
-11442 11441 11429 0
-11442 -11441 -11429 0
11442 -11441 11429 0
11442 11441 -11429 0
-11443 11442 11430 0
-11443 -11442 -11430 0
11443 -11442 11430 0
11443 11442 -11430 0
-11444 11443 11431 0
-11444 -11443 -11431 0
11444 -11443 11431 0
11444 11443 -11431 0
-11445 11444 11431 0
-11445 -11444 -11431 0
11445 -11444 11431 0
11445 11444 -11431 0
-11446 11445 11432 0
-11446 -11445 -11432 0
11446 -11445 11432 0
11446 11445 -11432 0
-11447 11446 11433 0
-11447 -11446 -11433 0
11447 -11446 11433 0
11447 11446 -11433 0
-11448 11447 11433 0
-11448 -11447 -11433 0
11448 -11447 11433 0
11448 11447 -11433 0
-11449 11448 11434 0
-11449 -11448 -11434 0
11449 -11448 11434 0
11449 11448 -11434 0
-11450 11449 11435 0
-11450 -11449 -11435 0
11450 -11449 11435 0
11450 11449 -11435 0
-11451 11450 11435 0
-11451 -11450 -11435 0
11451 -11450 11435 0
11451 11450 -11435 0
-11452 11451 11436 0
-11452 -11451 -11436 0
11452 -11451 11436 0
11452 11451 -11436 0
-11453 11452 11437 0
-11453 -11452 -11437 0
11453 -11452 11437 0
11453 11452 -11437 0
-11454 11453 11438 0
-11454 -11453 -11438 0
11454 -11453 11438 0
11454 11453 -11438 0
-11454 0
-11455 11387 0
-11455 35 0
11455 -11387 -35 0
-11456 11387 0
-11456 36 0
11456 -11387 -36 0
-11457 11389 0
-11457 36 0
11457 -11389 -36 0
-11458 11391 0
-11458 41 0
11458 -11391 -41 0
-11459 11391 0
-11459 45 0
11459 -11391 -45 0
-11460 11393 0
-11460 45 0
11460 -11393 -45 0
-11461 11395 0
-11461 83 0
11461 -11395 -83 0
-11462 11395 0
-11462 84 0
11462 -11395 -84 0
-11463 11397 0
-11463 84 0
11463 -11397 -84 0
-11464 11399 0
-11464 89 0
11464 -11399 -89 0
-11465 11399 0
-11465 93 0
11465 -11399 -93 0
-11466 11401 0
-11466 93 0
11466 -11401 -93 0
-11467 11403 0
-11467 131 0
11467 -11403 -131 0
-11468 11403 0
-11468 132 0
11468 -11403 -132 0
-11469 11405 0
-11469 132 0
11469 -11405 -132 0
-11470 11407 0
-11470 179 0
11470 -11407 -179 0
-11471 11409 0
-11471 185 0
11471 -11409 -185 0
-11472 11455 11456 0
-11472 -11455 -11456 0
11472 -11455 11456 0
11472 11455 -11456 0
-11473 11472 11457 0
-11473 -11472 -11457 0
11473 -11472 11457 0
11473 11472 -11457 0
-11474 11473 11458 0
-11474 -11473 -11458 0
11474 -11473 11458 0
11474 11473 -11458 0
-11475 11474 11459 0
-11475 -11474 -11459 0
11475 -11474 11459 0
11475 11474 -11459 0
-11476 11475 11460 0
-11476 -11475 -11460 0
11476 -11475 11460 0
11476 11475 -11460 0
-11477 11476 11461 0
-11477 -11476 -11461 0
11477 -11476 11461 0
11477 11476 -11461 0
-11478 11477 11462 0
-11478 -11477 -11462 0
11478 -11477 11462 0
11478 11477 -11462 0
-11479 11478 11463 0
-11479 -11478 -11463 0
11479 -11478 11463 0
11479 11478 -11463 0
-11480 11479 11464 0
-11480 -11479 -11464 0
11480 -11479 11464 0
11480 11479 -11464 0
-11481 11480 11465 0
-11481 -11480 -11465 0
11481 -11480 11465 0
11481 11480 -11465 0
-11482 11481 11466 0
-11482 -11481 -11466 0
11482 -11481 11466 0
11482 11481 -11466 0
-11483 11482 11467 0
-11483 -11482 -11467 0
11483 -11482 11467 0
11483 11482 -11467 0
-11484 11483 11468 0
-11484 -11483 -11468 0
11484 -11483 11468 0
11484 11483 -11468 0
-11485 11484 11469 0
-11485 -11484 -11469 0
11485 -11484 11469 0
11485 11484 -11469 0
-11486 11485 11470 0
-11486 -11485 -11470 0
11486 -11485 11470 0
11486 11485 -11470 0
-11487 11486 11471 0
-11487 -11486 -11471 0
11487 -11486 11471 0
11487 11486 -11471 0
-11487 0
-11488 11387 0
-11488 37 0
11488 -11387 -37 0
-11489 11389 0
-11489 41 0
11489 -11389 -41 0
-11490 11391 0
-11490 34 0
11490 -11391 -34 0
-11491 11393 0
-11491 35 0
11491 -11393 -35 0
-11492 11395 0
-11492 85 0
11492 -11395 -85 0
-11493 11397 0
-11493 89 0
11493 -11397 -89 0
-11494 11399 0
-11494 82 0
11494 -11399 -82 0
-11495 11401 0
-11495 83 0
11495 -11401 -83 0
-11496 11403 0
-11496 133 0
11496 -11403 -133 0
-11497 11405 0
-11497 137 0
11497 -11405 -137 0
-11498 11407 0
-11498 181 0
11498 -11407 -181 0
-11499 11409 0
-11499 178 0
11499 -11409 -178 0
-11500 11488 11488 0
-11500 -11488 -11488 0
11500 -11488 11488 0
11500 11488 -11488 0
-11501 11500 11489 0
-11501 -11500 -11489 0
11501 -11500 11489 0
11501 11500 -11489 0
-11502 11501 11490 0
-11502 -11501 -11490 0
11502 -11501 11490 0
11502 11501 -11490 0
-11503 11502 11490 0
-11503 -11502 -11490 0
11503 -11502 11490 0
11503 11502 -11490 0
-11504 11503 11491 0
-11504 -11503 -11491 0
11504 -11503 11491 0
11504 11503 -11491 0
-11505 11504 11492 0
-11505 -11504 -11492 0
11505 -11504 11492 0
11505 11504 -11492 0
-11506 11505 11492 0
-11506 -11505 -11492 0
11506 -11505 11492 0
11506 11505 -11492 0
-11507 11506 11493 0
-11507 -11506 -11493 0
11507 -11506 11493 0
11507 11506 -11493 0
-11508 11507 11494 0
-11508 -11507 -11494 0
11508 -11507 11494 0
11508 11507 -11494 0
-11509 11508 11494 0
-11509 -11508 -11494 0
11509 -11508 11494 0
11509 11508 -11494 0
-11510 11509 11495 0
-11510 -11509 -11495 0
11510 -11509 11495 0
11510 11509 -11495 0
-11511 11510 11496 0
-11511 -11510 -11496 0
11511 -11510 11496 0
11511 11510 -11496 0
-11512 11511 11496 0
-11512 -11511 -11496 0
11512 -11511 11496 0
11512 11511 -11496 0
-11513 11512 11497 0
-11513 -11512 -11497 0
11513 -11512 11497 0
11513 11512 -11497 0
-11514 11513 11498 0
-11514 -11513 -11498 0
11514 -11513 11498 0
11514 11513 -11498 0
-11515 11514 11499 0
-11515 -11514 -11499 0
11515 -11514 11499 0
11515 11514 -11499 0
-11515 0
-11516 11387 0
-11516 38 0
11516 -11387 -38 0
-11517 11389 0
-11517 43 0
11517 -11389 -43 0
-11518 11391 0
-11518 38 0
11518 -11391 -38 0
-11519 11393 0
-11519 43 0
11519 -11393 -43 0
-11520 11395 0
-11520 86 0
11520 -11395 -86 0
-11521 11397 0
-11521 91 0
11521 -11397 -91 0
-11522 11399 0
-11522 86 0
11522 -11399 -86 0
-11523 11401 0
-11523 91 0
11523 -11401 -91 0
-11524 11403 0
-11524 134 0
11524 -11403 -134 0
-11525 11405 0
-11525 139 0
11525 -11405 -139 0
-11526 11407 0
-11526 182 0
11526 -11407 -182 0
-11527 11409 0
-11527 182 0
11527 -11409 -182 0
-11528 11516 11516 0
-11528 -11516 -11516 0
11528 -11516 11516 0
11528 11516 -11516 0
-11529 11528 11517 0
-11529 -11528 -11517 0
11529 -11528 11517 0
11529 11528 -11517 0
-11530 11529 11518 0
-11530 -11529 -11518 0
11530 -11529 11518 0
11530 11529 -11518 0
-11531 11530 11518 0
-11531 -11530 -11518 0
11531 -11530 11518 0
11531 11530 -11518 0
-11532 11531 11519 0
-11532 -11531 -11519 0
11532 -11531 11519 0
11532 11531 -11519 0
-11533 11532 11520 0
-11533 -11532 -11520 0
11533 -11532 11520 0
11533 11532 -11520 0
-11534 11533 11520 0
-11534 -11533 -11520 0
11534 -11533 11520 0
11534 11533 -11520 0
-11535 11534 11521 0
-11535 -11534 -11521 0
11535 -11534 11521 0
11535 11534 -11521 0
-11536 11535 11522 0
-11536 -11535 -11522 0
11536 -11535 11522 0
11536 11535 -11522 0
-11537 11536 11522 0
-11537 -11536 -11522 0
11537 -11536 11522 0
11537 11536 -11522 0
-11538 11537 11523 0
-11538 -11537 -11523 0
11538 -11537 11523 0
11538 11537 -11523 0
-11539 11538 11524 0
-11539 -11538 -11524 0
11539 -11538 11524 0
11539 11538 -11524 0
-11540 11539 11524 0
-11540 -11539 -11524 0
11540 -11539 11524 0
11540 11539 -11524 0
-11541 11540 11525 0
-11541 -11540 -11525 0
11541 -11540 11525 0
11541 11540 -11525 0
-11542 11541 11526 0
-11542 -11541 -11526 0
11542 -11541 11526 0
11542 11541 -11526 0
-11543 11542 11527 0
-11543 -11542 -11527 0
11543 -11542 11527 0
11543 11542 -11527 0
-11543 0
-11544 11387 0
-11544 39 0
11544 -11387 -39 0
-11545 11387 0
-11545 40 0
11545 -11387 -40 0
-11546 11389 0
-11546 44 0
11546 -11389 -44 0
-11547 11391 0
-11547 42 0
11547 -11391 -42 0
-11548 11391 0
-11548 46 0
11548 -11391 -46 0
-11549 11393 0
-11549 47 0
11549 -11393 -47 0
-11550 11395 0
-11550 87 0
11550 -11395 -87 0
-11551 11395 0
-11551 88 0
11551 -11395 -88 0
-11552 11397 0
-11552 92 0
11552 -11397 -92 0
-11553 11399 0
-11553 90 0
11553 -11399 -90 0
-11554 11399 0
-11554 94 0
11554 -11399 -94 0
-11555 11401 0
-11555 95 0
11555 -11401 -95 0
-11556 11403 0
-11556 135 0
11556 -11403 -135 0
-11557 11403 0
-11557 136 0
11557 -11403 -136 0
-11558 11405 0
-11558 140 0
11558 -11405 -140 0
-11559 11407 0
-11559 183 0
11559 -11407 -183 0
-11560 11409 0
-11560 186 0
11560 -11409 -186 0
-11561 11544 11545 0
-11561 -11544 -11545 0
11561 -11544 11545 0
11561 11544 -11545 0
-11562 11561 11546 0
-11562 -11561 -11546 0
11562 -11561 11546 0
11562 11561 -11546 0
-11563 11562 11547 0
-11563 -11562 -11547 0
11563 -11562 11547 0
11563 11562 -11547 0
-11564 11563 11548 0
-11564 -11563 -11548 0
11564 -11563 11548 0
11564 11563 -11548 0
-11565 11564 11549 0
-11565 -11564 -11549 0
11565 -11564 11549 0
11565 11564 -11549 0
-11566 11565 11550 0
-11566 -11565 -11550 0
11566 -11565 11550 0
11566 11565 -11550 0
-11567 11566 11551 0
-11567 -11566 -11551 0
11567 -11566 11551 0
11567 11566 -11551 0
-11568 11567 11552 0
-11568 -11567 -11552 0
11568 -11567 11552 0
11568 11567 -11552 0
-11569 11568 11553 0
-11569 -11568 -11553 0
11569 -11568 11553 0
11569 11568 -11553 0
-11570 11569 11554 0
-11570 -11569 -11554 0
11570 -11569 11554 0
11570 11569 -11554 0
-11571 11570 11555 0
-11571 -11570 -11555 0
11571 -11570 11555 0
11571 11570 -11555 0
-11572 11571 11556 0
-11572 -11571 -11556 0
11572 -11571 11556 0
11572 11571 -11556 0
-11573 11572 11557 0
-11573 -11572 -11557 0
11573 -11572 11557 0
11573 11572 -11557 0
-11574 11573 11558 0
-11574 -11573 -11558 0
11574 -11573 11558 0
11574 11573 -11558 0
-11575 11574 11559 0
-11575 -11574 -11559 0
11575 -11574 11559 0
11575 11574 -11559 0
-11576 11575 11560 0
-11576 -11575 -11560 0
11576 -11575 11560 0
11576 11575 -11560 0
-11576 0
-11577 11387 0
-11577 41 0
11577 -11387 -41 0
-11578 11387 0
-11578 45 0
11578 -11387 -45 0
-11579 11389 0
-11579 45 0
11579 -11389 -45 0
-11580 11391 0
-11580 35 0
11580 -11391 -35 0
-11581 11391 0
-11581 36 0
11581 -11391 -36 0
-11582 11393 0
-11582 36 0
11582 -11393 -36 0
-11583 11395 0
-11583 89 0
11583 -11395 -89 0
-11584 11395 0
-11584 93 0
11584 -11395 -93 0
-11585 11397 0
-11585 93 0
11585 -11397 -93 0
-11586 11399 0
-11586 83 0
11586 -11399 -83 0
-11587 11399 0
-11587 84 0
11587 -11399 -84 0
-11588 11401 0
-11588 84 0
11588 -11401 -84 0
-11589 11403 0
-11589 137 0
11589 -11403 -137 0
-11590 11403 0
-11590 141 0
11590 -11403 -141 0
-11591 11405 0
-11591 141 0
11591 -11405 -141 0
-11592 11407 0
-11592 185 0
11592 -11407 -185 0
-11593 11409 0
-11593 179 0
11593 -11409 -179 0
-11594 11577 11578 0
-11594 -11577 -11578 0
11594 -11577 11578 0
11594 11577 -11578 0
-11595 11594 11579 0
-11595 -11594 -11579 0
11595 -11594 11579 0
11595 11594 -11579 0
-11596 11595 11580 0
-11596 -11595 -11580 0
11596 -11595 11580 0
11596 11595 -11580 0
-11597 11596 11581 0
-11597 -11596 -11581 0
11597 -11596 11581 0
11597 11596 -11581 0
-11598 11597 11582 0
-11598 -11597 -11582 0
11598 -11597 11582 0
11598 11597 -11582 0
-11599 11598 11583 0
-11599 -11598 -11583 0
11599 -11598 11583 0
11599 11598 -11583 0
-11600 11599 11584 0
-11600 -11599 -11584 0
11600 -11599 11584 0
11600 11599 -11584 0
-11601 11600 11585 0
-11601 -11600 -11585 0
11601 -11600 11585 0
11601 11600 -11585 0
-11602 11601 11586 0
-11602 -11601 -11586 0
11602 -11601 11586 0
11602 11601 -11586 0
-11603 11602 11587 0
-11603 -11602 -11587 0
11603 -11602 11587 0
11603 11602 -11587 0
-11604 11603 11588 0
-11604 -11603 -11588 0
11604 -11603 11588 0
11604 11603 -11588 0
-11605 11604 11589 0
-11605 -11604 -11589 0
11605 -11604 11589 0
11605 11604 -11589 0
-11606 11605 11590 0
-11606 -11605 -11590 0
11606 -11605 11590 0
11606 11605 -11590 0
-11607 11606 11591 0
-11607 -11606 -11591 0
11607 -11606 11591 0
11607 11606 -11591 0
-11608 11607 11592 0
-11608 -11607 -11592 0
11608 -11607 11592 0
11608 11607 -11592 0
-11609 11608 11593 0
-11609 -11608 -11593 0
11609 -11608 11593 0
11609 11608 -11593 0
-11609 0
-11610 11387 0
-11610 42 0
11610 -11387 -42 0
-11611 11387 0
-11611 46 0
11611 -11387 -46 0
-11612 11389 0
-11612 47 0
11612 -11389 -47 0
-11613 11391 0
-11613 39 0
11613 -11391 -39 0
-11614 11391 0
-11614 40 0
11614 -11391 -40 0
-11615 11393 0
-11615 44 0
11615 -11393 -44 0
-11616 11395 0
-11616 90 0
11616 -11395 -90 0
-11617 11395 0
-11617 94 0
11617 -11395 -94 0
-11618 11397 0
-11618 95 0
11618 -11397 -95 0
-11619 11399 0
-11619 87 0
11619 -11399 -87 0
-11620 11399 0
-11620 88 0
11620 -11399 -88 0
-11621 11401 0
-11621 92 0
11621 -11401 -92 0
-11622 11403 0
-11622 138 0
11622 -11403 -138 0
-11623 11403 0
-11623 142 0
11623 -11403 -142 0
-11624 11405 0
-11624 143 0
11624 -11405 -143 0
-11625 11407 0
-11625 186 0
11625 -11407 -186 0
-11626 11409 0
-11626 183 0
11626 -11409 -183 0
-11627 11610 11611 0
-11627 -11610 -11611 0
11627 -11610 11611 0
11627 11610 -11611 0
-11628 11627 11612 0
-11628 -11627 -11612 0
11628 -11627 11612 0
11628 11627 -11612 0
-11629 11628 11613 0
-11629 -11628 -11613 0
11629 -11628 11613 0
11629 11628 -11613 0
-11630 11629 11614 0
-11630 -11629 -11614 0
11630 -11629 11614 0
11630 11629 -11614 0
-11631 11630 11615 0
-11631 -11630 -11615 0
11631 -11630 11615 0
11631 11630 -11615 0
-11632 11631 11616 0
-11632 -11631 -11616 0
11632 -11631 11616 0
11632 11631 -11616 0
-11633 11632 11617 0
-11633 -11632 -11617 0
11633 -11632 11617 0
11633 11632 -11617 0
-11634 11633 11618 0
-11634 -11633 -11618 0
11634 -11633 11618 0
11634 11633 -11618 0
-11635 11634 11619 0
-11635 -11634 -11619 0
11635 -11634 11619 0
11635 11634 -11619 0
-11636 11635 11620 0
-11636 -11635 -11620 0
11636 -11635 11620 0
11636 11635 -11620 0
-11637 11636 11621 0
-11637 -11636 -11621 0
11637 -11636 11621 0
11637 11636 -11621 0
-11638 11637 11622 0
-11638 -11637 -11622 0
11638 -11637 11622 0
11638 11637 -11622 0
-11639 11638 11623 0
-11639 -11638 -11623 0
11639 -11638 11623 0
11639 11638 -11623 0
-11640 11639 11624 0
-11640 -11639 -11624 0
11640 -11639 11624 0
11640 11639 -11624 0
-11641 11640 11625 0
-11641 -11640 -11625 0
11641 -11640 11625 0
11641 11640 -11625 0
-11642 11641 11626 0
-11642 -11641 -11626 0
11642 -11641 11626 0
11642 11641 -11626 0
-11642 0
-11643 11387 0
-11643 43 0
11643 -11387 -43 0
-11644 11387 0
-11644 48 0
11644 -11387 -48 0
-11645 11389 0
-11645 48 0
11645 -11389 -48 0
-11646 11391 0
-11646 43 0
11646 -11391 -43 0
-11647 11391 0
-11647 48 0
11647 -11391 -48 0
-11648 11393 0
-11648 48 0
11648 -11393 -48 0
-11649 11395 0
-11649 91 0
11649 -11395 -91 0
-11650 11395 0
-11650 96 0
11650 -11395 -96 0
-11651 11397 0
-11651 96 0
11651 -11397 -96 0
-11652 11399 0
-11652 91 0
11652 -11399 -91 0
-11653 11399 0
-11653 96 0
11653 -11399 -96 0
-11654 11401 0
-11654 96 0
11654 -11401 -96 0
-11655 11403 0
-11655 139 0
11655 -11403 -139 0
-11656 11403 0
-11656 144 0
11656 -11403 -144 0
-11657 11405 0
-11657 144 0
11657 -11405 -144 0
-11658 11407 0
-11658 187 0
11658 -11407 -187 0
-11659 11409 0
-11659 187 0
11659 -11409 -187 0
-11660 11643 11644 0
-11660 -11643 -11644 0
11660 -11643 11644 0
11660 11643 -11644 0
-11661 11660 11645 0
-11661 -11660 -11645 0
11661 -11660 11645 0
11661 11660 -11645 0
-11662 11661 11646 0
-11662 -11661 -11646 0
11662 -11661 11646 0
11662 11661 -11646 0
-11663 11662 11647 0
-11663 -11662 -11647 0
11663 -11662 11647 0
11663 11662 -11647 0
-11664 11663 11648 0
-11664 -11663 -11648 0
11664 -11663 11648 0
11664 11663 -11648 0
-11665 11664 11649 0
-11665 -11664 -11649 0
11665 -11664 11649 0
11665 11664 -11649 0
-11666 11665 11650 0
-11666 -11665 -11650 0
11666 -11665 11650 0
11666 11665 -11650 0
-11667 11666 11651 0
-11667 -11666 -11651 0
11667 -11666 11651 0
11667 11666 -11651 0
-11668 11667 11652 0
-11668 -11667 -11652 0
11668 -11667 11652 0
11668 11667 -11652 0
-11669 11668 11653 0
-11669 -11668 -11653 0
11669 -11668 11653 0
11669 11668 -11653 0
-11670 11669 11654 0
-11670 -11669 -11654 0
11670 -11669 11654 0
11670 11669 -11654 0
-11671 11670 11655 0
-11671 -11670 -11655 0
11671 -11670 11655 0
11671 11670 -11655 0
-11672 11671 11656 0
-11672 -11671 -11656 0
11672 -11671 11656 0
11672 11671 -11656 0
-11673 11672 11657 0
-11673 -11672 -11657 0
11673 -11672 11657 0
11673 11672 -11657 0
-11674 11673 11658 0
-11674 -11673 -11658 0
11674 -11673 11658 0
11674 11673 -11658 0
-11675 11674 11659 0
-11675 -11674 -11659 0
11675 -11674 11659 0
11675 11674 -11659 0
-11675 0
-11676 11387 0
-11676 44 0
11676 -11387 -44 0
-11677 11387 0
-11677 47 0
11677 -11387 -47 0
-11678 11389 0
-11678 46 0
11678 -11389 -46 0
-11679 11391 0
-11679 47 0
11679 -11391 -47 0
-11680 11391 0
-11680 44 0
11680 -11391 -44 0
-11681 11393 0
-11681 40 0
11681 -11393 -40 0
-11682 11395 0
-11682 92 0
11682 -11395 -92 0
-11683 11395 0
-11683 95 0
11683 -11395 -95 0
-11684 11397 0
-11684 94 0
11684 -11397 -94 0
-11685 11399 0
-11685 95 0
11685 -11399 -95 0
-11686 11399 0
-11686 92 0
11686 -11399 -92 0
-11687 11401 0
-11687 88 0
11687 -11401 -88 0
-11688 11403 0
-11688 140 0
11688 -11403 -140 0
-11689 11403 0
-11689 143 0
11689 -11403 -143 0
-11690 11405 0
-11690 142 0
11690 -11405 -142 0
-11691 11407 0
-11691 188 0
11691 -11407 -188 0
-11692 11409 0
-11692 191 0
11692 -11409 -191 0
-11693 11676 11677 0
-11693 -11676 -11677 0
11693 -11676 11677 0
11693 11676 -11677 0
-11694 11693 11678 0
-11694 -11693 -11678 0
11694 -11693 11678 0
11694 11693 -11678 0
-11695 11694 11679 0
-11695 -11694 -11679 0
11695 -11694 11679 0
11695 11694 -11679 0
-11696 11695 11680 0
-11696 -11695 -11680 0
11696 -11695 11680 0
11696 11695 -11680 0
-11697 11696 11681 0
-11697 -11696 -11681 0
11697 -11696 11681 0
11697 11696 -11681 0
-11698 11697 11682 0
-11698 -11697 -11682 0
11698 -11697 11682 0
11698 11697 -11682 0
-11699 11698 11683 0
-11699 -11698 -11683 0
11699 -11698 11683 0
11699 11698 -11683 0
-11700 11699 11684 0
-11700 -11699 -11684 0
11700 -11699 11684 0
11700 11699 -11684 0
-11701 11700 11685 0
-11701 -11700 -11685 0
11701 -11700 11685 0
11701 11700 -11685 0
-11702 11701 11686 0
-11702 -11701 -11686 0
11702 -11701 11686 0
11702 11701 -11686 0
-11703 11702 11687 0
-11703 -11702 -11687 0
11703 -11702 11687 0
11703 11702 -11687 0
-11704 11703 11688 0
-11704 -11703 -11688 0
11704 -11703 11688 0
11704 11703 -11688 0
-11705 11704 11689 0
-11705 -11704 -11689 0
11705 -11704 11689 0
11705 11704 -11689 0
-11706 11705 11690 0
-11706 -11705 -11690 0
11706 -11705 11690 0
11706 11705 -11690 0
-11707 11706 11691 0
-11707 -11706 -11691 0
11707 -11706 11691 0
11707 11706 -11691 0
-11708 11707 11692 0
-11708 -11707 -11692 0
11708 -11707 11692 0
11708 11707 -11692 0
-11708 0
-11709 7 0
-11709 31 0
11709 -7 -31 0
-11710 11709 0
-11710 33 0
11710 -11709 -33 0
-11711 7 0
-11711 32 0
11711 -7 -32 0
-11712 11711 0
-11712 33 0
11712 -11711 -33 0
-11713 9 0
-11713 32 0
11713 -9 -32 0
-11714 11713 0
-11714 33 0
11714 -11713 -33 0
-11715 26 0
-11715 12 0
11715 -26 -12 0
-11716 11715 0
-11716 33 0
11716 -11715 -33 0
-11717 26 0
-11717 16 0
11717 -26 -16 0
-11718 11717 0
-11718 33 0
11718 -11717 -33 0
-11719 19 0
-11719 16 0
11719 -19 -16 0
-11720 11719 0
-11720 33 0
11720 -11719 -33 0
-11721 55 0
-11721 79 0
11721 -55 -79 0
-11722 11721 0
-11722 81 0
11722 -11721 -81 0
-11723 55 0
-11723 80 0
11723 -55 -80 0
-11724 11723 0
-11724 81 0
11724 -11723 -81 0
-11725 57 0
-11725 80 0
11725 -57 -80 0
-11726 11725 0
-11726 81 0
11726 -11725 -81 0
-11727 74 0
-11727 60 0
11727 -74 -60 0
-11728 11727 0
-11728 81 0
11728 -11727 -81 0
-11729 74 0
-11729 64 0
11729 -74 -64 0
-11730 11729 0
-11730 81 0
11730 -11729 -81 0
-11731 67 0
-11731 64 0
11731 -67 -64 0
-11732 11731 0
-11732 81 0
11732 -11731 -81 0
-11733 103 0
-11733 127 0
11733 -103 -127 0
-11734 11733 0
-11734 129 0
11734 -11733 -129 0
-11735 103 0
-11735 128 0
11735 -103 -128 0
-11736 11735 0
-11736 129 0
11736 -11735 -129 0
-11737 105 0
-11737 128 0
11737 -105 -128 0
-11738 11737 0
-11738 129 0
11738 -11737 -129 0
-11739 151 0
-11739 175 0
11739 -151 -175 0
-11740 11739 0
-11740 177 0
11740 -11739 -177 0
-11741 170 0
-11741 156 0
11741 -170 -156 0
-11742 11741 0
-11742 177 0
11742 -11741 -177 0
-11743 11710 11712 0
-11743 -11710 -11712 0
11743 -11710 11712 0
11743 11710 -11712 0
-11744 11743 11714 0
-11744 -11743 -11714 0
11744 -11743 11714 0
11744 11743 -11714 0
-11745 11744 11716 0
-11745 -11744 -11716 0
11745 -11744 11716 0
11745 11744 -11716 0
-11746 11745 11718 0
-11746 -11745 -11718 0
11746 -11745 11718 0
11746 11745 -11718 0
-11747 11746 11720 0
-11747 -11746 -11720 0
11747 -11746 11720 0
11747 11746 -11720 0
-11748 11747 11722 0
-11748 -11747 -11722 0
11748 -11747 11722 0
11748 11747 -11722 0
-11749 11748 11724 0
-11749 -11748 -11724 0
11749 -11748 11724 0
11749 11748 -11724 0
-11750 11749 11726 0
-11750 -11749 -11726 0
11750 -11749 11726 0
11750 11749 -11726 0
-11751 11750 11728 0
-11751 -11750 -11728 0
11751 -11750 11728 0
11751 11750 -11728 0
-11752 11751 11730 0
-11752 -11751 -11730 0
11752 -11751 11730 0
11752 11751 -11730 0
-11753 11752 11732 0
-11753 -11752 -11732 0
11753 -11752 11732 0
11753 11752 -11732 0
-11754 11753 11734 0
-11754 -11753 -11734 0
11754 -11753 11734 0
11754 11753 -11734 0
-11755 11754 11736 0
-11755 -11754 -11736 0
11755 -11754 11736 0
11755 11754 -11736 0
-11756 11755 11738 0
-11756 -11755 -11738 0
11756 -11755 11738 0
11756 11755 -11738 0
-11757 11756 11740 0
-11757 -11756 -11740 0
11757 -11756 11740 0
11757 11756 -11740 0
-11758 11757 11742 0
-11758 -11757 -11742 0
11758 -11757 11742 0
11758 11757 -11742 0
-11758 0
-11759 11709 0
-11759 34 0
11759 -11709 -34 0
-11760 11711 0
-11760 34 0
11760 -11711 -34 0
-11761 11713 0
-11761 35 0
11761 -11713 -35 0
-11762 11715 0
-11762 37 0
11762 -11715 -37 0
-11763 11717 0
-11763 37 0
11763 -11717 -37 0
-11764 11719 0
-11764 41 0
11764 -11719 -41 0
-11765 11721 0
-11765 82 0
11765 -11721 -82 0
-11766 11723 0
-11766 82 0
11766 -11723 -82 0
-11767 11725 0
-11767 83 0
11767 -11725 -83 0
-11768 11727 0
-11768 85 0
11768 -11727 -85 0
-11769 11729 0
-11769 85 0
11769 -11729 -85 0
-11770 11731 0
-11770 89 0
11770 -11731 -89 0
-11771 11733 0
-11771 130 0
11771 -11733 -130 0
-11772 11735 0
-11772 130 0
11772 -11735 -130 0
-11773 11737 0
-11773 131 0
11773 -11737 -131 0
-11774 11739 0
-11774 178 0
11774 -11739 -178 0
-11775 11741 0
-11775 181 0
11775 -11741 -181 0
-11776 11759 11760 0
-11776 -11759 -11760 0
11776 -11759 11760 0
11776 11759 -11760 0
-11777 11776 11761 0
-11777 -11776 -11761 0
11777 -11776 11761 0
11777 11776 -11761 0
-11778 11777 11762 0
-11778 -11777 -11762 0
11778 -11777 11762 0
11778 11777 -11762 0
-11779 11778 11763 0
-11779 -11778 -11763 0
11779 -11778 11763 0
11779 11778 -11763 0
-11780 11779 11764 0
-11780 -11779 -11764 0
11780 -11779 11764 0
11780 11779 -11764 0
-11781 11780 11765 0
-11781 -11780 -11765 0
11781 -11780 11765 0
11781 11780 -11765 0
-11782 11781 11766 0
-11782 -11781 -11766 0
11782 -11781 11766 0
11782 11781 -11766 0
-11783 11782 11767 0
-11783 -11782 -11767 0
11783 -11782 11767 0
11783 11782 -11767 0
-11784 11783 11768 0
-11784 -11783 -11768 0
11784 -11783 11768 0
11784 11783 -11768 0
-11785 11784 11769 0
-11785 -11784 -11769 0
11785 -11784 11769 0
11785 11784 -11769 0
-11786 11785 11770 0
-11786 -11785 -11770 0
11786 -11785 11770 0
11786 11785 -11770 0
-11787 11786 11771 0
-11787 -11786 -11771 0
11787 -11786 11771 0
11787 11786 -11771 0
-11788 11787 11772 0
-11788 -11787 -11772 0
11788 -11787 11772 0
11788 11787 -11772 0
-11789 11788 11773 0
-11789 -11788 -11773 0
11789 -11788 11773 0
11789 11788 -11773 0
-11790 11789 11774 0
-11790 -11789 -11774 0
11790 -11789 11774 0
11790 11789 -11774 0
-11791 11790 11775 0
-11791 -11790 -11775 0
11791 -11790 11775 0
11791 11790 -11775 0
-11791 0
-11792 11709 0
-11792 35 0
11792 -11709 -35 0
-11793 11711 0
-11793 36 0
11793 -11711 -36 0
-11794 11713 0
-11794 36 0
11794 -11713 -36 0
-11795 11715 0
-11795 41 0
11795 -11715 -41 0
-11796 11717 0
-11796 45 0
11796 -11717 -45 0
-11797 11719 0
-11797 45 0
11797 -11719 -45 0
-11798 11721 0
-11798 83 0
11798 -11721 -83 0
-11799 11723 0
-11799 84 0
11799 -11723 -84 0
-11800 11725 0
-11800 84 0
11800 -11725 -84 0
-11801 11727 0
-11801 89 0
11801 -11727 -89 0
-11802 11729 0
-11802 93 0
11802 -11729 -93 0
-11803 11731 0
-11803 93 0
11803 -11731 -93 0
-11804 11733 0
-11804 131 0
11804 -11733 -131 0
-11805 11735 0
-11805 132 0
11805 -11735 -132 0
-11806 11737 0
-11806 132 0
11806 -11737 -132 0
-11807 11739 0
-11807 179 0
11807 -11739 -179 0
-11808 11741 0
-11808 185 0
11808 -11741 -185 0
-11809 11792 11793 0
-11809 -11792 -11793 0
11809 -11792 11793 0
11809 11792 -11793 0
-11810 11809 11794 0
-11810 -11809 -11794 0
11810 -11809 11794 0
11810 11809 -11794 0
-11811 11810 11795 0
-11811 -11810 -11795 0
11811 -11810 11795 0
11811 11810 -11795 0
-11812 11811 11796 0
-11812 -11811 -11796 0
11812 -11811 11796 0
11812 11811 -11796 0
-11813 11812 11797 0
-11813 -11812 -11797 0
11813 -11812 11797 0
11813 11812 -11797 0
-11814 11813 11798 0
-11814 -11813 -11798 0
11814 -11813 11798 0
11814 11813 -11798 0
-11815 11814 11799 0
-11815 -11814 -11799 0
11815 -11814 11799 0
11815 11814 -11799 0
-11816 11815 11800 0
-11816 -11815 -11800 0
11816 -11815 11800 0
11816 11815 -11800 0
-11817 11816 11801 0
-11817 -11816 -11801 0
11817 -11816 11801 0
11817 11816 -11801 0
-11818 11817 11802 0
-11818 -11817 -11802 0
11818 -11817 11802 0
11818 11817 -11802 0
-11819 11818 11803 0
-11819 -11818 -11803 0
11819 -11818 11803 0
11819 11818 -11803 0
-11820 11819 11804 0
-11820 -11819 -11804 0
11820 -11819 11804 0
11820 11819 -11804 0
-11821 11820 11805 0
-11821 -11820 -11805 0
11821 -11820 11805 0
11821 11820 -11805 0
-11822 11821 11806 0
-11822 -11821 -11806 0
11822 -11821 11806 0
11822 11821 -11806 0
-11823 11822 11807 0
-11823 -11822 -11807 0
11823 -11822 11807 0
11823 11822 -11807 0
-11824 11823 11808 0
-11824 -11823 -11808 0
11824 -11823 11808 0
11824 11823 -11808 0
-11824 0
-11825 11709 0
-11825 36 0
11825 -11709 -36 0
-11826 11711 0
-11826 35 0
11826 -11711 -35 0
-11827 11713 0
-11827 34 0
11827 -11713 -34 0
-11828 11715 0
-11828 45 0
11828 -11715 -45 0
-11829 11717 0
-11829 41 0
11829 -11717 -41 0
-11830 11719 0
-11830 37 0
11830 -11719 -37 0
-11831 11721 0
-11831 84 0
11831 -11721 -84 0
-11832 11723 0
-11832 83 0
11832 -11723 -83 0
-11833 11725 0
-11833 82 0
11833 -11725 -82 0
-11834 11727 0
-11834 93 0
11834 -11727 -93 0
-11835 11729 0
-11835 89 0
11835 -11729 -89 0
-11836 11731 0
-11836 85 0
11836 -11731 -85 0
-11837 11733 0
-11837 132 0
11837 -11733 -132 0
-11838 11735 0
-11838 131 0
11838 -11735 -131 0
-11839 11737 0
-11839 130 0
11839 -11737 -130 0
-11840 11739 0
-11840 180 0
11840 -11739 -180 0
-11841 11741 0
-11841 189 0
11841 -11741 -189 0
-11842 11825 11826 0
-11842 -11825 -11826 0
11842 -11825 11826 0
11842 11825 -11826 0
-11843 11842 11827 0
-11843 -11842 -11827 0
11843 -11842 11827 0
11843 11842 -11827 0
-11844 11843 11828 0
-11844 -11843 -11828 0
11844 -11843 11828 0
11844 11843 -11828 0
-11845 11844 11829 0
-11845 -11844 -11829 0
11845 -11844 11829 0
11845 11844 -11829 0
-11846 11845 11830 0
-11846 -11845 -11830 0
11846 -11845 11830 0
11846 11845 -11830 0
-11847 11846 11831 0
-11847 -11846 -11831 0
11847 -11846 11831 0
11847 11846 -11831 0
-11848 11847 11832 0
-11848 -11847 -11832 0
11848 -11847 11832 0
11848 11847 -11832 0
-11849 11848 11833 0
-11849 -11848 -11833 0
11849 -11848 11833 0
11849 11848 -11833 0
-11850 11849 11834 0
-11850 -11849 -11834 0
11850 -11849 11834 0
11850 11849 -11834 0
-11851 11850 11835 0
-11851 -11850 -11835 0
11851 -11850 11835 0
11851 11850 -11835 0
-11852 11851 11836 0
-11852 -11851 -11836 0
11852 -11851 11836 0
11852 11851 -11836 0
-11853 11852 11837 0
-11853 -11852 -11837 0
11853 -11852 11837 0
11853 11852 -11837 0
-11854 11853 11838 0
-11854 -11853 -11838 0
11854 -11853 11838 0
11854 11853 -11838 0
-11855 11854 11839 0
-11855 -11854 -11839 0
11855 -11854 11839 0
11855 11854 -11839 0
-11856 11855 11840 0
-11856 -11855 -11840 0
11856 -11855 11840 0
11856 11855 -11840 0
-11857 11856 11841 0
-11857 -11856 -11841 0
11857 -11856 11841 0
11857 11856 -11841 0
-11857 0
-11858 11709 0
-11858 37 0
11858 -11709 -37 0
-11859 11711 0
-11859 37 0
11859 -11711 -37 0
-11860 11713 0
-11860 41 0
11860 -11713 -41 0
-11861 11715 0
-11861 34 0
11861 -11715 -34 0
-11862 11717 0
-11862 34 0
11862 -11717 -34 0
-11863 11719 0
-11863 35 0
11863 -11719 -35 0
-11864 11721 0
-11864 85 0
11864 -11721 -85 0
-11865 11723 0
-11865 85 0
11865 -11723 -85 0
-11866 11725 0
-11866 89 0
11866 -11725 -89 0
-11867 11727 0
-11867 82 0
11867 -11727 -82 0
-11868 11729 0
-11868 82 0
11868 -11729 -82 0
-11869 11731 0
-11869 83 0
11869 -11731 -83 0
-11870 11733 0
-11870 133 0
11870 -11733 -133 0
-11871 11735 0
-11871 133 0
11871 -11735 -133 0
-11872 11737 0
-11872 137 0
11872 -11737 -137 0
-11873 11739 0
-11873 181 0
11873 -11739 -181 0
-11874 11741 0
-11874 178 0
11874 -11741 -178 0
-11875 11858 11859 0
-11875 -11858 -11859 0
11875 -11858 11859 0
11875 11858 -11859 0
-11876 11875 11860 0
-11876 -11875 -11860 0
11876 -11875 11860 0
11876 11875 -11860 0
-11877 11876 11861 0
-11877 -11876 -11861 0
11877 -11876 11861 0
11877 11876 -11861 0
-11878 11877 11862 0
-11878 -11877 -11862 0
11878 -11877 11862 0
11878 11877 -11862 0
-11879 11878 11863 0
-11879 -11878 -11863 0
11879 -11878 11863 0
11879 11878 -11863 0
-11880 11879 11864 0
-11880 -11879 -11864 0
11880 -11879 11864 0
11880 11879 -11864 0
-11881 11880 11865 0
-11881 -11880 -11865 0
11881 -11880 11865 0
11881 11880 -11865 0
-11882 11881 11866 0
-11882 -11881 -11866 0
11882 -11881 11866 0
11882 11881 -11866 0
-11883 11882 11867 0
-11883 -11882 -11867 0
11883 -11882 11867 0
11883 11882 -11867 0
-11884 11883 11868 0
-11884 -11883 -11868 0
11884 -11883 11868 0
11884 11883 -11868 0
-11885 11884 11869 0
-11885 -11884 -11869 0
11885 -11884 11869 0
11885 11884 -11869 0
-11886 11885 11870 0
-11886 -11885 -11870 0
11886 -11885 11870 0
11886 11885 -11870 0
-11887 11886 11871 0
-11887 -11886 -11871 0
11887 -11886 11871 0
11887 11886 -11871 0
-11888 11887 11872 0
-11888 -11887 -11872 0
11888 -11887 11872 0
11888 11887 -11872 0
-11889 11888 11873 0
-11889 -11888 -11873 0
11889 -11888 11873 0
11889 11888 -11873 0
-11890 11889 11874 0
-11890 -11889 -11874 0
11890 -11889 11874 0
11890 11889 -11874 0
-11890 0
-11891 11709 0
-11891 38 0
11891 -11709 -38 0
-11892 11711 0
-11892 38 0
11892 -11711 -38 0
-11893 11713 0
-11893 43 0
11893 -11713 -43 0
-11894 11715 0
-11894 38 0
11894 -11715 -38 0
-11895 11717 0
-11895 38 0
11895 -11717 -38 0
-11896 11719 0
-11896 43 0
11896 -11719 -43 0
-11897 11721 0
-11897 86 0
11897 -11721 -86 0
-11898 11723 0
-11898 86 0
11898 -11723 -86 0
-11899 11725 0
-11899 91 0
11899 -11725 -91 0
-11900 11727 0
-11900 86 0
11900 -11727 -86 0
-11901 11729 0
-11901 86 0
11901 -11729 -86 0
-11902 11731 0
-11902 91 0
11902 -11731 -91 0
-11903 11733 0
-11903 134 0
11903 -11733 -134 0
-11904 11735 0
-11904 134 0
11904 -11735 -134 0
-11905 11737 0
-11905 139 0
11905 -11737 -139 0
-11906 11739 0
-11906 182 0
11906 -11739 -182 0
-11907 11741 0
-11907 182 0
11907 -11741 -182 0
-11908 11891 11892 0
-11908 -11891 -11892 0
11908 -11891 11892 0
11908 11891 -11892 0
-11909 11908 11893 0
-11909 -11908 -11893 0
11909 -11908 11893 0
11909 11908 -11893 0
-11910 11909 11894 0
-11910 -11909 -11894 0
11910 -11909 11894 0
11910 11909 -11894 0
-11911 11910 11895 0
-11911 -11910 -11895 0
11911 -11910 11895 0
11911 11910 -11895 0
-11912 11911 11896 0
-11912 -11911 -11896 0
11912 -11911 11896 0
11912 11911 -11896 0
-11913 11912 11897 0
-11913 -11912 -11897 0
11913 -11912 11897 0
11913 11912 -11897 0
-11914 11913 11898 0
-11914 -11913 -11898 0
11914 -11913 11898 0
11914 11913 -11898 0
-11915 11914 11899 0
-11915 -11914 -11899 0
11915 -11914 11899 0
11915 11914 -11899 0
-11916 11915 11900 0
-11916 -11915 -11900 0
11916 -11915 11900 0
11916 11915 -11900 0
-11917 11916 11901 0
-11917 -11916 -11901 0
11917 -11916 11901 0
11917 11916 -11901 0
-11918 11917 11902 0
-11918 -11917 -11902 0
11918 -11917 11902 0
11918 11917 -11902 0
-11919 11918 11903 0
-11919 -11918 -11903 0
11919 -11918 11903 0
11919 11918 -11903 0
-11920 11919 11904 0
-11920 -11919 -11904 0
11920 -11919 11904 0
11920 11919 -11904 0
-11921 11920 11905 0
-11921 -11920 -11905 0
11921 -11920 11905 0
11921 11920 -11905 0
-11922 11921 11906 0
-11922 -11921 -11906 0
11922 -11921 11906 0
11922 11921 -11906 0
-11923 11922 11907 0
-11923 -11922 -11907 0
11923 -11922 11907 0
11923 11922 -11907 0
-11923 0
-11924 11709 0
-11924 39 0
11924 -11709 -39 0
-11925 11711 0
-11925 40 0
11925 -11711 -40 0
-11926 11713 0
-11926 44 0
11926 -11713 -44 0
-11927 11715 0
-11927 42 0
11927 -11715 -42 0
-11928 11717 0
-11928 46 0
11928 -11717 -46 0
-11929 11719 0
-11929 47 0
11929 -11719 -47 0
-11930 11721 0
-11930 87 0
11930 -11721 -87 0
-11931 11723 0
-11931 88 0
11931 -11723 -88 0
-11932 11725 0
-11932 92 0
11932 -11725 -92 0
-11933 11727 0
-11933 90 0
11933 -11727 -90 0
-11934 11729 0
-11934 94 0
11934 -11729 -94 0
-11935 11731 0
-11935 95 0
11935 -11731 -95 0
-11936 11733 0
-11936 135 0
11936 -11733 -135 0
-11937 11735 0
-11937 136 0
11937 -11735 -136 0
-11938 11737 0
-11938 140 0
11938 -11737 -140 0
-11939 11739 0
-11939 183 0
11939 -11739 -183 0
-11940 11741 0
-11940 186 0
11940 -11741 -186 0
-11941 11924 11925 0
-11941 -11924 -11925 0
11941 -11924 11925 0
11941 11924 -11925 0
-11942 11941 11926 0
-11942 -11941 -11926 0
11942 -11941 11926 0
11942 11941 -11926 0
-11943 11942 11927 0
-11943 -11942 -11927 0
11943 -11942 11927 0
11943 11942 -11927 0
-11944 11943 11928 0
-11944 -11943 -11928 0
11944 -11943 11928 0
11944 11943 -11928 0
-11945 11944 11929 0
-11945 -11944 -11929 0
11945 -11944 11929 0
11945 11944 -11929 0
-11946 11945 11930 0
-11946 -11945 -11930 0
11946 -11945 11930 0
11946 11945 -11930 0
-11947 11946 11931 0
-11947 -11946 -11931 0
11947 -11946 11931 0
11947 11946 -11931 0
-11948 11947 11932 0
-11948 -11947 -11932 0
11948 -11947 11932 0
11948 11947 -11932 0
-11949 11948 11933 0
-11949 -11948 -11933 0
11949 -11948 11933 0
11949 11948 -11933 0
-11950 11949 11934 0
-11950 -11949 -11934 0
11950 -11949 11934 0
11950 11949 -11934 0
-11951 11950 11935 0
-11951 -11950 -11935 0
11951 -11950 11935 0
11951 11950 -11935 0
-11952 11951 11936 0
-11952 -11951 -11936 0
11952 -11951 11936 0
11952 11951 -11936 0
-11953 11952 11937 0
-11953 -11952 -11937 0
11953 -11952 11937 0
11953 11952 -11937 0
-11954 11953 11938 0
-11954 -11953 -11938 0
11954 -11953 11938 0
11954 11953 -11938 0
-11955 11954 11939 0
-11955 -11954 -11939 0
11955 -11954 11939 0
11955 11954 -11939 0
-11956 11955 11940 0
-11956 -11955 -11940 0
11956 -11955 11940 0
11956 11955 -11940 0
-11956 0
-11957 11709 0
-11957 40 0
11957 -11709 -40 0
-11958 11711 0
-11958 39 0
11958 -11711 -39 0
-11959 11713 0
-11959 42 0
11959 -11713 -42 0
-11960 11715 0
-11960 46 0
11960 -11715 -46 0
-11961 11717 0
-11961 42 0
11961 -11717 -42 0
-11962 11719 0
-11962 39 0
11962 -11719 -39 0
-11963 11721 0
-11963 88 0
11963 -11721 -88 0
-11964 11723 0
-11964 87 0
11964 -11723 -87 0
-11965 11725 0
-11965 90 0
11965 -11725 -90 0
-11966 11727 0
-11966 94 0
11966 -11727 -94 0
-11967 11729 0
-11967 90 0
11967 -11729 -90 0
-11968 11731 0
-11968 87 0
11968 -11731 -87 0
-11969 11733 0
-11969 136 0
11969 -11733 -136 0
-11970 11735 0
-11970 135 0
11970 -11735 -135 0
-11971 11737 0
-11971 138 0
11971 -11737 -138 0
-11972 11739 0
-11972 184 0
11972 -11739 -184 0
-11973 11741 0
-11973 190 0
11973 -11741 -190 0
-11974 11957 11958 0
-11974 -11957 -11958 0
11974 -11957 11958 0
11974 11957 -11958 0
-11975 11974 11959 0
-11975 -11974 -11959 0
11975 -11974 11959 0
11975 11974 -11959 0
-11976 11975 11960 0
-11976 -11975 -11960 0
11976 -11975 11960 0
11976 11975 -11960 0
-11977 11976 11961 0
-11977 -11976 -11961 0
11977 -11976 11961 0
11977 11976 -11961 0
-11978 11977 11962 0
-11978 -11977 -11962 0
11978 -11977 11962 0
11978 11977 -11962 0
-11979 11978 11963 0
-11979 -11978 -11963 0
11979 -11978 11963 0
11979 11978 -11963 0
-11980 11979 11964 0
-11980 -11979 -11964 0
11980 -11979 11964 0
11980 11979 -11964 0
-11981 11980 11965 0
-11981 -11980 -11965 0
11981 -11980 11965 0
11981 11980 -11965 0
-11982 11981 11966 0
-11982 -11981 -11966 0
11982 -11981 11966 0
11982 11981 -11966 0
-11983 11982 11967 0
-11983 -11982 -11967 0
11983 -11982 11967 0
11983 11982 -11967 0
-11984 11983 11968 0
-11984 -11983 -11968 0
11984 -11983 11968 0
11984 11983 -11968 0
-11985 11984 11969 0
-11985 -11984 -11969 0
11985 -11984 11969 0
11985 11984 -11969 0
-11986 11985 11970 0
-11986 -11985 -11970 0
11986 -11985 11970 0
11986 11985 -11970 0
-11987 11986 11971 0
-11987 -11986 -11971 0
11987 -11986 11971 0
11987 11986 -11971 0
-11988 11987 11972 0
-11988 -11987 -11972 0
11988 -11987 11972 0
11988 11987 -11972 0
-11989 11988 11973 0
-11989 -11988 -11973 0
11989 -11988 11973 0
11989 11988 -11973 0
-11989 0
-11990 11709 0
-11990 41 0
11990 -11709 -41 0
-11991 11711 0
-11991 45 0
11991 -11711 -45 0
-11992 11713 0
-11992 45 0
11992 -11713 -45 0
-11993 11715 0
-11993 35 0
11993 -11715 -35 0
-11994 11717 0
-11994 36 0
11994 -11717 -36 0
-11995 11719 0
-11995 36 0
11995 -11719 -36 0
-11996 11721 0
-11996 89 0
11996 -11721 -89 0
-11997 11723 0
-11997 93 0
11997 -11723 -93 0
-11998 11725 0
-11998 93 0
11998 -11725 -93 0
-11999 11727 0
-11999 83 0
11999 -11727 -83 0
-12000 11729 0
-12000 84 0
12000 -11729 -84 0
-12001 11731 0
-12001 84 0
12001 -11731 -84 0
-12002 11733 0
-12002 137 0
12002 -11733 -137 0
-12003 11735 0
-12003 141 0
12003 -11735 -141 0
-12004 11737 0
-12004 141 0
12004 -11737 -141 0
-12005 11739 0
-12005 185 0
12005 -11739 -185 0
-12006 11741 0
-12006 179 0
12006 -11741 -179 0
-12007 11990 11991 0
-12007 -11990 -11991 0
12007 -11990 11991 0
12007 11990 -11991 0
-12008 12007 11992 0
-12008 -12007 -11992 0
12008 -12007 11992 0
12008 12007 -11992 0
-12009 12008 11993 0
-12009 -12008 -11993 0
12009 -12008 11993 0
12009 12008 -11993 0
-12010 12009 11994 0
-12010 -12009 -11994 0
12010 -12009 11994 0
12010 12009 -11994 0
-12011 12010 11995 0
-12011 -12010 -11995 0
12011 -12010 11995 0
12011 12010 -11995 0
-12012 12011 11996 0
-12012 -12011 -11996 0
12012 -12011 11996 0
12012 12011 -11996 0
-12013 12012 11997 0
-12013 -12012 -11997 0
12013 -12012 11997 0
12013 12012 -11997 0
-12014 12013 11998 0
-12014 -12013 -11998 0
12014 -12013 11998 0
12014 12013 -11998 0
-12015 12014 11999 0
-12015 -12014 -11999 0
12015 -12014 11999 0
12015 12014 -11999 0
-12016 12015 12000 0
-12016 -12015 -12000 0
12016 -12015 12000 0
12016 12015 -12000 0
-12017 12016 12001 0
-12017 -12016 -12001 0
12017 -12016 12001 0
12017 12016 -12001 0
-12018 12017 12002 0
-12018 -12017 -12002 0
12018 -12017 12002 0
12018 12017 -12002 0
-12019 12018 12003 0
-12019 -12018 -12003 0
12019 -12018 12003 0
12019 12018 -12003 0
-12020 12019 12004 0
-12020 -12019 -12004 0
12020 -12019 12004 0
12020 12019 -12004 0
-12021 12020 12005 0
-12021 -12020 -12005 0
12021 -12020 12005 0
12021 12020 -12005 0
-12022 12021 12006 0
-12022 -12021 -12006 0
12022 -12021 12006 0
12022 12021 -12006 0
-12022 0
-12023 11709 0
-12023 42 0
12023 -11709 -42 0
-12024 11711 0
-12024 46 0
12024 -11711 -46 0
-12025 11713 0
-12025 47 0
12025 -11713 -47 0
-12026 11715 0
-12026 39 0
12026 -11715 -39 0
-12027 11717 0
-12027 40 0
12027 -11717 -40 0
-12028 11719 0
-12028 44 0
12028 -11719 -44 0
-12029 11721 0
-12029 90 0
12029 -11721 -90 0
-12030 11723 0
-12030 94 0
12030 -11723 -94 0
-12031 11725 0
-12031 95 0
12031 -11725 -95 0
-12032 11727 0
-12032 87 0
12032 -11727 -87 0
-12033 11729 0
-12033 88 0
12033 -11729 -88 0
-12034 11731 0
-12034 92 0
12034 -11731 -92 0
-12035 11733 0
-12035 138 0
12035 -11733 -138 0
-12036 11735 0
-12036 142 0
12036 -11735 -142 0
-12037 11737 0
-12037 143 0
12037 -11737 -143 0
-12038 11739 0
-12038 186 0
12038 -11739 -186 0
-12039 11741 0
-12039 183 0
12039 -11741 -183 0
-12040 12023 12024 0
-12040 -12023 -12024 0
12040 -12023 12024 0
12040 12023 -12024 0
-12041 12040 12025 0
-12041 -12040 -12025 0
12041 -12040 12025 0
12041 12040 -12025 0
-12042 12041 12026 0
-12042 -12041 -12026 0
12042 -12041 12026 0
12042 12041 -12026 0
-12043 12042 12027 0
-12043 -12042 -12027 0
12043 -12042 12027 0
12043 12042 -12027 0
-12044 12043 12028 0
-12044 -12043 -12028 0
12044 -12043 12028 0
12044 12043 -12028 0
-12045 12044 12029 0
-12045 -12044 -12029 0
12045 -12044 12029 0
12045 12044 -12029 0
-12046 12045 12030 0
-12046 -12045 -12030 0
12046 -12045 12030 0
12046 12045 -12030 0
-12047 12046 12031 0
-12047 -12046 -12031 0
12047 -12046 12031 0
12047 12046 -12031 0
-12048 12047 12032 0
-12048 -12047 -12032 0
12048 -12047 12032 0
12048 12047 -12032 0
-12049 12048 12033 0
-12049 -12048 -12033 0
12049 -12048 12033 0
12049 12048 -12033 0
-12050 12049 12034 0
-12050 -12049 -12034 0
12050 -12049 12034 0
12050 12049 -12034 0
-12051 12050 12035 0
-12051 -12050 -12035 0
12051 -12050 12035 0
12051 12050 -12035 0
-12052 12051 12036 0
-12052 -12051 -12036 0
12052 -12051 12036 0
12052 12051 -12036 0
-12053 12052 12037 0
-12053 -12052 -12037 0
12053 -12052 12037 0
12053 12052 -12037 0
-12054 12053 12038 0
-12054 -12053 -12038 0
12054 -12053 12038 0
12054 12053 -12038 0
-12055 12054 12039 0
-12055 -12054 -12039 0
12055 -12054 12039 0
12055 12054 -12039 0
-12055 0
-12056 11709 0
-12056 43 0
12056 -11709 -43 0
-12057 11711 0
-12057 48 0
12057 -11711 -48 0
-12058 11713 0
-12058 48 0
12058 -11713 -48 0
-12059 11715 0
-12059 43 0
12059 -11715 -43 0
-12060 11717 0
-12060 48 0
12060 -11717 -48 0
-12061 11719 0
-12061 48 0
12061 -11719 -48 0
-12062 11721 0
-12062 91 0
12062 -11721 -91 0
-12063 11723 0
-12063 96 0
12063 -11723 -96 0
-12064 11725 0
-12064 96 0
12064 -11725 -96 0
-12065 11727 0
-12065 91 0
12065 -11727 -91 0
-12066 11729 0
-12066 96 0
12066 -11729 -96 0
-12067 11731 0
-12067 96 0
12067 -11731 -96 0
-12068 11733 0
-12068 139 0
12068 -11733 -139 0
-12069 11735 0
-12069 144 0
12069 -11735 -144 0
-12070 11737 0
-12070 144 0
12070 -11737 -144 0
-12071 11739 0
-12071 187 0
12071 -11739 -187 0
-12072 11741 0
-12072 187 0
12072 -11741 -187 0
-12073 12056 12057 0
-12073 -12056 -12057 0
12073 -12056 12057 0
12073 12056 -12057 0
-12074 12073 12058 0
-12074 -12073 -12058 0
12074 -12073 12058 0
12074 12073 -12058 0
-12075 12074 12059 0
-12075 -12074 -12059 0
12075 -12074 12059 0
12075 12074 -12059 0
-12076 12075 12060 0
-12076 -12075 -12060 0
12076 -12075 12060 0
12076 12075 -12060 0
-12077 12076 12061 0
-12077 -12076 -12061 0
12077 -12076 12061 0
12077 12076 -12061 0
-12078 12077 12062 0
-12078 -12077 -12062 0
12078 -12077 12062 0
12078 12077 -12062 0
-12079 12078 12063 0
-12079 -12078 -12063 0
12079 -12078 12063 0
12079 12078 -12063 0
-12080 12079 12064 0
-12080 -12079 -12064 0
12080 -12079 12064 0
12080 12079 -12064 0
-12081 12080 12065 0
-12081 -12080 -12065 0
12081 -12080 12065 0
12081 12080 -12065 0
-12082 12081 12066 0
-12082 -12081 -12066 0
12082 -12081 12066 0
12082 12081 -12066 0
-12083 12082 12067 0
-12083 -12082 -12067 0
12083 -12082 12067 0
12083 12082 -12067 0
-12084 12083 12068 0
-12084 -12083 -12068 0
12084 -12083 12068 0
12084 12083 -12068 0
-12085 12084 12069 0
-12085 -12084 -12069 0
12085 -12084 12069 0
12085 12084 -12069 0
-12086 12085 12070 0
-12086 -12085 -12070 0
12086 -12085 12070 0
12086 12085 -12070 0
-12087 12086 12071 0
-12087 -12086 -12071 0
12087 -12086 12071 0
12087 12086 -12071 0
-12088 12087 12072 0
-12088 -12087 -12072 0
12088 -12087 12072 0
12088 12087 -12072 0
-12088 0
-12089 11709 0
-12089 44 0
12089 -11709 -44 0
-12090 11711 0
-12090 47 0
12090 -11711 -47 0
-12091 11713 0
-12091 46 0
12091 -11713 -46 0
-12092 11715 0
-12092 47 0
12092 -11715 -47 0
-12093 11717 0
-12093 44 0
12093 -11717 -44 0
-12094 11719 0
-12094 40 0
12094 -11719 -40 0
-12095 11721 0
-12095 92 0
12095 -11721 -92 0
-12096 11723 0
-12096 95 0
12096 -11723 -95 0
-12097 11725 0
-12097 94 0
12097 -11725 -94 0
-12098 11727 0
-12098 95 0
12098 -11727 -95 0
-12099 11729 0
-12099 92 0
12099 -11729 -92 0
-12100 11731 0
-12100 88 0
12100 -11731 -88 0
-12101 11733 0
-12101 140 0
12101 -11733 -140 0
-12102 11735 0
-12102 143 0
12102 -11735 -143 0
-12103 11737 0
-12103 142 0
12103 -11737 -142 0
-12104 11739 0
-12104 188 0
12104 -11739 -188 0
-12105 11741 0
-12105 191 0
12105 -11741 -191 0
-12106 12089 12090 0
-12106 -12089 -12090 0
12106 -12089 12090 0
12106 12089 -12090 0
-12107 12106 12091 0
-12107 -12106 -12091 0
12107 -12106 12091 0
12107 12106 -12091 0
-12108 12107 12092 0
-12108 -12107 -12092 0
12108 -12107 12092 0
12108 12107 -12092 0
-12109 12108 12093 0
-12109 -12108 -12093 0
12109 -12108 12093 0
12109 12108 -12093 0
-12110 12109 12094 0
-12110 -12109 -12094 0
12110 -12109 12094 0
12110 12109 -12094 0
-12111 12110 12095 0
-12111 -12110 -12095 0
12111 -12110 12095 0
12111 12110 -12095 0
-12112 12111 12096 0
-12112 -12111 -12096 0
12112 -12111 12096 0
12112 12111 -12096 0
-12113 12112 12097 0
-12113 -12112 -12097 0
12113 -12112 12097 0
12113 12112 -12097 0
-12114 12113 12098 0
-12114 -12113 -12098 0
12114 -12113 12098 0
12114 12113 -12098 0
-12115 12114 12099 0
-12115 -12114 -12099 0
12115 -12114 12099 0
12115 12114 -12099 0
-12116 12115 12100 0
-12116 -12115 -12100 0
12116 -12115 12100 0
12116 12115 -12100 0
-12117 12116 12101 0
-12117 -12116 -12101 0
12117 -12116 12101 0
12117 12116 -12101 0
-12118 12117 12102 0
-12118 -12117 -12102 0
12118 -12117 12102 0
12118 12117 -12102 0
-12119 12118 12103 0
-12119 -12118 -12103 0
12119 -12118 12103 0
12119 12118 -12103 0
-12120 12119 12104 0
-12120 -12119 -12104 0
12120 -12119 12104 0
12120 12119 -12104 0
-12121 12120 12105 0
-12121 -12120 -12105 0
12121 -12120 12105 0
12121 12120 -12105 0
-12121 0
-12122 11709 0
-12122 45 0
12122 -11709 -45 0
-12123 11711 0
-12123 41 0
12123 -11711 -41 0
-12124 11713 0
-12124 37 0
12124 -11713 -37 0
-12125 11715 0
-12125 36 0
12125 -11715 -36 0
-12126 11717 0
-12126 35 0
12126 -11717 -35 0
-12127 11719 0
-12127 34 0
12127 -11719 -34 0
-12128 11721 0
-12128 93 0
12128 -11721 -93 0
-12129 11723 0
-12129 89 0
12129 -11723 -89 0
-12130 11725 0
-12130 85 0
12130 -11725 -85 0
-12131 11727 0
-12131 84 0
12131 -11727 -84 0
-12132 11729 0
-12132 83 0
12132 -11729 -83 0
-12133 11731 0
-12133 82 0
12133 -11731 -82 0
-12134 11733 0
-12134 141 0
12134 -11733 -141 0
-12135 11735 0
-12135 137 0
12135 -11735 -137 0
-12136 11737 0
-12136 133 0
12136 -11737 -133 0
-12137 11739 0
-12137 189 0
12137 -11739 -189 0
-12138 11741 0
-12138 180 0
12138 -11741 -180 0
-12139 12122 12123 0
-12139 -12122 -12123 0
12139 -12122 12123 0
12139 12122 -12123 0
-12140 12139 12124 0
-12140 -12139 -12124 0
12140 -12139 12124 0
12140 12139 -12124 0
-12141 12140 12125 0
-12141 -12140 -12125 0
12141 -12140 12125 0
12141 12140 -12125 0
-12142 12141 12126 0
-12142 -12141 -12126 0
12142 -12141 12126 0
12142 12141 -12126 0
-12143 12142 12127 0
-12143 -12142 -12127 0
12143 -12142 12127 0
12143 12142 -12127 0
-12144 12143 12128 0
-12144 -12143 -12128 0
12144 -12143 12128 0
12144 12143 -12128 0
-12145 12144 12129 0
-12145 -12144 -12129 0
12145 -12144 12129 0
12145 12144 -12129 0
-12146 12145 12130 0
-12146 -12145 -12130 0
12146 -12145 12130 0
12146 12145 -12130 0
-12147 12146 12131 0
-12147 -12146 -12131 0
12147 -12146 12131 0
12147 12146 -12131 0
-12148 12147 12132 0
-12148 -12147 -12132 0
12148 -12147 12132 0
12148 12147 -12132 0
-12149 12148 12133 0
-12149 -12148 -12133 0
12149 -12148 12133 0
12149 12148 -12133 0
-12150 12149 12134 0
-12150 -12149 -12134 0
12150 -12149 12134 0
12150 12149 -12134 0
-12151 12150 12135 0
-12151 -12150 -12135 0
12151 -12150 12135 0
12151 12150 -12135 0
-12152 12151 12136 0
-12152 -12151 -12136 0
12152 -12151 12136 0
12152 12151 -12136 0
-12153 12152 12137 0
-12153 -12152 -12137 0
12153 -12152 12137 0
12153 12152 -12137 0
-12154 12153 12138 0
-12154 -12153 -12138 0
12154 -12153 12138 0
12154 12153 -12138 0
-12154 0
-12155 11709 0
-12155 46 0
12155 -11709 -46 0
-12156 11711 0
-12156 42 0
12156 -11711 -42 0
-12157 11713 0
-12157 39 0
12157 -11713 -39 0
-12158 11715 0
-12158 40 0
12158 -11715 -40 0
-12159 11717 0
-12159 39 0
12159 -11717 -39 0
-12160 11719 0
-12160 42 0
12160 -11719 -42 0
-12161 11721 0
-12161 94 0
12161 -11721 -94 0
-12162 11723 0
-12162 90 0
12162 -11723 -90 0
-12163 11725 0
-12163 87 0
12163 -11725 -87 0
-12164 11727 0
-12164 88 0
12164 -11727 -88 0
-12165 11729 0
-12165 87 0
12165 -11729 -87 0
-12166 11731 0
-12166 90 0
12166 -11731 -90 0
-12167 11733 0
-12167 142 0
12167 -11733 -142 0
-12168 11735 0
-12168 138 0
12168 -11735 -138 0
-12169 11737 0
-12169 135 0
12169 -11737 -135 0
-12170 11739 0
-12170 190 0
12170 -11739 -190 0
-12171 11741 0
-12171 184 0
12171 -11741 -184 0
-12172 12155 12156 0
-12172 -12155 -12156 0
12172 -12155 12156 0
12172 12155 -12156 0
-12173 12172 12157 0
-12173 -12172 -12157 0
12173 -12172 12157 0
12173 12172 -12157 0
-12174 12173 12158 0
-12174 -12173 -12158 0
12174 -12173 12158 0
12174 12173 -12158 0
-12175 12174 12159 0
-12175 -12174 -12159 0
12175 -12174 12159 0
12175 12174 -12159 0
-12176 12175 12160 0
-12176 -12175 -12160 0
12176 -12175 12160 0
12176 12175 -12160 0
-12177 12176 12161 0
-12177 -12176 -12161 0
12177 -12176 12161 0
12177 12176 -12161 0
-12178 12177 12162 0
-12178 -12177 -12162 0
12178 -12177 12162 0
12178 12177 -12162 0
-12179 12178 12163 0
-12179 -12178 -12163 0
12179 -12178 12163 0
12179 12178 -12163 0
-12180 12179 12164 0
-12180 -12179 -12164 0
12180 -12179 12164 0
12180 12179 -12164 0
-12181 12180 12165 0
-12181 -12180 -12165 0
12181 -12180 12165 0
12181 12180 -12165 0
-12182 12181 12166 0
-12182 -12181 -12166 0
12182 -12181 12166 0
12182 12181 -12166 0
-12183 12182 12167 0
-12183 -12182 -12167 0
12183 -12182 12167 0
12183 12182 -12167 0
-12184 12183 12168 0
-12184 -12183 -12168 0
12184 -12183 12168 0
12184 12183 -12168 0
-12185 12184 12169 0
-12185 -12184 -12169 0
12185 -12184 12169 0
12185 12184 -12169 0
-12186 12185 12170 0
-12186 -12185 -12170 0
12186 -12185 12170 0
12186 12185 -12170 0
-12187 12186 12171 0
-12187 -12186 -12171 0
12187 -12186 12171 0
12187 12186 -12171 0
-12187 0
-12188 11709 0
-12188 47 0
12188 -11709 -47 0
-12189 11711 0
-12189 44 0
12189 -11711 -44 0
-12190 11713 0
-12190 40 0
12190 -11713 -40 0
-12191 11715 0
-12191 44 0
12191 -11715 -44 0
-12192 11717 0
-12192 47 0
12192 -11717 -47 0
-12193 11719 0
-12193 46 0
12193 -11719 -46 0
-12194 11721 0
-12194 95 0
12194 -11721 -95 0
-12195 11723 0
-12195 92 0
12195 -11723 -92 0
-12196 11725 0
-12196 88 0
12196 -11725 -88 0
-12197 11727 0
-12197 92 0
12197 -11727 -92 0
-12198 11729 0
-12198 95 0
12198 -11729 -95 0
-12199 11731 0
-12199 94 0
12199 -11731 -94 0
-12200 11733 0
-12200 143 0
12200 -11733 -143 0
-12201 11735 0
-12201 140 0
12201 -11735 -140 0
-12202 11737 0
-12202 136 0
12202 -11737 -136 0
-12203 11739 0
-12203 191 0
12203 -11739 -191 0
-12204 11741 0
-12204 188 0
12204 -11741 -188 0
-12205 12188 12189 0
-12205 -12188 -12189 0
12205 -12188 12189 0
12205 12188 -12189 0
-12206 12205 12190 0
-12206 -12205 -12190 0
12206 -12205 12190 0
12206 12205 -12190 0
-12207 12206 12191 0
-12207 -12206 -12191 0
12207 -12206 12191 0
12207 12206 -12191 0
-12208 12207 12192 0
-12208 -12207 -12192 0
12208 -12207 12192 0
12208 12207 -12192 0
-12209 12208 12193 0
-12209 -12208 -12193 0
12209 -12208 12193 0
12209 12208 -12193 0
-12210 12209 12194 0
-12210 -12209 -12194 0
12210 -12209 12194 0
12210 12209 -12194 0
-12211 12210 12195 0
-12211 -12210 -12195 0
12211 -12210 12195 0
12211 12210 -12195 0
-12212 12211 12196 0
-12212 -12211 -12196 0
12212 -12211 12196 0
12212 12211 -12196 0
-12213 12212 12197 0
-12213 -12212 -12197 0
12213 -12212 12197 0
12213 12212 -12197 0
-12214 12213 12198 0
-12214 -12213 -12198 0
12214 -12213 12198 0
12214 12213 -12198 0
-12215 12214 12199 0
-12215 -12214 -12199 0
12215 -12214 12199 0
12215 12214 -12199 0
-12216 12215 12200 0
-12216 -12215 -12200 0
12216 -12215 12200 0
12216 12215 -12200 0
-12217 12216 12201 0
-12217 -12216 -12201 0
12217 -12216 12201 0
12217 12216 -12201 0
-12218 12217 12202 0
-12218 -12217 -12202 0
12218 -12217 12202 0
12218 12217 -12202 0
-12219 12218 12203 0
-12219 -12218 -12203 0
12219 -12218 12203 0
12219 12218 -12203 0
-12220 12219 12204 0
-12220 -12219 -12204 0
12220 -12219 12204 0
12220 12219 -12204 0
-12220 0
-12221 11709 0
-12221 48 0
12221 -11709 -48 0
-12222 11711 0
-12222 43 0
12222 -11711 -43 0
-12223 11713 0
-12223 38 0
12223 -11713 -38 0
-12224 11715 0
-12224 48 0
12224 -11715 -48 0
-12225 11717 0
-12225 43 0
12225 -11717 -43 0
-12226 11719 0
-12226 38 0
12226 -11719 -38 0
-12227 11721 0
-12227 96 0
12227 -11721 -96 0
-12228 11723 0
-12228 91 0
12228 -11723 -91 0
-12229 11725 0
-12229 86 0
12229 -11725 -86 0
-12230 11727 0
-12230 96 0
12230 -11727 -96 0
-12231 11729 0
-12231 91 0
12231 -11729 -91 0
-12232 11731 0
-12232 86 0
12232 -11731 -86 0
-12233 11733 0
-12233 144 0
12233 -11733 -144 0
-12234 11735 0
-12234 139 0
12234 -11735 -139 0
-12235 11737 0
-12235 134 0
12235 -11737 -134 0
-12236 11739 0
-12236 192 0
12236 -11739 -192 0
-12237 11741 0
-12237 192 0
12237 -11741 -192 0
-12238 12221 12222 0
-12238 -12221 -12222 0
12238 -12221 12222 0
12238 12221 -12222 0
-12239 12238 12223 0
-12239 -12238 -12223 0
12239 -12238 12223 0
12239 12238 -12223 0
-12240 12239 12224 0
-12240 -12239 -12224 0
12240 -12239 12224 0
12240 12239 -12224 0
-12241 12240 12225 0
-12241 -12240 -12225 0
12241 -12240 12225 0
12241 12240 -12225 0
-12242 12241 12226 0
-12242 -12241 -12226 0
12242 -12241 12226 0
12242 12241 -12226 0
-12243 12242 12227 0
-12243 -12242 -12227 0
12243 -12242 12227 0
12243 12242 -12227 0
-12244 12243 12228 0
-12244 -12243 -12228 0
12244 -12243 12228 0
12244 12243 -12228 0
-12245 12244 12229 0
-12245 -12244 -12229 0
12245 -12244 12229 0
12245 12244 -12229 0
-12246 12245 12230 0
-12246 -12245 -12230 0
12246 -12245 12230 0
12246 12245 -12230 0
-12247 12246 12231 0
-12247 -12246 -12231 0
12247 -12246 12231 0
12247 12246 -12231 0
-12248 12247 12232 0
-12248 -12247 -12232 0
12248 -12247 12232 0
12248 12247 -12232 0
-12249 12248 12233 0
-12249 -12248 -12233 0
12249 -12248 12233 0
12249 12248 -12233 0
-12250 12249 12234 0
-12250 -12249 -12234 0
12250 -12249 12234 0
12250 12249 -12234 0
-12251 12250 12235 0
-12251 -12250 -12235 0
12251 -12250 12235 0
12251 12250 -12235 0
-12252 12251 12236 0
-12252 -12251 -12236 0
12252 -12251 12236 0
12252 12251 -12236 0
-12253 12252 12237 0
-12253 -12252 -12237 0
12253 -12252 12237 0
12253 12252 -12237 0
-12253 0
-12254 8 0
-12254 30 0
12254 -8 -30 0
-12255 12254 0
-12255 33 0
12255 -12254 -33 0
-12256 12 0
-12256 31 0
12256 -12 -31 0
-12257 12256 0
-12257 33 0
12257 -12256 -33 0
-12258 56 0
-12258 78 0
12258 -56 -78 0
-12259 12258 0
-12259 81 0
12259 -12258 -81 0
-12260 60 0
-12260 79 0
12260 -60 -79 0
-12261 12260 0
-12261 81 0
12261 -12260 -81 0
-12262 104 0
-12262 126 0
12262 -104 -126 0
-12263 12262 0
-12263 129 0
12263 -12262 -129 0
-12264 108 0
-12264 127 0
12264 -108 -127 0
-12265 12264 0
-12265 129 0
12265 -12264 -129 0
-12266 152 0
-12266 174 0
12266 -152 -174 0
-12267 12266 0
-12267 177 0
12267 -12266 -177 0
-12268 12255 12255 0
-12268 -12255 -12255 0
12268 -12255 12255 0
12268 12255 -12255 0
-12269 12268 12257 0
-12269 -12268 -12257 0
12269 -12268 12257 0
12269 12268 -12257 0
-12270 12269 12255 0
-12270 -12269 -12255 0
12270 -12269 12255 0
12270 12269 -12255 0
-12271 12270 12255 0
-12271 -12270 -12255 0
12271 -12270 12255 0
12271 12270 -12255 0
-12272 12271 12257 0
-12272 -12271 -12257 0
12272 -12271 12257 0
12272 12271 -12257 0
-12273 12272 12259 0
-12273 -12272 -12259 0
12273 -12272 12259 0
12273 12272 -12259 0
-12274 12273 12259 0
-12274 -12273 -12259 0
12274 -12273 12259 0
12274 12273 -12259 0
-12275 12274 12261 0
-12275 -12274 -12261 0
12275 -12274 12261 0
12275 12274 -12261 0
-12276 12275 12259 0
-12276 -12275 -12259 0
12276 -12275 12259 0
12276 12275 -12259 0
-12277 12276 12259 0
-12277 -12276 -12259 0
12277 -12276 12259 0
12277 12276 -12259 0
-12278 12277 12261 0
-12278 -12277 -12261 0
12278 -12277 12261 0
12278 12277 -12261 0
-12279 12278 12263 0
-12279 -12278 -12263 0
12279 -12278 12263 0
12279 12278 -12263 0
-12280 12279 12263 0
-12280 -12279 -12263 0
12280 -12279 12263 0
12280 12279 -12263 0
-12281 12280 12265 0
-12281 -12280 -12265 0
12281 -12280 12265 0
12281 12280 -12265 0
-12282 12281 12267 0
-12282 -12281 -12267 0
12282 -12281 12267 0
12282 12281 -12267 0
-12283 12282 12267 0
-12283 -12282 -12267 0
12283 -12282 12267 0
12283 12282 -12267 0
-12283 0
-12284 12254 0
-12284 34 0
12284 -12254 -34 0
-12285 12256 0
-12285 35 0
12285 -12256 -35 0
-12286 12254 0
-12286 37 0
12286 -12254 -37 0
-12287 12256 0
-12287 41 0
12287 -12256 -41 0
-12288 12258 0
-12288 82 0
12288 -12258 -82 0
-12289 12260 0
-12289 83 0
12289 -12260 -83 0
-12290 12258 0
-12290 85 0
12290 -12258 -85 0
-12291 12260 0
-12291 89 0
12291 -12260 -89 0
-12292 12262 0
-12292 130 0
12292 -12262 -130 0
-12293 12264 0
-12293 131 0
12293 -12264 -131 0
-12294 12266 0
-12294 178 0
12294 -12266 -178 0
-12295 12266 0
-12295 181 0
12295 -12266 -181 0
-12296 12284 12284 0
-12296 -12284 -12284 0
12296 -12284 12284 0
12296 12284 -12284 0
-12297 12296 12285 0
-12297 -12296 -12285 0
12297 -12296 12285 0
12297 12296 -12285 0
-12298 12297 12286 0
-12298 -12297 -12286 0
12298 -12297 12286 0
12298 12297 -12286 0
-12299 12298 12286 0
-12299 -12298 -12286 0
12299 -12298 12286 0
12299 12298 -12286 0
-12300 12299 12287 0
-12300 -12299 -12287 0
12300 -12299 12287 0
12300 12299 -12287 0
-12301 12300 12288 0
-12301 -12300 -12288 0
12301 -12300 12288 0
12301 12300 -12288 0
-12302 12301 12288 0
-12302 -12301 -12288 0
12302 -12301 12288 0
12302 12301 -12288 0
-12303 12302 12289 0
-12303 -12302 -12289 0
12303 -12302 12289 0
12303 12302 -12289 0
-12304 12303 12290 0
-12304 -12303 -12290 0
12304 -12303 12290 0
12304 12303 -12290 0
-12305 12304 12290 0
-12305 -12304 -12290 0
12305 -12304 12290 0
12305 12304 -12290 0
-12306 12305 12291 0
-12306 -12305 -12291 0
12306 -12305 12291 0
12306 12305 -12291 0
-12307 12306 12292 0
-12307 -12306 -12292 0
12307 -12306 12292 0
12307 12306 -12292 0
-12308 12307 12292 0
-12308 -12307 -12292 0
12308 -12307 12292 0
12308 12307 -12292 0
-12309 12308 12293 0
-12309 -12308 -12293 0
12309 -12308 12293 0
12309 12308 -12293 0
-12310 12309 12294 0
-12310 -12309 -12294 0
12310 -12309 12294 0
12310 12309 -12294 0
-12311 12310 12295 0
-12311 -12310 -12295 0
12311 -12310 12295 0
12311 12310 -12295 0
-12311 0
-12312 12254 0
-12312 35 0
12312 -12254 -35 0
-12313 12254 0
-12313 36 0
12313 -12254 -36 0
-12314 12256 0
-12314 36 0
12314 -12256 -36 0
-12315 12254 0
-12315 41 0
12315 -12254 -41 0
-12316 12254 0
-12316 45 0
12316 -12254 -45 0
-12317 12256 0
-12317 45 0
12317 -12256 -45 0
-12318 12258 0
-12318 83 0
12318 -12258 -83 0
-12319 12258 0
-12319 84 0
12319 -12258 -84 0
-12320 12260 0
-12320 84 0
12320 -12260 -84 0
-12321 12258 0
-12321 89 0
12321 -12258 -89 0
-12322 12258 0
-12322 93 0
12322 -12258 -93 0
-12323 12260 0
-12323 93 0
12323 -12260 -93 0
-12324 12262 0
-12324 131 0
12324 -12262 -131 0
-12325 12262 0
-12325 132 0
12325 -12262 -132 0
-12326 12264 0
-12326 132 0
12326 -12264 -132 0
-12327 12266 0
-12327 179 0
12327 -12266 -179 0
-12328 12266 0
-12328 185 0
12328 -12266 -185 0
-12329 12312 12313 0
-12329 -12312 -12313 0
12329 -12312 12313 0
12329 12312 -12313 0
-12330 12329 12314 0
-12330 -12329 -12314 0
12330 -12329 12314 0
12330 12329 -12314 0
-12331 12330 12315 0
-12331 -12330 -12315 0
12331 -12330 12315 0
12331 12330 -12315 0
-12332 12331 12316 0
-12332 -12331 -12316 0
12332 -12331 12316 0
12332 12331 -12316 0
-12333 12332 12317 0
-12333 -12332 -12317 0
12333 -12332 12317 0
12333 12332 -12317 0
-12334 12333 12318 0
-12334 -12333 -12318 0
12334 -12333 12318 0
12334 12333 -12318 0
-12335 12334 12319 0
-12335 -12334 -12319 0
12335 -12334 12319 0
12335 12334 -12319 0
-12336 12335 12320 0
-12336 -12335 -12320 0
12336 -12335 12320 0
12336 12335 -12320 0
-12337 12336 12321 0
-12337 -12336 -12321 0
12337 -12336 12321 0
12337 12336 -12321 0
-12338 12337 12322 0
-12338 -12337 -12322 0
12338 -12337 12322 0
12338 12337 -12322 0
-12339 12338 12323 0
-12339 -12338 -12323 0
12339 -12338 12323 0
12339 12338 -12323 0
-12340 12339 12324 0
-12340 -12339 -12324 0
12340 -12339 12324 0
12340 12339 -12324 0
-12341 12340 12325 0
-12341 -12340 -12325 0
12341 -12340 12325 0
12341 12340 -12325 0
-12342 12341 12326 0
-12342 -12341 -12326 0
12342 -12341 12326 0
12342 12341 -12326 0
-12343 12342 12327 0
-12343 -12342 -12327 0
12343 -12342 12327 0
12343 12342 -12327 0
-12344 12343 12328 0
-12344 -12343 -12328 0
12344 -12343 12328 0
12344 12343 -12328 0
-12344 0
-12345 12254 0
-12345 38 0
12345 -12254 -38 0
-12346 12256 0
-12346 43 0
12346 -12256 -43 0
-12347 12258 0
-12347 86 0
12347 -12258 -86 0
-12348 12260 0
-12348 91 0
12348 -12260 -91 0
-12349 12262 0
-12349 134 0
12349 -12262 -134 0
-12350 12264 0
-12350 139 0
12350 -12264 -139 0
-12351 12266 0
-12351 182 0
12351 -12266 -182 0
-12352 12345 12345 0
-12352 -12345 -12345 0
12352 -12345 12345 0
12352 12345 -12345 0
-12353 12352 12346 0
-12353 -12352 -12346 0
12353 -12352 12346 0
12353 12352 -12346 0
-12354 12353 12345 0
-12354 -12353 -12345 0
12354 -12353 12345 0
12354 12353 -12345 0
-12355 12354 12345 0
-12355 -12354 -12345 0
12355 -12354 12345 0
12355 12354 -12345 0
-12356 12355 12346 0
-12356 -12355 -12346 0
12356 -12355 12346 0
12356 12355 -12346 0
-12357 12356 12347 0
-12357 -12356 -12347 0
12357 -12356 12347 0
12357 12356 -12347 0
-12358 12357 12347 0
-12358 -12357 -12347 0
12358 -12357 12347 0
12358 12357 -12347 0
-12359 12358 12348 0
-12359 -12358 -12348 0
12359 -12358 12348 0
12359 12358 -12348 0
-12360 12359 12347 0
-12360 -12359 -12347 0
12360 -12359 12347 0
12360 12359 -12347 0
-12361 12360 12347 0
-12361 -12360 -12347 0
12361 -12360 12347 0
12361 12360 -12347 0
-12362 12361 12348 0
-12362 -12361 -12348 0
12362 -12361 12348 0
12362 12361 -12348 0
-12363 12362 12349 0
-12363 -12362 -12349 0
12363 -12362 12349 0
12363 12362 -12349 0
-12364 12363 12349 0
-12364 -12363 -12349 0
12364 -12363 12349 0
12364 12363 -12349 0
-12365 12364 12350 0
-12365 -12364 -12350 0
12365 -12364 12350 0
12365 12364 -12350 0
-12366 12365 12351 0
-12366 -12365 -12351 0
12366 -12365 12351 0
12366 12365 -12351 0
-12367 12366 12351 0
-12367 -12366 -12351 0
12367 -12366 12351 0
12367 12366 -12351 0
-12367 0
-12368 12254 0
-12368 39 0
12368 -12254 -39 0
-12369 12254 0
-12369 40 0
12369 -12254 -40 0
-12370 12256 0
-12370 44 0
12370 -12256 -44 0
-12371 12254 0
-12371 42 0
12371 -12254 -42 0
-12372 12254 0
-12372 46 0
12372 -12254 -46 0
-12373 12256 0
-12373 47 0
12373 -12256 -47 0
-12374 12258 0
-12374 87 0
12374 -12258 -87 0
-12375 12258 0
-12375 88 0
12375 -12258 -88 0
-12376 12260 0
-12376 92 0
12376 -12260 -92 0
-12377 12258 0
-12377 90 0
12377 -12258 -90 0
-12378 12258 0
-12378 94 0
12378 -12258 -94 0
-12379 12260 0
-12379 95 0
12379 -12260 -95 0
-12380 12262 0
-12380 135 0
12380 -12262 -135 0
-12381 12262 0
-12381 136 0
12381 -12262 -136 0
-12382 12264 0
-12382 140 0
12382 -12264 -140 0
-12383 12266 0
-12383 183 0
12383 -12266 -183 0
-12384 12266 0
-12384 186 0
12384 -12266 -186 0
-12385 12368 12369 0
-12385 -12368 -12369 0
12385 -12368 12369 0
12385 12368 -12369 0
-12386 12385 12370 0
-12386 -12385 -12370 0
12386 -12385 12370 0
12386 12385 -12370 0
-12387 12386 12371 0
-12387 -12386 -12371 0
12387 -12386 12371 0
12387 12386 -12371 0
-12388 12387 12372 0
-12388 -12387 -12372 0
12388 -12387 12372 0
12388 12387 -12372 0
-12389 12388 12373 0
-12389 -12388 -12373 0
12389 -12388 12373 0
12389 12388 -12373 0
-12390 12389 12374 0
-12390 -12389 -12374 0
12390 -12389 12374 0
12390 12389 -12374 0
-12391 12390 12375 0
-12391 -12390 -12375 0
12391 -12390 12375 0
12391 12390 -12375 0
-12392 12391 12376 0
-12392 -12391 -12376 0
12392 -12391 12376 0
12392 12391 -12376 0
-12393 12392 12377 0
-12393 -12392 -12377 0
12393 -12392 12377 0
12393 12392 -12377 0
-12394 12393 12378 0
-12394 -12393 -12378 0
12394 -12393 12378 0
12394 12393 -12378 0
-12395 12394 12379 0
-12395 -12394 -12379 0
12395 -12394 12379 0
12395 12394 -12379 0
-12396 12395 12380 0
-12396 -12395 -12380 0
12396 -12395 12380 0
12396 12395 -12380 0
-12397 12396 12381 0
-12397 -12396 -12381 0
12397 -12396 12381 0
12397 12396 -12381 0
-12398 12397 12382 0
-12398 -12397 -12382 0
12398 -12397 12382 0
12398 12397 -12382 0
-12399 12398 12383 0
-12399 -12398 -12383 0
12399 -12398 12383 0
12399 12398 -12383 0
-12400 12399 12384 0
-12400 -12399 -12384 0
12400 -12399 12384 0
12400 12399 -12384 0
-12400 0
-12401 12254 0
-12401 43 0
12401 -12254 -43 0
-12402 12254 0
-12402 48 0
12402 -12254 -48 0
-12403 12256 0
-12403 48 0
12403 -12256 -48 0
-12404 12258 0
-12404 91 0
12404 -12258 -91 0
-12405 12258 0
-12405 96 0
12405 -12258 -96 0
-12406 12260 0
-12406 96 0
12406 -12260 -96 0
-12407 12262 0
-12407 139 0
12407 -12262 -139 0
-12408 12262 0
-12408 144 0
12408 -12262 -144 0
-12409 12264 0
-12409 144 0
12409 -12264 -144 0
-12410 12266 0
-12410 187 0
12410 -12266 -187 0
-12411 12401 12402 0
-12411 -12401 -12402 0
12411 -12401 12402 0
12411 12401 -12402 0
-12412 12411 12403 0
-12412 -12411 -12403 0
12412 -12411 12403 0
12412 12411 -12403 0
-12413 12412 12401 0
-12413 -12412 -12401 0
12413 -12412 12401 0
12413 12412 -12401 0
-12414 12413 12402 0
-12414 -12413 -12402 0
12414 -12413 12402 0
12414 12413 -12402 0
-12415 12414 12403 0
-12415 -12414 -12403 0
12415 -12414 12403 0
12415 12414 -12403 0
-12416 12415 12404 0
-12416 -12415 -12404 0
12416 -12415 12404 0
12416 12415 -12404 0
-12417 12416 12405 0
-12417 -12416 -12405 0
12417 -12416 12405 0
12417 12416 -12405 0
-12418 12417 12406 0
-12418 -12417 -12406 0
12418 -12417 12406 0
12418 12417 -12406 0
-12419 12418 12404 0
-12419 -12418 -12404 0
12419 -12418 12404 0
12419 12418 -12404 0
-12420 12419 12405 0
-12420 -12419 -12405 0
12420 -12419 12405 0
12420 12419 -12405 0
-12421 12420 12406 0
-12421 -12420 -12406 0
12421 -12420 12406 0
12421 12420 -12406 0
-12422 12421 12407 0
-12422 -12421 -12407 0
12422 -12421 12407 0
12422 12421 -12407 0
-12423 12422 12408 0
-12423 -12422 -12408 0
12423 -12422 12408 0
12423 12422 -12408 0
-12424 12423 12409 0
-12424 -12423 -12409 0
12424 -12423 12409 0
12424 12423 -12409 0
-12425 12424 12410 0
-12425 -12424 -12410 0
12425 -12424 12410 0
12425 12424 -12410 0
-12426 12425 12410 0
-12426 -12425 -12410 0
12426 -12425 12410 0
12426 12425 -12410 0
-12426 0
-12427 12254 0
-12427 44 0
12427 -12254 -44 0
-12428 12254 0
-12428 47 0
12428 -12254 -47 0
-12429 12256 0
-12429 46 0
12429 -12256 -46 0
-12430 12256 0
-12430 40 0
12430 -12256 -40 0
-12431 12258 0
-12431 92 0
12431 -12258 -92 0
-12432 12258 0
-12432 95 0
12432 -12258 -95 0
-12433 12260 0
-12433 94 0
12433 -12260 -94 0
-12434 12260 0
-12434 88 0
12434 -12260 -88 0
-12435 12262 0
-12435 140 0
12435 -12262 -140 0
-12436 12262 0
-12436 143 0
12436 -12262 -143 0
-12437 12264 0
-12437 142 0
12437 -12264 -142 0
-12438 12266 0
-12438 188 0
12438 -12266 -188 0
-12439 12266 0
-12439 191 0
12439 -12266 -191 0
-12440 12427 12428 0
-12440 -12427 -12428 0
12440 -12427 12428 0
12440 12427 -12428 0
-12441 12440 12429 0
-12441 -12440 -12429 0
12441 -12440 12429 0
12441 12440 -12429 0
-12442 12441 12428 0
-12442 -12441 -12428 0
12442 -12441 12428 0
12442 12441 -12428 0
-12443 12442 12427 0
-12443 -12442 -12427 0
12443 -12442 12427 0
12443 12442 -12427 0
-12444 12443 12430 0
-12444 -12443 -12430 0
12444 -12443 12430 0
12444 12443 -12430 0
-12445 12444 12431 0
-12445 -12444 -12431 0
12445 -12444 12431 0
12445 12444 -12431 0
-12446 12445 12432 0
-12446 -12445 -12432 0
12446 -12445 12432 0
12446 12445 -12432 0
-12447 12446 12433 0
-12447 -12446 -12433 0
12447 -12446 12433 0
12447 12446 -12433 0
-12448 12447 12432 0
-12448 -12447 -12432 0
12448 -12447 12432 0
12448 12447 -12432 0
-12449 12448 12431 0
-12449 -12448 -12431 0
12449 -12448 12431 0
12449 12448 -12431 0
-12450 12449 12434 0
-12450 -12449 -12434 0
12450 -12449 12434 0
12450 12449 -12434 0
-12451 12450 12435 0
-12451 -12450 -12435 0
12451 -12450 12435 0
12451 12450 -12435 0
-12452 12451 12436 0
-12452 -12451 -12436 0
12452 -12451 12436 0
12452 12451 -12436 0
-12453 12452 12437 0
-12453 -12452 -12437 0
12453 -12452 12437 0
12453 12452 -12437 0
-12454 12453 12438 0
-12454 -12453 -12438 0
12454 -12453 12438 0
12454 12453 -12438 0
-12455 12454 12439 0
-12455 -12454 -12439 0
12455 -12454 12439 0
12455 12454 -12439 0
-12455 0
-12456 8 0
-12456 31 0
12456 -8 -31 0
-12457 12456 0
-12457 33 0
12457 -12456 -33 0
-12458 8 0
-12458 32 0
12458 -8 -32 0
-12459 12458 0
-12459 33 0
12459 -12458 -33 0
-12460 12 0
-12460 32 0
12460 -12 -32 0
-12461 12460 0
-12461 33 0
12461 -12460 -33 0
-12462 30 0
-12462 12 0
12462 -30 -12 0
-12463 12462 0
-12463 33 0
12463 -12462 -33 0
-12464 30 0
-12464 16 0
12464 -30 -16 0
-12465 12464 0
-12465 33 0
12465 -12464 -33 0
-12466 31 0
-12466 16 0
12466 -31 -16 0
-12467 12466 0
-12467 33 0
12467 -12466 -33 0
-12468 56 0
-12468 79 0
12468 -56 -79 0
-12469 12468 0
-12469 81 0
12469 -12468 -81 0
-12470 56 0
-12470 80 0
12470 -56 -80 0
-12471 12470 0
-12471 81 0
12471 -12470 -81 0
-12472 60 0
-12472 80 0
12472 -60 -80 0
-12473 12472 0
-12473 81 0
12473 -12472 -81 0
-12474 78 0
-12474 60 0
12474 -78 -60 0
-12475 12474 0
-12475 81 0
12475 -12474 -81 0
-12476 78 0
-12476 64 0
12476 -78 -64 0
-12477 12476 0
-12477 81 0
12477 -12476 -81 0
-12478 79 0
-12478 64 0
12478 -79 -64 0
-12479 12478 0
-12479 81 0
12479 -12478 -81 0
-12480 104 0
-12480 127 0
12480 -104 -127 0
-12481 12480 0
-12481 129 0
12481 -12480 -129 0
-12482 104 0
-12482 128 0
12482 -104 -128 0
-12483 12482 0
-12483 129 0
12483 -12482 -129 0
-12484 108 0
-12484 128 0
12484 -108 -128 0
-12485 12484 0
-12485 129 0
12485 -12484 -129 0
-12486 152 0
-12486 175 0
12486 -152 -175 0
-12487 12486 0
-12487 177 0
12487 -12486 -177 0
-12488 174 0
-12488 156 0
12488 -174 -156 0
-12489 12488 0
-12489 177 0
12489 -12488 -177 0
-12490 12457 12459 0
-12490 -12457 -12459 0
12490 -12457 12459 0
12490 12457 -12459 0
-12491 12490 12461 0
-12491 -12490 -12461 0
12491 -12490 12461 0
12491 12490 -12461 0
-12492 12491 12463 0
-12492 -12491 -12463 0
12492 -12491 12463 0
12492 12491 -12463 0
-12493 12492 12465 0
-12493 -12492 -12465 0
12493 -12492 12465 0
12493 12492 -12465 0
-12494 12493 12467 0
-12494 -12493 -12467 0
12494 -12493 12467 0
12494 12493 -12467 0
-12495 12494 12469 0
-12495 -12494 -12469 0
12495 -12494 12469 0
12495 12494 -12469 0
-12496 12495 12471 0
-12496 -12495 -12471 0
12496 -12495 12471 0
12496 12495 -12471 0
-12497 12496 12473 0
-12497 -12496 -12473 0
12497 -12496 12473 0
12497 12496 -12473 0
-12498 12497 12475 0
-12498 -12497 -12475 0
12498 -12497 12475 0
12498 12497 -12475 0
-12499 12498 12477 0
-12499 -12498 -12477 0
12499 -12498 12477 0
12499 12498 -12477 0
-12500 12499 12479 0
-12500 -12499 -12479 0
12500 -12499 12479 0
12500 12499 -12479 0
-12501 12500 12481 0
-12501 -12500 -12481 0
12501 -12500 12481 0
12501 12500 -12481 0
-12502 12501 12483 0
-12502 -12501 -12483 0
12502 -12501 12483 0
12502 12501 -12483 0
-12503 12502 12485 0
-12503 -12502 -12485 0
12503 -12502 12485 0
12503 12502 -12485 0
-12504 12503 12487 0
-12504 -12503 -12487 0
12504 -12503 12487 0
12504 12503 -12487 0
-12505 12504 12489 0
-12505 -12504 -12489 0
12505 -12504 12489 0
12505 12504 -12489 0
-12505 0
-12506 12456 0
-12506 34 0
12506 -12456 -34 0
-12507 12458 0
-12507 34 0
12507 -12458 -34 0
-12508 12460 0
-12508 35 0
12508 -12460 -35 0
-12509 12462 0
-12509 37 0
12509 -12462 -37 0
-12510 12464 0
-12510 37 0
12510 -12464 -37 0
-12511 12466 0
-12511 41 0
12511 -12466 -41 0
-12512 12468 0
-12512 82 0
12512 -12468 -82 0
-12513 12470 0
-12513 82 0
12513 -12470 -82 0
-12514 12472 0
-12514 83 0
12514 -12472 -83 0
-12515 12474 0
-12515 85 0
12515 -12474 -85 0
-12516 12476 0
-12516 85 0
12516 -12476 -85 0
-12517 12478 0
-12517 89 0
12517 -12478 -89 0
-12518 12480 0
-12518 130 0
12518 -12480 -130 0
-12519 12482 0
-12519 130 0
12519 -12482 -130 0
-12520 12484 0
-12520 131 0
12520 -12484 -131 0
-12521 12486 0
-12521 178 0
12521 -12486 -178 0
-12522 12488 0
-12522 181 0
12522 -12488 -181 0
-12523 12506 12507 0
-12523 -12506 -12507 0
12523 -12506 12507 0
12523 12506 -12507 0
-12524 12523 12508 0
-12524 -12523 -12508 0
12524 -12523 12508 0
12524 12523 -12508 0
-12525 12524 12509 0
-12525 -12524 -12509 0
12525 -12524 12509 0
12525 12524 -12509 0
-12526 12525 12510 0
-12526 -12525 -12510 0
12526 -12525 12510 0
12526 12525 -12510 0
-12527 12526 12511 0
-12527 -12526 -12511 0
12527 -12526 12511 0
12527 12526 -12511 0
-12528 12527 12512 0
-12528 -12527 -12512 0
12528 -12527 12512 0
12528 12527 -12512 0
-12529 12528 12513 0
-12529 -12528 -12513 0
12529 -12528 12513 0
12529 12528 -12513 0
-12530 12529 12514 0
-12530 -12529 -12514 0
12530 -12529 12514 0
12530 12529 -12514 0
-12531 12530 12515 0
-12531 -12530 -12515 0
12531 -12530 12515 0
12531 12530 -12515 0
-12532 12531 12516 0
-12532 -12531 -12516 0
12532 -12531 12516 0
12532 12531 -12516 0
-12533 12532 12517 0
-12533 -12532 -12517 0
12533 -12532 12517 0
12533 12532 -12517 0
-12534 12533 12518 0
-12534 -12533 -12518 0
12534 -12533 12518 0
12534 12533 -12518 0
-12535 12534 12519 0
-12535 -12534 -12519 0
12535 -12534 12519 0
12535 12534 -12519 0
-12536 12535 12520 0
-12536 -12535 -12520 0
12536 -12535 12520 0
12536 12535 -12520 0
-12537 12536 12521 0
-12537 -12536 -12521 0
12537 -12536 12521 0
12537 12536 -12521 0
-12538 12537 12522 0
-12538 -12537 -12522 0
12538 -12537 12522 0
12538 12537 -12522 0
-12538 0
-12539 12456 0
-12539 35 0
12539 -12456 -35 0
-12540 12458 0
-12540 36 0
12540 -12458 -36 0
-12541 12460 0
-12541 36 0
12541 -12460 -36 0
-12542 12462 0
-12542 41 0
12542 -12462 -41 0
-12543 12464 0
-12543 45 0
12543 -12464 -45 0
-12544 12466 0
-12544 45 0
12544 -12466 -45 0
-12545 12468 0
-12545 83 0
12545 -12468 -83 0
-12546 12470 0
-12546 84 0
12546 -12470 -84 0
-12547 12472 0
-12547 84 0
12547 -12472 -84 0
-12548 12474 0
-12548 89 0
12548 -12474 -89 0
-12549 12476 0
-12549 93 0
12549 -12476 -93 0
-12550 12478 0
-12550 93 0
12550 -12478 -93 0
-12551 12480 0
-12551 131 0
12551 -12480 -131 0
-12552 12482 0
-12552 132 0
12552 -12482 -132 0
-12553 12484 0
-12553 132 0
12553 -12484 -132 0
-12554 12486 0
-12554 179 0
12554 -12486 -179 0
-12555 12488 0
-12555 185 0
12555 -12488 -185 0
-12556 12539 12540 0
-12556 -12539 -12540 0
12556 -12539 12540 0
12556 12539 -12540 0
-12557 12556 12541 0
-12557 -12556 -12541 0
12557 -12556 12541 0
12557 12556 -12541 0
-12558 12557 12542 0
-12558 -12557 -12542 0
12558 -12557 12542 0
12558 12557 -12542 0
-12559 12558 12543 0
-12559 -12558 -12543 0
12559 -12558 12543 0
12559 12558 -12543 0
-12560 12559 12544 0
-12560 -12559 -12544 0
12560 -12559 12544 0
12560 12559 -12544 0
-12561 12560 12545 0
-12561 -12560 -12545 0
12561 -12560 12545 0
12561 12560 -12545 0
-12562 12561 12546 0
-12562 -12561 -12546 0
12562 -12561 12546 0
12562 12561 -12546 0
-12563 12562 12547 0
-12563 -12562 -12547 0
12563 -12562 12547 0
12563 12562 -12547 0
-12564 12563 12548 0
-12564 -12563 -12548 0
12564 -12563 12548 0
12564 12563 -12548 0
-12565 12564 12549 0
-12565 -12564 -12549 0
12565 -12564 12549 0
12565 12564 -12549 0
-12566 12565 12550 0
-12566 -12565 -12550 0
12566 -12565 12550 0
12566 12565 -12550 0
-12567 12566 12551 0
-12567 -12566 -12551 0
12567 -12566 12551 0
12567 12566 -12551 0
-12568 12567 12552 0
-12568 -12567 -12552 0
12568 -12567 12552 0
12568 12567 -12552 0
-12569 12568 12553 0
-12569 -12568 -12553 0
12569 -12568 12553 0
12569 12568 -12553 0
-12570 12569 12554 0
-12570 -12569 -12554 0
12570 -12569 12554 0
12570 12569 -12554 0
-12571 12570 12555 0
-12571 -12570 -12555 0
12571 -12570 12555 0
12571 12570 -12555 0
-12571 0
-12572 12456 0
-12572 36 0
12572 -12456 -36 0
-12573 12458 0
-12573 35 0
12573 -12458 -35 0
-12574 12460 0
-12574 34 0
12574 -12460 -34 0
-12575 12462 0
-12575 45 0
12575 -12462 -45 0
-12576 12464 0
-12576 41 0
12576 -12464 -41 0
-12577 12466 0
-12577 37 0
12577 -12466 -37 0
-12578 12468 0
-12578 84 0
12578 -12468 -84 0
-12579 12470 0
-12579 83 0
12579 -12470 -83 0
-12580 12472 0
-12580 82 0
12580 -12472 -82 0
-12581 12474 0
-12581 93 0
12581 -12474 -93 0
-12582 12476 0
-12582 89 0
12582 -12476 -89 0
-12583 12478 0
-12583 85 0
12583 -12478 -85 0
-12584 12480 0
-12584 132 0
12584 -12480 -132 0
-12585 12482 0
-12585 131 0
12585 -12482 -131 0
-12586 12484 0
-12586 130 0
12586 -12484 -130 0
-12587 12486 0
-12587 180 0
12587 -12486 -180 0
-12588 12488 0
-12588 189 0
12588 -12488 -189 0
-12589 12572 12573 0
-12589 -12572 -12573 0
12589 -12572 12573 0
12589 12572 -12573 0
-12590 12589 12574 0
-12590 -12589 -12574 0
12590 -12589 12574 0
12590 12589 -12574 0
-12591 12590 12575 0
-12591 -12590 -12575 0
12591 -12590 12575 0
12591 12590 -12575 0
-12592 12591 12576 0
-12592 -12591 -12576 0
12592 -12591 12576 0
12592 12591 -12576 0
-12593 12592 12577 0
-12593 -12592 -12577 0
12593 -12592 12577 0
12593 12592 -12577 0
-12594 12593 12578 0
-12594 -12593 -12578 0
12594 -12593 12578 0
12594 12593 -12578 0
-12595 12594 12579 0
-12595 -12594 -12579 0
12595 -12594 12579 0
12595 12594 -12579 0
-12596 12595 12580 0
-12596 -12595 -12580 0
12596 -12595 12580 0
12596 12595 -12580 0
-12597 12596 12581 0
-12597 -12596 -12581 0
12597 -12596 12581 0
12597 12596 -12581 0
-12598 12597 12582 0
-12598 -12597 -12582 0
12598 -12597 12582 0
12598 12597 -12582 0
-12599 12598 12583 0
-12599 -12598 -12583 0
12599 -12598 12583 0
12599 12598 -12583 0
-12600 12599 12584 0
-12600 -12599 -12584 0
12600 -12599 12584 0
12600 12599 -12584 0
-12601 12600 12585 0
-12601 -12600 -12585 0
12601 -12600 12585 0
12601 12600 -12585 0
-12602 12601 12586 0
-12602 -12601 -12586 0
12602 -12601 12586 0
12602 12601 -12586 0
-12603 12602 12587 0
-12603 -12602 -12587 0
12603 -12602 12587 0
12603 12602 -12587 0
-12604 12603 12588 0
-12604 -12603 -12588 0
12604 -12603 12588 0
12604 12603 -12588 0
-12604 0
-12605 12456 0
-12605 38 0
12605 -12456 -38 0
-12606 12458 0
-12606 38 0
12606 -12458 -38 0
-12607 12460 0
-12607 43 0
12607 -12460 -43 0
-12608 12462 0
-12608 38 0
12608 -12462 -38 0
-12609 12464 0
-12609 38 0
12609 -12464 -38 0
-12610 12466 0
-12610 43 0
12610 -12466 -43 0
-12611 12468 0
-12611 86 0
12611 -12468 -86 0
-12612 12470 0
-12612 86 0
12612 -12470 -86 0
-12613 12472 0
-12613 91 0
12613 -12472 -91 0
-12614 12474 0
-12614 86 0
12614 -12474 -86 0
-12615 12476 0
-12615 86 0
12615 -12476 -86 0
-12616 12478 0
-12616 91 0
12616 -12478 -91 0
-12617 12480 0
-12617 134 0
12617 -12480 -134 0
-12618 12482 0
-12618 134 0
12618 -12482 -134 0
-12619 12484 0
-12619 139 0
12619 -12484 -139 0
-12620 12486 0
-12620 182 0
12620 -12486 -182 0
-12621 12488 0
-12621 182 0
12621 -12488 -182 0
-12622 12605 12606 0
-12622 -12605 -12606 0
12622 -12605 12606 0
12622 12605 -12606 0
-12623 12622 12607 0
-12623 -12622 -12607 0
12623 -12622 12607 0
12623 12622 -12607 0
-12624 12623 12608 0
-12624 -12623 -12608 0
12624 -12623 12608 0
12624 12623 -12608 0
-12625 12624 12609 0
-12625 -12624 -12609 0
12625 -12624 12609 0
12625 12624 -12609 0
-12626 12625 12610 0
-12626 -12625 -12610 0
12626 -12625 12610 0
12626 12625 -12610 0
-12627 12626 12611 0
-12627 -12626 -12611 0
12627 -12626 12611 0
12627 12626 -12611 0
-12628 12627 12612 0
-12628 -12627 -12612 0
12628 -12627 12612 0
12628 12627 -12612 0
-12629 12628 12613 0
-12629 -12628 -12613 0
12629 -12628 12613 0
12629 12628 -12613 0
-12630 12629 12614 0
-12630 -12629 -12614 0
12630 -12629 12614 0
12630 12629 -12614 0
-12631 12630 12615 0
-12631 -12630 -12615 0
12631 -12630 12615 0
12631 12630 -12615 0
-12632 12631 12616 0
-12632 -12631 -12616 0
12632 -12631 12616 0
12632 12631 -12616 0
-12633 12632 12617 0
-12633 -12632 -12617 0
12633 -12632 12617 0
12633 12632 -12617 0
-12634 12633 12618 0
-12634 -12633 -12618 0
12634 -12633 12618 0
12634 12633 -12618 0
-12635 12634 12619 0
-12635 -12634 -12619 0
12635 -12634 12619 0
12635 12634 -12619 0
-12636 12635 12620 0
-12636 -12635 -12620 0
12636 -12635 12620 0
12636 12635 -12620 0
-12637 12636 12621 0
-12637 -12636 -12621 0
12637 -12636 12621 0
12637 12636 -12621 0
-12637 0
-12638 12456 0
-12638 39 0
12638 -12456 -39 0
-12639 12458 0
-12639 40 0
12639 -12458 -40 0
-12640 12460 0
-12640 44 0
12640 -12460 -44 0
-12641 12462 0
-12641 42 0
12641 -12462 -42 0
-12642 12464 0
-12642 46 0
12642 -12464 -46 0
-12643 12466 0
-12643 47 0
12643 -12466 -47 0
-12644 12468 0
-12644 87 0
12644 -12468 -87 0
-12645 12470 0
-12645 88 0
12645 -12470 -88 0
-12646 12472 0
-12646 92 0
12646 -12472 -92 0
-12647 12474 0
-12647 90 0
12647 -12474 -90 0
-12648 12476 0
-12648 94 0
12648 -12476 -94 0
-12649 12478 0
-12649 95 0
12649 -12478 -95 0
-12650 12480 0
-12650 135 0
12650 -12480 -135 0
-12651 12482 0
-12651 136 0
12651 -12482 -136 0
-12652 12484 0
-12652 140 0
12652 -12484 -140 0
-12653 12486 0
-12653 183 0
12653 -12486 -183 0
-12654 12488 0
-12654 186 0
12654 -12488 -186 0
-12655 12638 12639 0
-12655 -12638 -12639 0
12655 -12638 12639 0
12655 12638 -12639 0
-12656 12655 12640 0
-12656 -12655 -12640 0
12656 -12655 12640 0
12656 12655 -12640 0
-12657 12656 12641 0
-12657 -12656 -12641 0
12657 -12656 12641 0
12657 12656 -12641 0
-12658 12657 12642 0
-12658 -12657 -12642 0
12658 -12657 12642 0
12658 12657 -12642 0
-12659 12658 12643 0
-12659 -12658 -12643 0
12659 -12658 12643 0
12659 12658 -12643 0
-12660 12659 12644 0
-12660 -12659 -12644 0
12660 -12659 12644 0
12660 12659 -12644 0
-12661 12660 12645 0
-12661 -12660 -12645 0
12661 -12660 12645 0
12661 12660 -12645 0
-12662 12661 12646 0
-12662 -12661 -12646 0
12662 -12661 12646 0
12662 12661 -12646 0
-12663 12662 12647 0
-12663 -12662 -12647 0
12663 -12662 12647 0
12663 12662 -12647 0
-12664 12663 12648 0
-12664 -12663 -12648 0
12664 -12663 12648 0
12664 12663 -12648 0
-12665 12664 12649 0
-12665 -12664 -12649 0
12665 -12664 12649 0
12665 12664 -12649 0
-12666 12665 12650 0
-12666 -12665 -12650 0
12666 -12665 12650 0
12666 12665 -12650 0
-12667 12666 12651 0
-12667 -12666 -12651 0
12667 -12666 12651 0
12667 12666 -12651 0
-12668 12667 12652 0
-12668 -12667 -12652 0
12668 -12667 12652 0
12668 12667 -12652 0
-12669 12668 12653 0
-12669 -12668 -12653 0
12669 -12668 12653 0
12669 12668 -12653 0
-12670 12669 12654 0
-12670 -12669 -12654 0
12670 -12669 12654 0
12670 12669 -12654 0
-12670 0
-12671 12456 0
-12671 40 0
12671 -12456 -40 0
-12672 12458 0
-12672 39 0
12672 -12458 -39 0
-12673 12460 0
-12673 42 0
12673 -12460 -42 0
-12674 12462 0
-12674 46 0
12674 -12462 -46 0
-12675 12464 0
-12675 42 0
12675 -12464 -42 0
-12676 12466 0
-12676 39 0
12676 -12466 -39 0
-12677 12468 0
-12677 88 0
12677 -12468 -88 0
-12678 12470 0
-12678 87 0
12678 -12470 -87 0
-12679 12472 0
-12679 90 0
12679 -12472 -90 0
-12680 12474 0
-12680 94 0
12680 -12474 -94 0
-12681 12476 0
-12681 90 0
12681 -12476 -90 0
-12682 12478 0
-12682 87 0
12682 -12478 -87 0
-12683 12480 0
-12683 136 0
12683 -12480 -136 0
-12684 12482 0
-12684 135 0
12684 -12482 -135 0
-12685 12484 0
-12685 138 0
12685 -12484 -138 0
-12686 12486 0
-12686 184 0
12686 -12486 -184 0
-12687 12488 0
-12687 190 0
12687 -12488 -190 0
-12688 12671 12672 0
-12688 -12671 -12672 0
12688 -12671 12672 0
12688 12671 -12672 0
-12689 12688 12673 0
-12689 -12688 -12673 0
12689 -12688 12673 0
12689 12688 -12673 0
-12690 12689 12674 0
-12690 -12689 -12674 0
12690 -12689 12674 0
12690 12689 -12674 0
-12691 12690 12675 0
-12691 -12690 -12675 0
12691 -12690 12675 0
12691 12690 -12675 0
-12692 12691 12676 0
-12692 -12691 -12676 0
12692 -12691 12676 0
12692 12691 -12676 0
-12693 12692 12677 0
-12693 -12692 -12677 0
12693 -12692 12677 0
12693 12692 -12677 0
-12694 12693 12678 0
-12694 -12693 -12678 0
12694 -12693 12678 0
12694 12693 -12678 0
-12695 12694 12679 0
-12695 -12694 -12679 0
12695 -12694 12679 0
12695 12694 -12679 0
-12696 12695 12680 0
-12696 -12695 -12680 0
12696 -12695 12680 0
12696 12695 -12680 0
-12697 12696 12681 0
-12697 -12696 -12681 0
12697 -12696 12681 0
12697 12696 -12681 0
-12698 12697 12682 0
-12698 -12697 -12682 0
12698 -12697 12682 0
12698 12697 -12682 0
-12699 12698 12683 0
-12699 -12698 -12683 0
12699 -12698 12683 0
12699 12698 -12683 0
-12700 12699 12684 0
-12700 -12699 -12684 0
12700 -12699 12684 0
12700 12699 -12684 0
-12701 12700 12685 0
-12701 -12700 -12685 0
12701 -12700 12685 0
12701 12700 -12685 0
-12702 12701 12686 0
-12702 -12701 -12686 0
12702 -12701 12686 0
12702 12701 -12686 0
-12703 12702 12687 0
-12703 -12702 -12687 0
12703 -12702 12687 0
12703 12702 -12687 0
-12703 0
-12704 12456 0
-12704 42 0
12704 -12456 -42 0
-12705 12458 0
-12705 46 0
12705 -12458 -46 0
-12706 12460 0
-12706 47 0
12706 -12460 -47 0
-12707 12462 0
-12707 39 0
12707 -12462 -39 0
-12708 12464 0
-12708 40 0
12708 -12464 -40 0
-12709 12466 0
-12709 44 0
12709 -12466 -44 0
-12710 12468 0
-12710 90 0
12710 -12468 -90 0
-12711 12470 0
-12711 94 0
12711 -12470 -94 0
-12712 12472 0
-12712 95 0
12712 -12472 -95 0
-12713 12474 0
-12713 87 0
12713 -12474 -87 0
-12714 12476 0
-12714 88 0
12714 -12476 -88 0
-12715 12478 0
-12715 92 0
12715 -12478 -92 0
-12716 12480 0
-12716 138 0
12716 -12480 -138 0
-12717 12482 0
-12717 142 0
12717 -12482 -142 0
-12718 12484 0
-12718 143 0
12718 -12484 -143 0
-12719 12486 0
-12719 186 0
12719 -12486 -186 0
-12720 12488 0
-12720 183 0
12720 -12488 -183 0
-12721 12704 12705 0
-12721 -12704 -12705 0
12721 -12704 12705 0
12721 12704 -12705 0
-12722 12721 12706 0
-12722 -12721 -12706 0
12722 -12721 12706 0
12722 12721 -12706 0
-12723 12722 12707 0
-12723 -12722 -12707 0
12723 -12722 12707 0
12723 12722 -12707 0
-12724 12723 12708 0
-12724 -12723 -12708 0
12724 -12723 12708 0
12724 12723 -12708 0
-12725 12724 12709 0
-12725 -12724 -12709 0
12725 -12724 12709 0
12725 12724 -12709 0
-12726 12725 12710 0
-12726 -12725 -12710 0
12726 -12725 12710 0
12726 12725 -12710 0
-12727 12726 12711 0
-12727 -12726 -12711 0
12727 -12726 12711 0
12727 12726 -12711 0
-12728 12727 12712 0
-12728 -12727 -12712 0
12728 -12727 12712 0
12728 12727 -12712 0
-12729 12728 12713 0
-12729 -12728 -12713 0
12729 -12728 12713 0
12729 12728 -12713 0
-12730 12729 12714 0
-12730 -12729 -12714 0
12730 -12729 12714 0
12730 12729 -12714 0
-12731 12730 12715 0
-12731 -12730 -12715 0
12731 -12730 12715 0
12731 12730 -12715 0
-12732 12731 12716 0
-12732 -12731 -12716 0
12732 -12731 12716 0
12732 12731 -12716 0
-12733 12732 12717 0
-12733 -12732 -12717 0
12733 -12732 12717 0
12733 12732 -12717 0
-12734 12733 12718 0
-12734 -12733 -12718 0
12734 -12733 12718 0
12734 12733 -12718 0
-12735 12734 12719 0
-12735 -12734 -12719 0
12735 -12734 12719 0
12735 12734 -12719 0
-12736 12735 12720 0
-12736 -12735 -12720 0
12736 -12735 12720 0
12736 12735 -12720 0
-12736 0
-12737 12456 0
-12737 44 0
12737 -12456 -44 0
-12738 12458 0
-12738 47 0
12738 -12458 -47 0
-12739 12460 0
-12739 46 0
12739 -12460 -46 0
-12740 12462 0
-12740 47 0
12740 -12462 -47 0
-12741 12464 0
-12741 44 0
12741 -12464 -44 0
-12742 12466 0
-12742 40 0
12742 -12466 -40 0
-12743 12468 0
-12743 92 0
12743 -12468 -92 0
-12744 12470 0
-12744 95 0
12744 -12470 -95 0
-12745 12472 0
-12745 94 0
12745 -12472 -94 0
-12746 12474 0
-12746 95 0
12746 -12474 -95 0
-12747 12476 0
-12747 92 0
12747 -12476 -92 0
-12748 12478 0
-12748 88 0
12748 -12478 -88 0
-12749 12480 0
-12749 140 0
12749 -12480 -140 0
-12750 12482 0
-12750 143 0
12750 -12482 -143 0
-12751 12484 0
-12751 142 0
12751 -12484 -142 0
-12752 12486 0
-12752 188 0
12752 -12486 -188 0
-12753 12488 0
-12753 191 0
12753 -12488 -191 0
-12754 12737 12738 0
-12754 -12737 -12738 0
12754 -12737 12738 0
12754 12737 -12738 0
-12755 12754 12739 0
-12755 -12754 -12739 0
12755 -12754 12739 0
12755 12754 -12739 0
-12756 12755 12740 0
-12756 -12755 -12740 0
12756 -12755 12740 0
12756 12755 -12740 0
-12757 12756 12741 0
-12757 -12756 -12741 0
12757 -12756 12741 0
12757 12756 -12741 0
-12758 12757 12742 0
-12758 -12757 -12742 0
12758 -12757 12742 0
12758 12757 -12742 0
-12759 12758 12743 0
-12759 -12758 -12743 0
12759 -12758 12743 0
12759 12758 -12743 0
-12760 12759 12744 0
-12760 -12759 -12744 0
12760 -12759 12744 0
12760 12759 -12744 0
-12761 12760 12745 0
-12761 -12760 -12745 0
12761 -12760 12745 0
12761 12760 -12745 0
-12762 12761 12746 0
-12762 -12761 -12746 0
12762 -12761 12746 0
12762 12761 -12746 0
-12763 12762 12747 0
-12763 -12762 -12747 0
12763 -12762 12747 0
12763 12762 -12747 0
-12764 12763 12748 0
-12764 -12763 -12748 0
12764 -12763 12748 0
12764 12763 -12748 0
-12765 12764 12749 0
-12765 -12764 -12749 0
12765 -12764 12749 0
12765 12764 -12749 0
-12766 12765 12750 0
-12766 -12765 -12750 0
12766 -12765 12750 0
12766 12765 -12750 0
-12767 12766 12751 0
-12767 -12766 -12751 0
12767 -12766 12751 0
12767 12766 -12751 0
-12768 12767 12752 0
-12768 -12767 -12752 0
12768 -12767 12752 0
12768 12767 -12752 0
-12769 12768 12753 0
-12769 -12768 -12753 0
12769 -12768 12753 0
12769 12768 -12753 0
-12769 0
-12770 12456 0
-12770 48 0
12770 -12456 -48 0
-12771 12458 0
-12771 43 0
12771 -12458 -43 0
-12772 12460 0
-12772 38 0
12772 -12460 -38 0
-12773 12462 0
-12773 48 0
12773 -12462 -48 0
-12774 12464 0
-12774 43 0
12774 -12464 -43 0
-12775 12466 0
-12775 38 0
12775 -12466 -38 0
-12776 12468 0
-12776 96 0
12776 -12468 -96 0
-12777 12470 0
-12777 91 0
12777 -12470 -91 0
-12778 12472 0
-12778 86 0
12778 -12472 -86 0
-12779 12474 0
-12779 96 0
12779 -12474 -96 0
-12780 12476 0
-12780 91 0
12780 -12476 -91 0
-12781 12478 0
-12781 86 0
12781 -12478 -86 0
-12782 12480 0
-12782 144 0
12782 -12480 -144 0
-12783 12482 0
-12783 139 0
12783 -12482 -139 0
-12784 12484 0
-12784 134 0
12784 -12484 -134 0
-12785 12486 0
-12785 192 0
12785 -12486 -192 0
-12786 12488 0
-12786 192 0
12786 -12488 -192 0
-12787 12770 12771 0
-12787 -12770 -12771 0
12787 -12770 12771 0
12787 12770 -12771 0
-12788 12787 12772 0
-12788 -12787 -12772 0
12788 -12787 12772 0
12788 12787 -12772 0
-12789 12788 12773 0
-12789 -12788 -12773 0
12789 -12788 12773 0
12789 12788 -12773 0
-12790 12789 12774 0
-12790 -12789 -12774 0
12790 -12789 12774 0
12790 12789 -12774 0
-12791 12790 12775 0
-12791 -12790 -12775 0
12791 -12790 12775 0
12791 12790 -12775 0
-12792 12791 12776 0
-12792 -12791 -12776 0
12792 -12791 12776 0
12792 12791 -12776 0
-12793 12792 12777 0
-12793 -12792 -12777 0
12793 -12792 12777 0
12793 12792 -12777 0
-12794 12793 12778 0
-12794 -12793 -12778 0
12794 -12793 12778 0
12794 12793 -12778 0
-12795 12794 12779 0
-12795 -12794 -12779 0
12795 -12794 12779 0
12795 12794 -12779 0
-12796 12795 12780 0
-12796 -12795 -12780 0
12796 -12795 12780 0
12796 12795 -12780 0
-12797 12796 12781 0
-12797 -12796 -12781 0
12797 -12796 12781 0
12797 12796 -12781 0
-12798 12797 12782 0
-12798 -12797 -12782 0
12798 -12797 12782 0
12798 12797 -12782 0
-12799 12798 12783 0
-12799 -12798 -12783 0
12799 -12798 12783 0
12799 12798 -12783 0
-12800 12799 12784 0
-12800 -12799 -12784 0
12800 -12799 12784 0
12800 12799 -12784 0
-12801 12800 12785 0
-12801 -12800 -12785 0
12801 -12800 12785 0
12801 12800 -12785 0
-12802 12801 12786 0
-12802 -12801 -12786 0
12802 -12801 12786 0
12802 12801 -12786 0
-12802 0
