p cnf 12771 45452
-2 3 0
2 -3 0
-3 2 0
3 -2 0
-5 13 0
5 -13 0
-6 15 0
6 -15 0
-7 14 0
7 -14 0
-8 16 0
8 -16 0
-10 11 0
10 -11 0
-11 10 0
11 -10 0
-13 5 0
13 -5 0
-14 7 0
14 -7 0
-15 6 0
15 -6 0
-16 8 0
16 -8 0
-18 20 0
18 -20 0
-20 18 0
20 -18 0
-21 25 0
21 -25 0
-22 28 0
22 -28 0
-23 27 0
23 -27 0
-24 26 0
24 -26 0
-25 21 0
25 -21 0
-26 24 0
26 -24 0
-27 23 0
27 -23 0
-28 22 0
28 -22 0
-30 32 0
30 -32 0
-32 30 0
32 -30 0
-34 36 0
34 -36 0
-36 34 0
36 -34 0
-37 45 0
37 -45 0
-38 48 0
38 -48 0
-39 47 0
39 -47 0
-40 46 0
40 -46 0
-42 44 0
42 -44 0
-44 42 0
44 -42 0
-45 37 0
45 -37 0
-46 40 0
46 -40 0
-47 39 0
47 -39 0
-48 38 0
48 -38 0
1 2 3 4 5 6 7 8 9 10 11 12 13 14 15 16 0
17 18 19 20 21 22 23 24 25 26 27 28 29 30 31 32 0
33 34 35 36 37 38 39 40 41 42 43 44 45 46 47 48 0
-50 51 0
50 -51 0
-51 50 0
51 -50 0
-53 61 0
53 -61 0
-54 63 0
54 -63 0
-55 62 0
55 -62 0
-56 64 0
56 -64 0
-58 59 0
58 -59 0
-59 58 0
59 -58 0
-61 53 0
61 -53 0
-62 55 0
62 -55 0
-63 54 0
63 -54 0
-64 56 0
64 -56 0
-66 68 0
66 -68 0
-68 66 0
68 -66 0
-69 73 0
69 -73 0
-70 76 0
70 -76 0
-71 75 0
71 -75 0
-72 74 0
72 -74 0
-73 69 0
73 -69 0
-74 72 0
74 -72 0
-75 71 0
75 -71 0
-76 70 0
76 -70 0
-78 80 0
78 -80 0
-80 78 0
80 -78 0
-82 84 0
82 -84 0
-84 82 0
84 -82 0
-85 93 0
85 -93 0
-86 96 0
86 -96 0
-87 95 0
87 -95 0
-88 94 0
88 -94 0
-90 92 0
90 -92 0
-92 90 0
92 -90 0
-93 85 0
93 -85 0
-94 88 0
94 -88 0
-95 87 0
95 -87 0
-96 86 0
96 -86 0
49 50 51 52 53 54 55 56 57 58 59 60 61 62 63 64 0
65 66 67 68 69 70 71 72 73 74 75 76 77 78 79 80 0
81 82 83 84 85 86 87 88 89 90 91 92 93 94 95 96 0
-97 99 0
97 -99 0
-98 97 0
98 -97 0
-99 98 0
99 -98 0
-101 111 0
101 -111 0
-102 109 0
102 -109 0
-103 110 0
103 -110 0
-104 112 0
104 -112 0
-105 103 0
105 -103 0
-106 101 0
106 -101 0
-107 102 0
107 -102 0
-108 104 0
108 -104 0
-109 107 0
109 -107 0
-110 105 0
110 -105 0
-111 106 0
111 -106 0
-112 108 0
112 -108 0
-113 121 0
113 -121 0
-114 124 0
114 -124 0
-115 122 0
115 -122 0
-116 123 0
116 -123 0
-117 113 0
117 -113 0
-118 116 0
118 -116 0
-119 114 0
119 -114 0
-120 115 0
120 -115 0
-121 117 0
121 -117 0
-122 120 0
122 -120 0
-123 118 0
123 -118 0
-124 119 0
124 -119 0
-126 128 0
126 -128 0
-127 126 0
127 -126 0
-128 127 0
128 -127 0
-130 132 0
130 -132 0
-131 130 0
131 -130 0
-132 131 0
132 -131 0
-133 141 0
133 -141 0
-134 144 0
134 -144 0
-135 142 0
135 -142 0
-136 143 0
136 -143 0
-137 133 0
137 -133 0
-138 136 0
138 -136 0
-139 134 0
139 -134 0
-140 135 0
140 -135 0
-141 137 0
141 -137 0
-142 140 0
142 -140 0
-143 138 0
143 -138 0
-144 139 0
144 -139 0
-97 98 0
97 -98 0
-98 99 0
98 -99 0
-99 97 0
99 -97 0
-101 106 0
101 -106 0
-102 107 0
102 -107 0
-103 105 0
103 -105 0
-104 108 0
104 -108 0
-105 110 0
105 -110 0
-106 111 0
106 -111 0
-107 109 0
107 -109 0
-108 112 0
108 -112 0
-109 102 0
109 -102 0
-110 103 0
110 -103 0
-111 101 0
111 -101 0
-112 104 0
112 -104 0
-113 117 0
113 -117 0
-114 119 0
114 -119 0
-115 120 0
115 -120 0
-116 118 0
116 -118 0
-117 121 0
117 -121 0
-118 123 0
118 -123 0
-119 124 0
119 -124 0
-120 122 0
120 -122 0
-121 113 0
121 -113 0
-122 115 0
122 -115 0
-123 116 0
123 -116 0
-124 114 0
124 -114 0
-126 127 0
126 -127 0
-127 128 0
127 -128 0
-128 126 0
128 -126 0
-130 131 0
130 -131 0
-131 132 0
131 -132 0
-132 130 0
132 -130 0
-133 137 0
133 -137 0
-134 139 0
134 -139 0
-135 140 0
135 -140 0
-136 138 0
136 -138 0
-137 141 0
137 -141 0
-138 143 0
138 -143 0
-139 144 0
139 -144 0
-140 142 0
140 -142 0
-141 133 0
141 -133 0
-142 135 0
142 -135 0
-143 136 0
143 -136 0
-144 134 0
144 -134 0
97 98 99 100 101 102 103 104 105 106 107 108 109 110 111 112 0
113 114 115 116 117 118 119 120 121 122 123 124 125 126 127 128 0
129 130 131 132 133 134 135 136 137 138 139 140 141 142 143 144 0
-145 161 0
145 -161 0
-146 169 0
146 -169 0
-147 165 0
147 -165 0
-148 173 0
148 -173 0
-149 164 0
149 -164 0
-150 172 0
150 -172 0
-151 168 0
151 -168 0
-152 176 0
152 -176 0
-153 163 0
153 -163 0
-154 171 0
154 -171 0
-155 167 0
155 -167 0
-156 175 0
156 -175 0
-157 162 0
157 -162 0
-158 170 0
158 -170 0
-159 166 0
159 -166 0
-160 174 0
160 -174 0
-161 145 0
161 -145 0
-162 157 0
162 -157 0
-163 153 0
163 -153 0
-164 149 0
164 -149 0
-165 147 0
165 -147 0
-166 159 0
166 -159 0
-167 155 0
167 -155 0
-168 151 0
168 -151 0
-169 146 0
169 -146 0
-170 158 0
170 -158 0
-171 154 0
171 -154 0
-172 150 0
172 -150 0
-173 148 0
173 -148 0
-174 160 0
174 -160 0
-175 156 0
175 -156 0
-176 152 0
176 -152 0
-178 189 0
178 -189 0
-179 185 0
179 -185 0
-180 181 0
180 -181 0
-181 180 0
181 -180 0
-182 192 0
182 -192 0
-183 188 0
183 -188 0
-185 179 0
185 -179 0
-186 191 0
186 -191 0
-188 183 0
188 -183 0
-189 178 0
189 -178 0
-191 186 0
191 -186 0
-192 182 0
192 -182 0
-145 161 0
145 -161 0
-146 165 0
146 -165 0
-147 169 0
147 -169 0
-148 173 0
148 -173 0
-149 162 0
149 -162 0
-150 166 0
150 -166 0
-151 170 0
151 -170 0
-152 174 0
152 -174 0
-153 163 0
153 -163 0
-154 167 0
154 -167 0
-155 171 0
155 -171 0
-156 175 0
156 -175 0
-157 164 0
157 -164 0
-158 168 0
158 -168 0
-159 172 0
159 -172 0
-160 176 0
160 -176 0
-161 145 0
161 -145 0
-162 149 0
162 -149 0
-163 153 0
163 -153 0
-164 157 0
164 -157 0
-165 146 0
165 -146 0
-166 150 0
166 -150 0
-167 154 0
167 -154 0
-168 158 0
168 -158 0
-169 147 0
169 -147 0
-170 151 0
170 -151 0
-171 155 0
171 -155 0
-172 159 0
172 -159 0
-173 148 0
173 -148 0
-174 152 0
174 -152 0
-175 156 0
175 -156 0
-176 160 0
176 -160 0
-178 181 0
178 -181 0
-179 185 0
179 -185 0
-180 189 0
180 -189 0
-181 178 0
181 -178 0
-183 186 0
183 -186 0
-184 190 0
184 -190 0
-185 179 0
185 -179 0
-186 183 0
186 -183 0
-188 191 0
188 -191 0
-189 180 0
189 -180 0
-190 184 0
190 -184 0
-191 188 0
191 -188 0
-145 165 0
145 -165 0
-146 161 0
146 -161 0
-147 169 0
147 -169 0
-148 173 0
148 -173 0
-149 166 0
149 -166 0
-150 162 0
150 -162 0
-151 170 0
151 -170 0
-152 174 0
152 -174 0
-153 168 0
153 -168 0
-154 164 0
154 -164 0
-155 172 0
155 -172 0
-156 176 0
156 -176 0
-157 167 0
157 -167 0
-158 163 0
158 -163 0
-159 171 0
159 -171 0
-160 175 0
160 -175 0
-161 146 0
161 -146 0
-162 150 0
162 -150 0
-163 158 0
163 -158 0
-164 154 0
164 -154 0
-165 145 0
165 -145 0
-166 149 0
166 -149 0
-167 157 0
167 -157 0
-168 153 0
168 -153 0
-169 147 0
169 -147 0
-170 151 0
170 -151 0
-171 159 0
171 -159 0
-172 155 0
172 -155 0
-173 148 0
173 -148 0
-174 152 0
174 -152 0
-175 160 0
175 -160 0
-176 156 0
176 -156 0
-178 181 0
178 -181 0
-179 189 0
179 -189 0
-180 185 0
180 -185 0
-181 178 0
181 -178 0
-183 190 0
183 -190 0
-184 186 0
184 -186 0
-185 180 0
185 -180 0
-186 184 0
186 -184 0
-187 192 0
187 -192 0
-189 179 0
189 -179 0
-190 183 0
190 -183 0
-192 187 0
192 -187 0
-146 147 0
146 -147 0
-147 146 0
147 -146 0
-149 157 0
149 -157 0
-150 159 0
150 -159 0
-151 158 0
151 -158 0
-152 160 0
152 -160 0
-154 155 0
154 -155 0
-155 154 0
155 -154 0
-157 149 0
157 -149 0
-158 151 0
158 -151 0
-159 150 0
159 -150 0
-160 152 0
160 -152 0
-162 164 0
162 -164 0
-164 162 0
164 -162 0
-165 169 0
165 -169 0
-166 172 0
166 -172 0
-167 171 0
167 -171 0
-168 170 0
168 -170 0
-169 165 0
169 -165 0
-170 168 0
170 -168 0
-171 167 0
171 -167 0
-172 166 0
172 -166 0
-174 176 0
174 -176 0
-176 174 0
176 -174 0
-178 180 0
178 -180 0
-180 178 0
180 -178 0
-181 189 0
181 -189 0
-182 192 0
182 -192 0
-183 191 0
183 -191 0
-184 190 0
184 -190 0
-186 188 0
186 -188 0
-188 186 0
188 -186 0
-189 181 0
189 -181 0
-190 184 0
190 -184 0
-191 183 0
191 -183 0
-192 182 0
192 -182 0
-145 169 0
145 -169 0
-146 165 0
146 -165 0
-147 161 0
147 -161 0
-148 173 0
148 -173 0
-149 171 0
149 -171 0
-150 167 0
150 -167 0
-151 163 0
151 -163 0
-152 175 0
152 -175 0
-153 170 0
153 -170 0
-154 166 0
154 -166 0
-155 162 0
155 -162 0
-156 174 0
156 -174 0
-157 172 0
157 -172 0
-158 168 0
158 -168 0
-159 164 0
159 -164 0
-160 176 0
160 -176 0
-161 147 0
161 -147 0
-162 155 0
162 -155 0
-163 151 0
163 -151 0
-164 159 0
164 -159 0
-165 146 0
165 -146 0
-166 154 0
166 -154 0
-167 150 0
167 -150 0
-168 158 0
168 -158 0
-169 145 0
169 -145 0
-170 153 0
170 -153 0
-171 149 0
171 -149 0
-172 157 0
172 -157 0
-173 148 0
173 -148 0
-174 156 0
174 -156 0
-175 152 0
175 -152 0
-176 160 0
176 -160 0
-178 185 0
178 -185 0
-179 181 0
179 -181 0
-180 189 0
180 -189 0
-181 179 0
181 -179 0
-182 187 0
182 -187 0
-184 191 0
184 -191 0
-185 178 0
185 -178 0
-187 182 0
187 -182 0
-188 190 0
188 -190 0
-189 180 0
189 -180 0
-190 188 0
190 -188 0
-191 184 0
191 -184 0
-145 146 0
145 -146 0
-146 145 0
146 -145 0
-149 150 0
149 -150 0
-150 149 0
150 -149 0
-153 158 0
153 -158 0
-154 157 0
154 -157 0
-155 159 0
155 -159 0
-156 160 0
156 -160 0
-157 154 0
157 -154 0
-158 153 0
158 -153 0
-159 155 0
159 -155 0
-160 156 0
160 -156 0
-161 165 0
161 -165 0
-162 166 0
162 -166 0
-163 168 0
163 -168 0
-164 167 0
164 -167 0
-165 161 0
165 -161 0
-166 162 0
166 -162 0
-167 164 0
167 -164 0
-168 163 0
168 -163 0
-171 172 0
171 -172 0
-172 171 0
172 -171 0
-175 176 0
175 -176 0
-176 175 0
176 -175 0
-179 180 0
179 -180 0
-180 179 0
180 -179 0
-183 184 0
183 -184 0
-184 183 0
184 -183 0
-185 189 0
185 -189 0
-186 190 0
186 -190 0
-187 192 0
187 -192 0
-188 191 0
188 -191 0
-189 185 0
189 -185 0
-190 186 0
190 -186 0
-191 188 0
191 -188 0
-192 187 0
192 -187 0
-145 147 0
145 -147 0
-146 145 0
146 -145 0
-147 146 0
147 -146 0
-149 159 0
149 -159 0
-150 157 0
150 -157 0
-151 158 0
151 -158 0
-152 160 0
152 -160 0
-153 151 0
153 -151 0
-154 149 0
154 -149 0
-155 150 0
155 -150 0
-156 152 0
156 -152 0
-157 155 0
157 -155 0
-158 153 0
158 -153 0
-159 154 0
159 -154 0
-160 156 0
160 -156 0
-161 169 0
161 -169 0
-162 172 0
162 -172 0
-163 170 0
163 -170 0
-164 171 0
164 -171 0
-165 161 0
165 -161 0
-166 164 0
166 -164 0
-167 162 0
167 -162 0
-168 163 0
168 -163 0
-169 165 0
169 -165 0
-170 168 0
170 -168 0
-171 166 0
171 -166 0
-172 167 0
172 -167 0
-174 176 0
174 -176 0
-175 174 0
175 -174 0
-176 175 0
176 -175 0
-178 180 0
178 -180 0
-179 178 0
179 -178 0
-180 179 0
180 -179 0
-181 189 0
181 -189 0
-182 192 0
182 -192 0
-183 190 0
183 -190 0
-184 191 0
184 -191 0
-185 181 0
185 -181 0
-186 184 0
186 -184 0
-187 182 0
187 -182 0
-188 183 0
188 -183 0
-189 185 0
189 -185 0
-190 188 0
190 -188 0
-191 186 0
191 -186 0
-192 187 0
192 -187 0
-145 169 0
145 -169 0
-146 161 0
146 -161 0
-147 165 0
147 -165 0
-148 173 0
148 -173 0
-149 172 0
149 -172 0
-150 164 0
150 -164 0
-151 168 0
151 -168 0
-152 176 0
152 -176 0
-153 170 0
153 -170 0
-154 162 0
154 -162 0
-155 166 0
155 -166 0
-156 174 0
156 -174 0
-157 171 0
157 -171 0
-158 163 0
158 -163 0
-159 167 0
159 -167 0
-160 175 0
160 -175 0
-161 147 0
161 -147 0
-162 159 0
162 -159 0
-163 151 0
163 -151 0
-164 155 0
164 -155 0
-165 145 0
165 -145 0
-166 157 0
166 -157 0
-167 149 0
167 -149 0
-168 153 0
168 -153 0
-169 146 0
169 -146 0
-170 158 0
170 -158 0
-171 150 0
171 -150 0
-172 154 0
172 -154 0
-173 148 0
173 -148 0
-174 160 0
174 -160 0
-175 152 0
175 -152 0
-176 156 0
176 -156 0
-178 189 0
178 -189 0
-179 181 0
179 -181 0
-180 185 0
180 -185 0
-181 180 0
181 -180 0
-182 192 0
182 -192 0
-183 184 0
183 -184 0
-184 188 0
184 -188 0
-185 178 0
185 -178 0
-186 190 0
186 -190 0
-187 182 0
187 -182 0
-188 186 0
188 -186 0
-189 179 0
189 -179 0
-190 191 0
190 -191 0
-191 183 0
191 -183 0
-192 187 0
192 -187 0
-145 165 0
145 -165 0
-146 169 0
146 -169 0
-147 161 0
147 -161 0
-148 173 0
148 -173 0
-149 167 0
149 -167 0
-150 171 0
150 -171 0
-151 163 0
151 -163 0
-152 175 0
152 -175 0
-153 168 0
153 -168 0
-154 172 0
154 -172 0
-155 164 0
155 -164 0
-156 176 0
156 -176 0
-157 166 0
157 -166 0
-158 170 0
158 -170 0
-159 162 0
159 -162 0
-160 174 0
160 -174 0
-161 146 0
161 -146 0
-162 154 0
162 -154 0
-163 158 0
163 -158 0
-164 150 0
164 -150 0
-165 147 0
165 -147 0
-166 155 0
166 -155 0
-167 159 0
167 -159 0
-168 151 0
168 -151 0
-169 145 0
169 -145 0
-170 153 0
170 -153 0
-171 157 0
171 -157 0
-172 149 0
172 -149 0
-173 148 0
173 -148 0
-174 156 0
174 -156 0
-175 160 0
175 -160 0
-176 152 0
176 -152 0
-178 185 0
178 -185 0
-179 189 0
179 -189 0
-180 181 0
180 -181 0
-181 179 0
181 -179 0
-182 187 0
182 -187 0
-183 191 0
183 -191 0
-184 183 0
184 -183 0
-185 180 0
185 -180 0
-186 188 0
186 -188 0
-187 192 0
187 -192 0
-188 184 0
188 -184 0
-189 178 0
189 -178 0
-190 186 0
190 -186 0
-191 190 0
191 -190 0
-192 182 0
192 -182 0
-145 147 0
145 -147 0
-147 145 0
147 -145 0
-149 155 0
149 -155 0
-150 154 0
150 -154 0
-151 153 0
151 -153 0
-152 156 0
152 -156 0
-153 151 0
153 -151 0
-154 150 0
154 -150 0
-155 149 0
155 -149 0
-156 152 0
156 -152 0
-157 159 0
157 -159 0
-159 157 0
159 -157 0
-161 169 0
161 -169 0
-162 171 0
162 -171 0
-163 170 0
163 -170 0
-164 172 0
164 -172 0
-166 167 0
166 -167 0
-167 166 0
167 -166 0
-169 161 0
169 -161 0
-170 163 0
170 -163 0
-171 162 0
171 -162 0
-172 164 0
172 -164 0
-174 175 0
174 -175 0
-175 174 0
175 -174 0
-178 179 0
178 -179 0
-179 178 0
179 -178 0
-181 185 0
181 -185 0
-182 187 0
182 -187 0
-183 186 0
183 -186 0
-184 188 0
184 -188 0
-185 181 0
185 -181 0
-186 183 0
186 -183 0
-187 182 0
187 -182 0
-188 184 0
188 -184 0
-190 191 0
190 -191 0
-191 190 0
191 -190 0
-145 146 0
145 -146 0
-146 147 0
146 -147 0
-147 145 0
147 -145 0
-149 154 0
149 -154 0
-150 155 0
150 -155 0
-151 153 0
151 -153 0
-152 156 0
152 -156 0
-153 158 0
153 -158 0
-154 159 0
154 -159 0
-155 157 0
155 -157 0
-156 160 0
156 -160 0
-157 150 0
157 -150 0
-158 151 0
158 -151 0
-159 149 0
159 -149 0
-160 152 0
160 -152 0
-161 165 0
161 -165 0
-162 167 0
162 -167 0
-163 168 0
163 -168 0
-164 166 0
164 -166 0
-165 169 0
165 -169 0
-166 171 0
166 -171 0
-167 172 0
167 -172 0
-168 170 0
168 -170 0
-169 161 0
169 -161 0
-170 163 0
170 -163 0
-171 164 0
171 -164 0
-172 162 0
172 -162 0
-174 175 0
174 -175 0
-175 176 0
175 -176 0
-176 174 0
176 -174 0
-178 179 0
178 -179 0
-179 180 0
179 -180 0
-180 178 0
180 -178 0
-181 185 0
181 -185 0
-182 187 0
182 -187 0
-183 188 0
183 -188 0
-184 186 0
184 -186 0
-185 189 0
185 -189 0
-186 191 0
186 -191 0
-187 192 0
187 -192 0
-188 190 0
188 -190 0
-189 181 0
189 -181 0
-190 183 0
190 -183 0
-191 184 0
191 -184 0
-192 182 0
192 -182 0
145 146 147 148 149 150 151 152 153 154 155 156 157 158 159 160 0
161 162 163 164 165 166 167 168 169 170 171 172 173 174 175 176 0
177 178 179 180 181 182 183 184 185 186 187 188 189 190 191 192 0
-193 1 0
-193 17 0
193 -1 -17 0
-194 193 0
-194 33 0
194 -193 -33 0
-195 2 0
-195 21 0
195 -2 -21 0
-196 195 0
-196 33 0
196 -195 -33 0
-197 49 0
-197 65 0
197 -49 -65 0
-198 197 0
-198 81 0
198 -197 -81 0
-199 50 0
-199 69 0
199 -50 -69 0
-200 199 0
-200 81 0
200 -199 -81 0
-201 97 0
-201 113 0
201 -97 -113 0
-202 201 0
-202 129 0
202 -201 -129 0
-203 145 0
-203 161 0
203 -145 -161 0
-204 203 0
-204 177 0
204 -203 -177 0
-205 194 196 0
-205 -194 -196 0
205 -194 196 0
205 194 -196 0
-206 205 196 0
-206 -205 -196 0
206 -205 196 0
206 205 -196 0
-207 206 194 0
-207 -206 -194 0
207 -206 194 0
207 206 -194 0
-208 207 196 0
-208 -207 -196 0
208 -207 196 0
208 207 -196 0
-209 208 196 0
-209 -208 -196 0
209 -208 196 0
209 208 -196 0
-210 209 198 0
-210 -209 -198 0
210 -209 198 0
210 209 -198 0
-211 210 200 0
-211 -210 -200 0
211 -210 200 0
211 210 -200 0
-212 211 200 0
-212 -211 -200 0
212 -211 200 0
212 211 -200 0
-213 212 198 0
-213 -212 -198 0
213 -212 198 0
213 212 -198 0
-214 213 200 0
-214 -213 -200 0
214 -213 200 0
214 213 -200 0
-215 214 200 0
-215 -214 -200 0
215 -214 200 0
215 214 -200 0
-216 215 202 0
-216 -215 -202 0
216 -215 202 0
216 215 -202 0
-217 216 202 0
-217 -216 -202 0
217 -216 202 0
217 216 -202 0
-218 217 202 0
-218 -217 -202 0
218 -217 202 0
218 217 -202 0
-219 218 202 0
-219 -218 -202 0
219 -218 202 0
219 218 -202 0
-220 219 204 0
-220 -219 -204 0
220 -219 204 0
220 219 -204 0
-220 0
-221 193 0
-221 34 0
221 -193 -34 0
-222 195 0
-222 34 0
222 -195 -34 0
-223 195 0
-223 35 0
223 -195 -35 0
-224 193 0
-224 37 0
224 -193 -37 0
-225 195 0
-225 37 0
225 -195 -37 0
-226 195 0
-226 41 0
226 -195 -41 0
-227 197 0
-227 82 0
227 -197 -82 0
-228 199 0
-228 82 0
228 -199 -82 0
-229 199 0
-229 83 0
229 -199 -83 0
-230 197 0
-230 85 0
230 -197 -85 0
-231 199 0
-231 85 0
231 -199 -85 0
-232 199 0
-232 89 0
232 -199 -89 0
-233 201 0
-233 130 0
233 -201 -130 0
-234 201 0
-234 132 0
234 -201 -132 0
-235 201 0
-235 133 0
235 -201 -133 0
-236 201 0
-236 141 0
236 -201 -141 0
-237 203 0
-237 178 0
237 -203 -178 0
-238 221 222 0
-238 -221 -222 0
238 -221 222 0
238 221 -222 0
-239 238 223 0
-239 -238 -223 0
239 -238 223 0
239 238 -223 0
-240 239 224 0
-240 -239 -224 0
240 -239 224 0
240 239 -224 0
-241 240 225 0
-241 -240 -225 0
241 -240 225 0
241 240 -225 0
-242 241 226 0
-242 -241 -226 0
242 -241 226 0
242 241 -226 0
-243 242 227 0
-243 -242 -227 0
243 -242 227 0
243 242 -227 0
-244 243 228 0
-244 -243 -228 0
244 -243 228 0
244 243 -228 0
-245 244 229 0
-245 -244 -229 0
245 -244 229 0
245 244 -229 0
-246 245 230 0
-246 -245 -230 0
246 -245 230 0
246 245 -230 0
-247 246 231 0
-247 -246 -231 0
247 -246 231 0
247 246 -231 0
-248 247 232 0
-248 -247 -232 0
248 -247 232 0
248 247 -232 0
-249 248 233 0
-249 -248 -233 0
249 -248 233 0
249 248 -233 0
-250 249 234 0
-250 -249 -234 0
250 -249 234 0
250 249 -234 0
-251 250 235 0
-251 -250 -235 0
251 -250 235 0
251 250 -235 0
-252 251 236 0
-252 -251 -236 0
252 -251 236 0
252 251 -236 0
-253 252 237 0
-253 -252 -237 0
253 -252 237 0
253 252 -237 0
-253 0
-254 193 0
-254 35 0
254 -193 -35 0
-255 195 0
-255 36 0
255 -195 -36 0
-256 193 0
-256 41 0
256 -193 -41 0
-257 195 0
-257 45 0
257 -195 -45 0
-258 197 0
-258 83 0
258 -197 -83 0
-259 199 0
-259 84 0
259 -199 -84 0
-260 197 0
-260 89 0
260 -197 -89 0
-261 199 0
-261 93 0
261 -199 -93 0
-262 201 0
-262 131 0
262 -201 -131 0
-263 201 0
-263 137 0
263 -201 -137 0
-264 203 0
-264 179 0
264 -203 -179 0
-265 254 255 0
-265 -254 -255 0
265 -254 255 0
265 254 -255 0
-266 265 255 0
-266 -265 -255 0
266 -265 255 0
266 265 -255 0
-267 266 256 0
-267 -266 -256 0
267 -266 256 0
267 266 -256 0
-268 267 257 0
-268 -267 -257 0
268 -267 257 0
268 267 -257 0
-269 268 257 0
-269 -268 -257 0
269 -268 257 0
269 268 -257 0
-270 269 258 0
-270 -269 -258 0
270 -269 258 0
270 269 -258 0
-271 270 259 0
-271 -270 -259 0
271 -270 259 0
271 270 -259 0
-272 271 259 0
-272 -271 -259 0
272 -271 259 0
272 271 -259 0
-273 272 260 0
-273 -272 -260 0
273 -272 260 0
273 272 -260 0
-274 273 261 0
-274 -273 -261 0
274 -273 261 0
274 273 -261 0
-275 274 261 0
-275 -274 -261 0
275 -274 261 0
275 274 -261 0
-276 275 262 0
-276 -275 -262 0
276 -275 262 0
276 275 -262 0
-277 276 262 0
-277 -276 -262 0
277 -276 262 0
277 276 -262 0
-278 277 263 0
-278 -277 -263 0
278 -277 263 0
278 277 -263 0
-279 278 263 0
-279 -278 -263 0
279 -278 263 0
279 278 -263 0
-280 279 264 0
-280 -279 -264 0
280 -279 264 0
280 279 -264 0
-280 0
-281 193 0
-281 38 0
281 -193 -38 0
-282 195 0
-282 38 0
282 -195 -38 0
-283 195 0
-283 43 0
283 -195 -43 0
-284 197 0
-284 86 0
284 -197 -86 0
-285 199 0
-285 86 0
285 -199 -86 0
-286 199 0
-286 91 0
286 -199 -91 0
-287 201 0
-287 134 0
287 -201 -134 0
-288 201 0
-288 144 0
288 -201 -144 0
-289 203 0
-289 182 0
289 -203 -182 0
-290 281 282 0
-290 -281 -282 0
290 -281 282 0
290 281 -282 0
-291 290 283 0
-291 -290 -283 0
291 -290 283 0
291 290 -283 0
-292 291 281 0
-292 -291 -281 0
292 -291 281 0
292 291 -281 0
-293 292 282 0
-293 -292 -282 0
293 -292 282 0
293 292 -282 0
-294 293 283 0
-294 -293 -283 0
294 -293 283 0
294 293 -283 0
-295 294 284 0
-295 -294 -284 0
295 -294 284 0
295 294 -284 0
-296 295 285 0
-296 -295 -285 0
296 -295 285 0
296 295 -285 0
-297 296 286 0
-297 -296 -286 0
297 -296 286 0
297 296 -286 0
-298 297 284 0
-298 -297 -284 0
298 -297 284 0
298 297 -284 0
-299 298 285 0
-299 -298 -285 0
299 -298 285 0
299 298 -285 0
-300 299 286 0
-300 -299 -286 0
300 -299 286 0
300 299 -286 0
-301 300 287 0
-301 -300 -287 0
301 -300 287 0
301 300 -287 0
-302 301 288 0
-302 -301 -288 0
302 -301 288 0
302 301 -288 0
-303 302 287 0
-303 -302 -287 0
303 -302 287 0
303 302 -287 0
-304 303 288 0
-304 -303 -288 0
304 -303 288 0
304 303 -288 0
-305 304 289 0
-305 -304 -289 0
305 -304 289 0
305 304 -289 0
-305 0
-306 193 0
-306 39 0
306 -193 -39 0
-307 195 0
-307 40 0
307 -195 -40 0
-308 195 0
-308 44 0
308 -195 -44 0
-309 193 0
-309 42 0
309 -193 -42 0
-310 195 0
-310 46 0
310 -195 -46 0
-311 195 0
-311 47 0
311 -195 -47 0
-312 197 0
-312 87 0
312 -197 -87 0
-313 199 0
-313 88 0
313 -199 -88 0
-314 199 0
-314 92 0
314 -199 -92 0
-315 197 0
-315 90 0
315 -197 -90 0
-316 199 0
-316 94 0
316 -199 -94 0
-317 199 0
-317 95 0
317 -199 -95 0
-318 201 0
-318 135 0
318 -201 -135 0
-319 201 0
-319 143 0
319 -201 -143 0
-320 201 0
-320 138 0
320 -201 -138 0
-321 201 0
-321 140 0
321 -201 -140 0
-322 203 0
-322 183 0
322 -203 -183 0
-323 306 307 0
-323 -306 -307 0
323 -306 307 0
323 306 -307 0
-324 323 308 0
-324 -323 -308 0
324 -323 308 0
324 323 -308 0
-325 324 309 0
-325 -324 -309 0
325 -324 309 0
325 324 -309 0
-326 325 310 0
-326 -325 -310 0
326 -325 310 0
326 325 -310 0
-327 326 311 0
-327 -326 -311 0
327 -326 311 0
327 326 -311 0
-328 327 312 0
-328 -327 -312 0
328 -327 312 0
328 327 -312 0
-329 328 313 0
-329 -328 -313 0
329 -328 313 0
329 328 -313 0
-330 329 314 0
-330 -329 -314 0
330 -329 314 0
330 329 -314 0
-331 330 315 0
-331 -330 -315 0
331 -330 315 0
331 330 -315 0
-332 331 316 0
-332 -331 -316 0
332 -331 316 0
332 331 -316 0
-333 332 317 0
-333 -332 -317 0
333 -332 317 0
333 332 -317 0
-334 333 318 0
-334 -333 -318 0
334 -333 318 0
334 333 -318 0
-335 334 319 0
-335 -334 -319 0
335 -334 319 0
335 334 -319 0
-336 335 320 0
-336 -335 -320 0
336 -335 320 0
336 335 -320 0
-337 336 321 0
-337 -336 -321 0
337 -336 321 0
337 336 -321 0
-338 337 322 0
-338 -337 -322 0
338 -337 322 0
338 337 -322 0
-338 0
-339 193 0
-339 40 0
339 -193 -40 0
-340 195 0
-340 39 0
340 -195 -39 0
-341 195 0
-341 42 0
341 -195 -42 0
-342 193 0
-342 46 0
342 -193 -46 0
-343 197 0
-343 88 0
343 -197 -88 0
-344 199 0
-344 87 0
344 -199 -87 0
-345 199 0
-345 90 0
345 -199 -90 0
-346 197 0
-346 94 0
346 -197 -94 0
-347 201 0
-347 136 0
347 -201 -136 0
-348 201 0
-348 142 0
348 -201 -142 0
-349 203 0
-349 184 0
349 -203 -184 0
-350 339 340 0
-350 -339 -340 0
350 -339 340 0
350 339 -340 0
-351 350 341 0
-351 -350 -341 0
351 -350 341 0
351 350 -341 0
-352 351 342 0
-352 -351 -342 0
352 -351 342 0
352 351 -342 0
-353 352 341 0
-353 -352 -341 0
353 -352 341 0
353 352 -341 0
-354 353 340 0
-354 -353 -340 0
354 -353 340 0
354 353 -340 0
-355 354 343 0
-355 -354 -343 0
355 -354 343 0
355 354 -343 0
-356 355 344 0
-356 -355 -344 0
356 -355 344 0
356 355 -344 0
-357 356 345 0
-357 -356 -345 0
357 -356 345 0
357 356 -345 0
-358 357 346 0
-358 -357 -346 0
358 -357 346 0
358 357 -346 0
-359 358 345 0
-359 -358 -345 0
359 -358 345 0
359 358 -345 0
-360 359 344 0
-360 -359 -344 0
360 -359 344 0
360 359 -344 0
-361 360 347 0
-361 -360 -347 0
361 -360 347 0
361 360 -347 0
-362 361 348 0
-362 -361 -348 0
362 -361 348 0
362 361 -348 0
-363 362 348 0
-363 -362 -348 0
363 -362 348 0
363 362 -348 0
-364 363 347 0
-364 -363 -347 0
364 -363 347 0
364 363 -347 0
-365 364 349 0
-365 -364 -349 0
365 -364 349 0
365 364 -349 0
-365 0
-366 193 0
-366 43 0
366 -193 -43 0
-367 195 0
-367 48 0
367 -195 -48 0
-368 197 0
-368 91 0
368 -197 -91 0
-369 199 0
-369 96 0
369 -199 -96 0
-370 201 0
-370 139 0
370 -201 -139 0
-371 203 0
-371 187 0
371 -203 -187 0
-372 366 367 0
-372 -366 -367 0
372 -366 367 0
372 366 -367 0
-373 372 367 0
-373 -372 -367 0
373 -372 367 0
373 372 -367 0
-374 373 366 0
-374 -373 -366 0
374 -373 366 0
374 373 -366 0
-375 374 367 0
-375 -374 -367 0
375 -374 367 0
375 374 -367 0
-376 375 367 0
-376 -375 -367 0
376 -375 367 0
376 375 -367 0
-377 376 368 0
-377 -376 -368 0
377 -376 368 0
377 376 -368 0
-378 377 369 0
-378 -377 -369 0
378 -377 369 0
378 377 -369 0
-379 378 369 0
-379 -378 -369 0
379 -378 369 0
379 378 -369 0
-380 379 368 0
-380 -379 -368 0
380 -379 368 0
380 379 -368 0
-381 380 369 0
-381 -380 -369 0
381 -380 369 0
381 380 -369 0
-382 381 369 0
-382 -381 -369 0
382 -381 369 0
382 381 -369 0
-383 382 370 0
-383 -382 -370 0
383 -382 370 0
383 382 -370 0
-384 383 370 0
-384 -383 -370 0
384 -383 370 0
384 383 -370 0
-385 384 370 0
-385 -384 -370 0
385 -384 370 0
385 384 -370 0
-386 385 370 0
-386 -385 -370 0
386 -385 370 0
386 385 -370 0
-387 386 371 0
-387 -386 -371 0
387 -386 371 0
387 386 -371 0
-387 0
-388 1 0
-388 18 0
388 -1 -18 0
-389 388 0
-389 33 0
389 -388 -33 0
-390 2 0
-390 22 0
390 -2 -22 0
-391 390 0
-391 33 0
391 -390 -33 0
-392 2 0
-392 23 0
392 -2 -23 0
-393 392 0
-393 33 0
393 -392 -33 0
-394 17 0
-394 5 0
394 -17 -5 0
-395 394 0
-395 33 0
395 -394 -33 0
-396 21 0
-396 6 0
396 -21 -6 0
-397 396 0
-397 33 0
397 -396 -33 0
-398 21 0
-398 10 0
398 -21 -10 0
-399 398 0
-399 33 0
399 -398 -33 0
-400 49 0
-400 66 0
400 -49 -66 0
-401 400 0
-401 81 0
401 -400 -81 0
-402 50 0
-402 70 0
402 -50 -70 0
-403 402 0
-403 81 0
403 -402 -81 0
-404 50 0
-404 71 0
404 -50 -71 0
-405 404 0
-405 81 0
405 -404 -81 0
-406 65 0
-406 53 0
406 -65 -53 0
-407 406 0
-407 81 0
407 -406 -81 0
-408 69 0
-408 54 0
408 -69 -54 0
-409 408 0
-409 81 0
409 -408 -81 0
-410 69 0
-410 58 0
410 -69 -58 0
-411 410 0
-411 81 0
411 -410 -81 0
-412 97 0
-412 114 0
412 -97 -114 0
-413 412 0
-413 129 0
413 -412 -129 0
-414 97 0
-414 116 0
414 -97 -116 0
-415 414 0
-415 129 0
415 -414 -129 0
-416 113 0
-416 101 0
416 -113 -101 0
-417 416 0
-417 129 0
417 -416 -129 0
-418 113 0
-418 109 0
418 -113 -109 0
-419 418 0
-419 129 0
419 -418 -129 0
-420 145 0
-420 162 0
420 -145 -162 0
-421 420 0
-421 177 0
421 -420 -177 0
-422 389 391 0
-422 -389 -391 0
422 -389 391 0
422 389 -391 0
-423 422 393 0
-423 -422 -393 0
423 -422 393 0
423 422 -393 0
-424 423 395 0
-424 -423 -395 0
424 -423 395 0
424 423 -395 0
-425 424 397 0
-425 -424 -397 0
425 -424 397 0
425 424 -397 0
-426 425 399 0
-426 -425 -399 0
426 -425 399 0
426 425 -399 0
-427 426 401 0
-427 -426 -401 0
427 -426 401 0
427 426 -401 0
-428 427 403 0
-428 -427 -403 0
428 -427 403 0
428 427 -403 0
-429 428 405 0
-429 -428 -405 0
429 -428 405 0
429 428 -405 0
-430 429 407 0
-430 -429 -407 0
430 -429 407 0
430 429 -407 0
-431 430 409 0
-431 -430 -409 0
431 -430 409 0
431 430 -409 0
-432 431 411 0
-432 -431 -411 0
432 -431 411 0
432 431 -411 0
-433 432 413 0
-433 -432 -413 0
433 -432 413 0
433 432 -413 0
-434 433 415 0
-434 -433 -415 0
434 -433 415 0
434 433 -415 0
-435 434 417 0
-435 -434 -417 0
435 -434 417 0
435 434 -417 0
-436 435 419 0
-436 -435 -419 0
436 -435 419 0
436 435 -419 0
-437 436 421 0
-437 -436 -421 0
437 -436 421 0
437 436 -421 0
-437 0
-438 388 0
-438 34 0
438 -388 -34 0
-439 390 0
-439 34 0
439 -390 -34 0
-440 392 0
-440 35 0
440 -392 -35 0
-441 394 0
-441 37 0
441 -394 -37 0
-442 396 0
-442 37 0
442 -396 -37 0
-443 398 0
-443 41 0
443 -398 -41 0
-444 400 0
-444 82 0
444 -400 -82 0
-445 402 0
-445 82 0
445 -402 -82 0
-446 404 0
-446 83 0
446 -404 -83 0
-447 406 0
-447 85 0
447 -406 -85 0
-448 408 0
-448 85 0
448 -408 -85 0
-449 410 0
-449 89 0
449 -410 -89 0
-450 412 0
-450 130 0
450 -412 -130 0
-451 414 0
-451 132 0
451 -414 -132 0
-452 416 0
-452 133 0
452 -416 -133 0
-453 418 0
-453 141 0
453 -418 -141 0
-454 420 0
-454 178 0
454 -420 -178 0
-455 438 439 0
-455 -438 -439 0
455 -438 439 0
455 438 -439 0
-456 455 440 0
-456 -455 -440 0
456 -455 440 0
456 455 -440 0
-457 456 441 0
-457 -456 -441 0
457 -456 441 0
457 456 -441 0
-458 457 442 0
-458 -457 -442 0
458 -457 442 0
458 457 -442 0
-459 458 443 0
-459 -458 -443 0
459 -458 443 0
459 458 -443 0
-460 459 444 0
-460 -459 -444 0
460 -459 444 0
460 459 -444 0
-461 460 445 0
-461 -460 -445 0
461 -460 445 0
461 460 -445 0
-462 461 446 0
-462 -461 -446 0
462 -461 446 0
462 461 -446 0
-463 462 447 0
-463 -462 -447 0
463 -462 447 0
463 462 -447 0
-464 463 448 0
-464 -463 -448 0
464 -463 448 0
464 463 -448 0
-465 464 449 0
-465 -464 -449 0
465 -464 449 0
465 464 -449 0
-466 465 450 0
-466 -465 -450 0
466 -465 450 0
466 465 -450 0
-467 466 451 0
-467 -466 -451 0
467 -466 451 0
467 466 -451 0
-468 467 452 0
-468 -467 -452 0
468 -467 452 0
468 467 -452 0
-469 468 453 0
-469 -468 -453 0
469 -468 453 0
469 468 -453 0
-470 469 454 0
-470 -469 -454 0
470 -469 454 0
470 469 -454 0
-470 0
-471 388 0
-471 35 0
471 -388 -35 0
-472 390 0
-472 36 0
472 -390 -36 0
-473 392 0
-473 36 0
473 -392 -36 0
-474 394 0
-474 41 0
474 -394 -41 0
-475 396 0
-475 45 0
475 -396 -45 0
-476 398 0
-476 45 0
476 -398 -45 0
-477 400 0
-477 83 0
477 -400 -83 0
-478 402 0
-478 84 0
478 -402 -84 0
-479 404 0
-479 84 0
479 -404 -84 0
-480 406 0
-480 89 0
480 -406 -89 0
-481 408 0
-481 93 0
481 -408 -93 0
-482 410 0
-482 93 0
482 -410 -93 0
-483 412 0
-483 131 0
483 -412 -131 0
-484 414 0
-484 131 0
484 -414 -131 0
-485 416 0
-485 137 0
485 -416 -137 0
-486 418 0
-486 137 0
486 -418 -137 0
-487 420 0
-487 179 0
487 -420 -179 0
-488 471 472 0
-488 -471 -472 0
488 -471 472 0
488 471 -472 0
-489 488 473 0
-489 -488 -473 0
489 -488 473 0
489 488 -473 0
-490 489 474 0
-490 -489 -474 0
490 -489 474 0
490 489 -474 0
-491 490 475 0
-491 -490 -475 0
491 -490 475 0
491 490 -475 0
-492 491 476 0
-492 -491 -476 0
492 -491 476 0
492 491 -476 0
-493 492 477 0
-493 -492 -477 0
493 -492 477 0
493 492 -477 0
-494 493 478 0
-494 -493 -478 0
494 -493 478 0
494 493 -478 0
-495 494 479 0
-495 -494 -479 0
495 -494 479 0
495 494 -479 0
-496 495 480 0
-496 -495 -480 0
496 -495 480 0
496 495 -480 0
-497 496 481 0
-497 -496 -481 0
497 -496 481 0
497 496 -481 0
-498 497 482 0
-498 -497 -482 0
498 -497 482 0
498 497 -482 0
-499 498 483 0
-499 -498 -483 0
499 -498 483 0
499 498 -483 0
-500 499 484 0
-500 -499 -484 0
500 -499 484 0
500 499 -484 0
-501 500 485 0
-501 -500 -485 0
501 -500 485 0
501 500 -485 0
-502 501 486 0
-502 -501 -486 0
502 -501 486 0
502 501 -486 0
-503 502 487 0
-503 -502 -487 0
503 -502 487 0
503 502 -487 0
-503 0
-504 388 0
-504 36 0
504 -388 -36 0
-505 390 0
-505 35 0
505 -390 -35 0
-506 392 0
-506 34 0
506 -392 -34 0
-507 394 0
-507 45 0
507 -394 -45 0
-508 396 0
-508 41 0
508 -396 -41 0
-509 398 0
-509 37 0
509 -398 -37 0
-510 400 0
-510 84 0
510 -400 -84 0
-511 402 0
-511 83 0
511 -402 -83 0
-512 404 0
-512 82 0
512 -404 -82 0
-513 406 0
-513 93 0
513 -406 -93 0
-514 408 0
-514 89 0
514 -408 -89 0
-515 410 0
-515 85 0
515 -410 -85 0
-516 412 0
-516 132 0
516 -412 -132 0
-517 414 0
-517 130 0
517 -414 -130 0
-518 416 0
-518 141 0
518 -416 -141 0
-519 418 0
-519 133 0
519 -418 -133 0
-520 420 0
-520 180 0
520 -420 -180 0
-521 504 505 0
-521 -504 -505 0
521 -504 505 0
521 504 -505 0
-522 521 506 0
-522 -521 -506 0
522 -521 506 0
522 521 -506 0
-523 522 507 0
-523 -522 -507 0
523 -522 507 0
523 522 -507 0
-524 523 508 0
-524 -523 -508 0
524 -523 508 0
524 523 -508 0
-525 524 509 0
-525 -524 -509 0
525 -524 509 0
525 524 -509 0
-526 525 510 0
-526 -525 -510 0
526 -525 510 0
526 525 -510 0
-527 526 511 0
-527 -526 -511 0
527 -526 511 0
527 526 -511 0
-528 527 512 0
-528 -527 -512 0
528 -527 512 0
528 527 -512 0
-529 528 513 0
-529 -528 -513 0
529 -528 513 0
529 528 -513 0
-530 529 514 0
-530 -529 -514 0
530 -529 514 0
530 529 -514 0
-531 530 515 0
-531 -530 -515 0
531 -530 515 0
531 530 -515 0
-532 531 516 0
-532 -531 -516 0
532 -531 516 0
532 531 -516 0
-533 532 517 0
-533 -532 -517 0
533 -532 517 0
533 532 -517 0
-534 533 518 0
-534 -533 -518 0
534 -533 518 0
534 533 -518 0
-535 534 519 0
-535 -534 -519 0
535 -534 519 0
535 534 -519 0
-536 535 520 0
-536 -535 -520 0
536 -535 520 0
536 535 -520 0
-536 0
-537 388 0
-537 37 0
537 -388 -37 0
-538 390 0
-538 37 0
538 -390 -37 0
-539 392 0
-539 41 0
539 -392 -41 0
-540 394 0
-540 34 0
540 -394 -34 0
-541 396 0
-541 34 0
541 -396 -34 0
-542 398 0
-542 35 0
542 -398 -35 0
-543 400 0
-543 85 0
543 -400 -85 0
-544 402 0
-544 85 0
544 -402 -85 0
-545 404 0
-545 89 0
545 -404 -89 0
-546 406 0
-546 82 0
546 -406 -82 0
-547 408 0
-547 82 0
547 -408 -82 0
-548 410 0
-548 83 0
548 -410 -83 0
-549 412 0
-549 133 0
549 -412 -133 0
-550 414 0
-550 141 0
550 -414 -141 0
-551 416 0
-551 130 0
551 -416 -130 0
-552 418 0
-552 132 0
552 -418 -132 0
-553 420 0
-553 181 0
553 -420 -181 0
-554 537 538 0
-554 -537 -538 0
554 -537 538 0
554 537 -538 0
-555 554 539 0
-555 -554 -539 0
555 -554 539 0
555 554 -539 0
-556 555 540 0
-556 -555 -540 0
556 -555 540 0
556 555 -540 0
-557 556 541 0
-557 -556 -541 0
557 -556 541 0
557 556 -541 0
-558 557 542 0
-558 -557 -542 0
558 -557 542 0
558 557 -542 0
-559 558 543 0
-559 -558 -543 0
559 -558 543 0
559 558 -543 0
-560 559 544 0
-560 -559 -544 0
560 -559 544 0
560 559 -544 0
-561 560 545 0
-561 -560 -545 0
561 -560 545 0
561 560 -545 0
-562 561 546 0
-562 -561 -546 0
562 -561 546 0
562 561 -546 0
-563 562 547 0
-563 -562 -547 0
563 -562 547 0
563 562 -547 0
-564 563 548 0
-564 -563 -548 0
564 -563 548 0
564 563 -548 0
-565 564 549 0
-565 -564 -549 0
565 -564 549 0
565 564 -549 0
-566 565 550 0
-566 -565 -550 0
566 -565 550 0
566 565 -550 0
-567 566 551 0
-567 -566 -551 0
567 -566 551 0
567 566 -551 0
-568 567 552 0
-568 -567 -552 0
568 -567 552 0
568 567 -552 0
-569 568 553 0
-569 -568 -553 0
569 -568 553 0
569 568 -553 0
-569 0
-570 388 0
-570 38 0
570 -388 -38 0
-571 390 0
-571 38 0
571 -390 -38 0
-572 392 0
-572 43 0
572 -392 -43 0
-573 394 0
-573 38 0
573 -394 -38 0
-574 396 0
-574 38 0
574 -396 -38 0
-575 398 0
-575 43 0
575 -398 -43 0
-576 400 0
-576 86 0
576 -400 -86 0
-577 402 0
-577 86 0
577 -402 -86 0
-578 404 0
-578 91 0
578 -404 -91 0
-579 406 0
-579 86 0
579 -406 -86 0
-580 408 0
-580 86 0
580 -408 -86 0
-581 410 0
-581 91 0
581 -410 -91 0
-582 412 0
-582 134 0
582 -412 -134 0
-583 414 0
-583 144 0
583 -414 -144 0
-584 416 0
-584 134 0
584 -416 -134 0
-585 418 0
-585 144 0
585 -418 -144 0
-586 420 0
-586 182 0
586 -420 -182 0
-587 570 571 0
-587 -570 -571 0
587 -570 571 0
587 570 -571 0
-588 587 572 0
-588 -587 -572 0
588 -587 572 0
588 587 -572 0
-589 588 573 0
-589 -588 -573 0
589 -588 573 0
589 588 -573 0
-590 589 574 0
-590 -589 -574 0
590 -589 574 0
590 589 -574 0
-591 590 575 0
-591 -590 -575 0
591 -590 575 0
591 590 -575 0
-592 591 576 0
-592 -591 -576 0
592 -591 576 0
592 591 -576 0
-593 592 577 0
-593 -592 -577 0
593 -592 577 0
593 592 -577 0
-594 593 578 0
-594 -593 -578 0
594 -593 578 0
594 593 -578 0
-595 594 579 0
-595 -594 -579 0
595 -594 579 0
595 594 -579 0
-596 595 580 0
-596 -595 -580 0
596 -595 580 0
596 595 -580 0
-597 596 581 0
-597 -596 -581 0
597 -596 581 0
597 596 -581 0
-598 597 582 0
-598 -597 -582 0
598 -597 582 0
598 597 -582 0
-599 598 583 0
-599 -598 -583 0
599 -598 583 0
599 598 -583 0
-600 599 584 0
-600 -599 -584 0
600 -599 584 0
600 599 -584 0
-601 600 585 0
-601 -600 -585 0
601 -600 585 0
601 600 -585 0
-602 601 586 0
-602 -601 -586 0
602 -601 586 0
602 601 -586 0
-602 0
-603 388 0
-603 39 0
603 -388 -39 0
-604 390 0
-604 40 0
604 -390 -40 0
-605 392 0
-605 44 0
605 -392 -44 0
-606 394 0
-606 42 0
606 -394 -42 0
-607 396 0
-607 46 0
607 -396 -46 0
-608 398 0
-608 47 0
608 -398 -47 0
-609 400 0
-609 87 0
609 -400 -87 0
-610 402 0
-610 88 0
610 -402 -88 0
-611 404 0
-611 92 0
611 -404 -92 0
-612 406 0
-612 90 0
612 -406 -90 0
-613 408 0
-613 94 0
613 -408 -94 0
-614 410 0
-614 95 0
614 -410 -95 0
-615 412 0
-615 135 0
615 -412 -135 0
-616 414 0
-616 143 0
616 -414 -143 0
-617 416 0
-617 138 0
617 -416 -138 0
-618 418 0
-618 140 0
618 -418 -140 0
-619 420 0
-619 183 0
619 -420 -183 0
-620 603 604 0
-620 -603 -604 0
620 -603 604 0
620 603 -604 0
-621 620 605 0
-621 -620 -605 0
621 -620 605 0
621 620 -605 0
-622 621 606 0
-622 -621 -606 0
622 -621 606 0
622 621 -606 0
-623 622 607 0
-623 -622 -607 0
623 -622 607 0
623 622 -607 0
-624 623 608 0
-624 -623 -608 0
624 -623 608 0
624 623 -608 0
-625 624 609 0
-625 -624 -609 0
625 -624 609 0
625 624 -609 0
-626 625 610 0
-626 -625 -610 0
626 -625 610 0
626 625 -610 0
-627 626 611 0
-627 -626 -611 0
627 -626 611 0
627 626 -611 0
-628 627 612 0
-628 -627 -612 0
628 -627 612 0
628 627 -612 0
-629 628 613 0
-629 -628 -613 0
629 -628 613 0
629 628 -613 0
-630 629 614 0
-630 -629 -614 0
630 -629 614 0
630 629 -614 0
-631 630 615 0
-631 -630 -615 0
631 -630 615 0
631 630 -615 0
-632 631 616 0
-632 -631 -616 0
632 -631 616 0
632 631 -616 0
-633 632 617 0
-633 -632 -617 0
633 -632 617 0
633 632 -617 0
-634 633 618 0
-634 -633 -618 0
634 -633 618 0
634 633 -618 0
-635 634 619 0
-635 -634 -619 0
635 -634 619 0
635 634 -619 0
-635 0
-636 388 0
-636 40 0
636 -388 -40 0
-637 390 0
-637 39 0
637 -390 -39 0
-638 392 0
-638 42 0
638 -392 -42 0
-639 394 0
-639 46 0
639 -394 -46 0
-640 396 0
-640 42 0
640 -396 -42 0
-641 398 0
-641 39 0
641 -398 -39 0
-642 400 0
-642 88 0
642 -400 -88 0
-643 402 0
-643 87 0
643 -402 -87 0
-644 404 0
-644 90 0
644 -404 -90 0
-645 406 0
-645 94 0
645 -406 -94 0
-646 408 0
-646 90 0
646 -408 -90 0
-647 410 0
-647 87 0
647 -410 -87 0
-648 412 0
-648 136 0
648 -412 -136 0
-649 414 0
-649 142 0
649 -414 -142 0
-650 416 0
-650 142 0
650 -416 -142 0
-651 418 0
-651 136 0
651 -418 -136 0
-652 420 0
-652 184 0
652 -420 -184 0
-653 636 637 0
-653 -636 -637 0
653 -636 637 0
653 636 -637 0
-654 653 638 0
-654 -653 -638 0
654 -653 638 0
654 653 -638 0
-655 654 639 0
-655 -654 -639 0
655 -654 639 0
655 654 -639 0
-656 655 640 0
-656 -655 -640 0
656 -655 640 0
656 655 -640 0
-657 656 641 0
-657 -656 -641 0
657 -656 641 0
657 656 -641 0
-658 657 642 0
-658 -657 -642 0
658 -657 642 0
658 657 -642 0
-659 658 643 0
-659 -658 -643 0
659 -658 643 0
659 658 -643 0
-660 659 644 0
-660 -659 -644 0
660 -659 644 0
660 659 -644 0
-661 660 645 0
-661 -660 -645 0
661 -660 645 0
661 660 -645 0
-662 661 646 0
-662 -661 -646 0
662 -661 646 0
662 661 -646 0
-663 662 647 0
-663 -662 -647 0
663 -662 647 0
663 662 -647 0
-664 663 648 0
-664 -663 -648 0
664 -663 648 0
664 663 -648 0
-665 664 649 0
-665 -664 -649 0
665 -664 649 0
665 664 -649 0
-666 665 650 0
-666 -665 -650 0
666 -665 650 0
666 665 -650 0
-667 666 651 0
-667 -666 -651 0
667 -666 651 0
667 666 -651 0
-668 667 652 0
-668 -667 -652 0
668 -667 652 0
668 667 -652 0
-668 0
-669 388 0
-669 41 0
669 -388 -41 0
-670 390 0
-670 45 0
670 -390 -45 0
-671 392 0
-671 45 0
671 -392 -45 0
-672 394 0
-672 35 0
672 -394 -35 0
-673 396 0
-673 36 0
673 -396 -36 0
-674 398 0
-674 36 0
674 -398 -36 0
-675 400 0
-675 89 0
675 -400 -89 0
-676 402 0
-676 93 0
676 -402 -93 0
-677 404 0
-677 93 0
677 -404 -93 0
-678 406 0
-678 83 0
678 -406 -83 0
-679 408 0
-679 84 0
679 -408 -84 0
-680 410 0
-680 84 0
680 -410 -84 0
-681 412 0
-681 137 0
681 -412 -137 0
-682 414 0
-682 137 0
682 -414 -137 0
-683 416 0
-683 131 0
683 -416 -131 0
-684 418 0
-684 131 0
684 -418 -131 0
-685 420 0
-685 185 0
685 -420 -185 0
-686 669 670 0
-686 -669 -670 0
686 -669 670 0
686 669 -670 0
-687 686 671 0
-687 -686 -671 0
687 -686 671 0
687 686 -671 0
-688 687 672 0
-688 -687 -672 0
688 -687 672 0
688 687 -672 0
-689 688 673 0
-689 -688 -673 0
689 -688 673 0
689 688 -673 0
-690 689 674 0
-690 -689 -674 0
690 -689 674 0
690 689 -674 0
-691 690 675 0
-691 -690 -675 0
691 -690 675 0
691 690 -675 0
-692 691 676 0
-692 -691 -676 0
692 -691 676 0
692 691 -676 0
-693 692 677 0
-693 -692 -677 0
693 -692 677 0
693 692 -677 0
-694 693 678 0
-694 -693 -678 0
694 -693 678 0
694 693 -678 0
-695 694 679 0
-695 -694 -679 0
695 -694 679 0
695 694 -679 0
-696 695 680 0
-696 -695 -680 0
696 -695 680 0
696 695 -680 0
-697 696 681 0
-697 -696 -681 0
697 -696 681 0
697 696 -681 0
-698 697 682 0
-698 -697 -682 0
698 -697 682 0
698 697 -682 0
-699 698 683 0
-699 -698 -683 0
699 -698 683 0
699 698 -683 0
-700 699 684 0
-700 -699 -684 0
700 -699 684 0
700 699 -684 0
-701 700 685 0
-701 -700 -685 0
701 -700 685 0
701 700 -685 0
-701 0
-702 388 0
-702 42 0
702 -388 -42 0
-703 390 0
-703 46 0
703 -390 -46 0
-704 392 0
-704 47 0
704 -392 -47 0
-705 394 0
-705 39 0
705 -394 -39 0
-706 396 0
-706 40 0
706 -396 -40 0
-707 398 0
-707 44 0
707 -398 -44 0
-708 400 0
-708 90 0
708 -400 -90 0
-709 402 0
-709 94 0
709 -402 -94 0
-710 404 0
-710 95 0
710 -404 -95 0
-711 406 0
-711 87 0
711 -406 -87 0
-712 408 0
-712 88 0
712 -408 -88 0
-713 410 0
-713 92 0
713 -410 -92 0
-714 412 0
-714 138 0
714 -412 -138 0
-715 414 0
-715 140 0
715 -414 -140 0
-716 416 0
-716 135 0
716 -416 -135 0
-717 418 0
-717 143 0
717 -418 -143 0
-718 420 0
-718 186 0
718 -420 -186 0
-719 702 703 0
-719 -702 -703 0
719 -702 703 0
719 702 -703 0
-720 719 704 0
-720 -719 -704 0
720 -719 704 0
720 719 -704 0
-721 720 705 0
-721 -720 -705 0
721 -720 705 0
721 720 -705 0
-722 721 706 0
-722 -721 -706 0
722 -721 706 0
722 721 -706 0
-723 722 707 0
-723 -722 -707 0
723 -722 707 0
723 722 -707 0
-724 723 708 0
-724 -723 -708 0
724 -723 708 0
724 723 -708 0
-725 724 709 0
-725 -724 -709 0
725 -724 709 0
725 724 -709 0
-726 725 710 0
-726 -725 -710 0
726 -725 710 0
726 725 -710 0
-727 726 711 0
-727 -726 -711 0
727 -726 711 0
727 726 -711 0
-728 727 712 0
-728 -727 -712 0
728 -727 712 0
728 727 -712 0
-729 728 713 0
-729 -728 -713 0
729 -728 713 0
729 728 -713 0
-730 729 714 0
-730 -729 -714 0
730 -729 714 0
730 729 -714 0
-731 730 715 0
-731 -730 -715 0
731 -730 715 0
731 730 -715 0
-732 731 716 0
-732 -731 -716 0
732 -731 716 0
732 731 -716 0
-733 732 717 0
-733 -732 -717 0
733 -732 717 0
733 732 -717 0
-734 733 718 0
-734 -733 -718 0
734 -733 718 0
734 733 -718 0
-734 0
-735 388 0
-735 43 0
735 -388 -43 0
-736 390 0
-736 48 0
736 -390 -48 0
-737 392 0
-737 48 0
737 -392 -48 0
-738 394 0
-738 43 0
738 -394 -43 0
-739 396 0
-739 48 0
739 -396 -48 0
-740 398 0
-740 48 0
740 -398 -48 0
-741 400 0
-741 91 0
741 -400 -91 0
-742 402 0
-742 96 0
742 -402 -96 0
-743 404 0
-743 96 0
743 -404 -96 0
-744 406 0
-744 91 0
744 -406 -91 0
-745 408 0
-745 96 0
745 -408 -96 0
-746 410 0
-746 96 0
746 -410 -96 0
-747 412 0
-747 139 0
747 -412 -139 0
-748 414 0
-748 139 0
748 -414 -139 0
-749 416 0
-749 139 0
749 -416 -139 0
-750 418 0
-750 139 0
750 -418 -139 0
-751 420 0
-751 187 0
751 -420 -187 0
-752 735 736 0
-752 -735 -736 0
752 -735 736 0
752 735 -736 0
-753 752 737 0
-753 -752 -737 0
753 -752 737 0
753 752 -737 0
-754 753 738 0
-754 -753 -738 0
754 -753 738 0
754 753 -738 0
-755 754 739 0
-755 -754 -739 0
755 -754 739 0
755 754 -739 0
-756 755 740 0
-756 -755 -740 0
756 -755 740 0
756 755 -740 0
-757 756 741 0
-757 -756 -741 0
757 -756 741 0
757 756 -741 0
-758 757 742 0
-758 -757 -742 0
758 -757 742 0
758 757 -742 0
-759 758 743 0
-759 -758 -743 0
759 -758 743 0
759 758 -743 0
-760 759 744 0
-760 -759 -744 0
760 -759 744 0
760 759 -744 0
-761 760 745 0
-761 -760 -745 0
761 -760 745 0
761 760 -745 0
-762 761 746 0
-762 -761 -746 0
762 -761 746 0
762 761 -746 0
-763 762 747 0
-763 -762 -747 0
763 -762 747 0
763 762 -747 0
-764 763 748 0
-764 -763 -748 0
764 -763 748 0
764 763 -748 0
-765 764 749 0
-765 -764 -749 0
765 -764 749 0
765 764 -749 0
-766 765 750 0
-766 -765 -750 0
766 -765 750 0
766 765 -750 0
-767 766 751 0
-767 -766 -751 0
767 -766 751 0
767 766 -751 0
-767 0
-768 388 0
-768 44 0
768 -388 -44 0
-769 390 0
-769 47 0
769 -390 -47 0
-770 392 0
-770 46 0
770 -392 -46 0
-771 394 0
-771 47 0
771 -394 -47 0
-772 396 0
-772 44 0
772 -396 -44 0
-773 398 0
-773 40 0
773 -398 -40 0
-774 400 0
-774 92 0
774 -400 -92 0
-775 402 0
-775 95 0
775 -402 -95 0
-776 404 0
-776 94 0
776 -404 -94 0
-777 406 0
-777 95 0
777 -406 -95 0
-778 408 0
-778 92 0
778 -408 -92 0
-779 410 0
-779 88 0
779 -410 -88 0
-780 412 0
-780 140 0
780 -412 -140 0
-781 414 0
-781 138 0
781 -414 -138 0
-782 416 0
-782 143 0
782 -416 -143 0
-783 418 0
-783 135 0
783 -418 -135 0
-784 420 0
-784 188 0
784 -420 -188 0
-785 768 769 0
-785 -768 -769 0
785 -768 769 0
785 768 -769 0
-786 785 770 0
-786 -785 -770 0
786 -785 770 0
786 785 -770 0
-787 786 771 0
-787 -786 -771 0
787 -786 771 0
787 786 -771 0
-788 787 772 0
-788 -787 -772 0
788 -787 772 0
788 787 -772 0
-789 788 773 0
-789 -788 -773 0
789 -788 773 0
789 788 -773 0
-790 789 774 0
-790 -789 -774 0
790 -789 774 0
790 789 -774 0
-791 790 775 0
-791 -790 -775 0
791 -790 775 0
791 790 -775 0
-792 791 776 0
-792 -791 -776 0
792 -791 776 0
792 791 -776 0
-793 792 777 0
-793 -792 -777 0
793 -792 777 0
793 792 -777 0
-794 793 778 0
-794 -793 -778 0
794 -793 778 0
794 793 -778 0
-795 794 779 0
-795 -794 -779 0
795 -794 779 0
795 794 -779 0
-796 795 780 0
-796 -795 -780 0
796 -795 780 0
796 795 -780 0
-797 796 781 0
-797 -796 -781 0
797 -796 781 0
797 796 -781 0
-798 797 782 0
-798 -797 -782 0
798 -797 782 0
798 797 -782 0
-799 798 783 0
-799 -798 -783 0
799 -798 783 0
799 798 -783 0
-800 799 784 0
-800 -799 -784 0
800 -799 784 0
800 799 -784 0
-800 0
-801 388 0
-801 45 0
801 -388 -45 0
-802 390 0
-802 41 0
802 -390 -41 0
-803 392 0
-803 37 0
803 -392 -37 0
-804 394 0
-804 36 0
804 -394 -36 0
-805 396 0
-805 35 0
805 -396 -35 0
-806 398 0
-806 34 0
806 -398 -34 0
-807 400 0
-807 93 0
807 -400 -93 0
-808 402 0
-808 89 0
808 -402 -89 0
-809 404 0
-809 85 0
809 -404 -85 0
-810 406 0
-810 84 0
810 -406 -84 0
-811 408 0
-811 83 0
811 -408 -83 0
-812 410 0
-812 82 0
812 -410 -82 0
-813 412 0
-813 141 0
813 -412 -141 0
-814 414 0
-814 133 0
814 -414 -133 0
-815 416 0
-815 132 0
815 -416 -132 0
-816 418 0
-816 130 0
816 -418 -130 0
-817 420 0
-817 189 0
817 -420 -189 0
-818 801 802 0
-818 -801 -802 0
818 -801 802 0
818 801 -802 0
-819 818 803 0
-819 -818 -803 0
819 -818 803 0
819 818 -803 0
-820 819 804 0
-820 -819 -804 0
820 -819 804 0
820 819 -804 0
-821 820 805 0
-821 -820 -805 0
821 -820 805 0
821 820 -805 0
-822 821 806 0
-822 -821 -806 0
822 -821 806 0
822 821 -806 0
-823 822 807 0
-823 -822 -807 0
823 -822 807 0
823 822 -807 0
-824 823 808 0
-824 -823 -808 0
824 -823 808 0
824 823 -808 0
-825 824 809 0
-825 -824 -809 0
825 -824 809 0
825 824 -809 0
-826 825 810 0
-826 -825 -810 0
826 -825 810 0
826 825 -810 0
-827 826 811 0
-827 -826 -811 0
827 -826 811 0
827 826 -811 0
-828 827 812 0
-828 -827 -812 0
828 -827 812 0
828 827 -812 0
-829 828 813 0
-829 -828 -813 0
829 -828 813 0
829 828 -813 0
-830 829 814 0
-830 -829 -814 0
830 -829 814 0
830 829 -814 0
-831 830 815 0
-831 -830 -815 0
831 -830 815 0
831 830 -815 0
-832 831 816 0
-832 -831 -816 0
832 -831 816 0
832 831 -816 0
-833 832 817 0
-833 -832 -817 0
833 -832 817 0
833 832 -817 0
-833 0
-834 388 0
-834 46 0
834 -388 -46 0
-835 390 0
-835 42 0
835 -390 -42 0
-836 392 0
-836 39 0
836 -392 -39 0
-837 394 0
-837 40 0
837 -394 -40 0
-838 396 0
-838 39 0
838 -396 -39 0
-839 398 0
-839 42 0
839 -398 -42 0
-840 400 0
-840 94 0
840 -400 -94 0
-841 402 0
-841 90 0
841 -402 -90 0
-842 404 0
-842 87 0
842 -404 -87 0
-843 406 0
-843 88 0
843 -406 -88 0
-844 408 0
-844 87 0
844 -408 -87 0
-845 410 0
-845 90 0
845 -410 -90 0
-846 412 0
-846 142 0
846 -412 -142 0
-847 414 0
-847 136 0
847 -414 -136 0
-848 416 0
-848 136 0
848 -416 -136 0
-849 418 0
-849 142 0
849 -418 -142 0
-850 420 0
-850 190 0
850 -420 -190 0
-851 834 835 0
-851 -834 -835 0
851 -834 835 0
851 834 -835 0
-852 851 836 0
-852 -851 -836 0
852 -851 836 0
852 851 -836 0
-853 852 837 0
-853 -852 -837 0
853 -852 837 0
853 852 -837 0
-854 853 838 0
-854 -853 -838 0
854 -853 838 0
854 853 -838 0
-855 854 839 0
-855 -854 -839 0
855 -854 839 0
855 854 -839 0
-856 855 840 0
-856 -855 -840 0
856 -855 840 0
856 855 -840 0
-857 856 841 0
-857 -856 -841 0
857 -856 841 0
857 856 -841 0
-858 857 842 0
-858 -857 -842 0
858 -857 842 0
858 857 -842 0
-859 858 843 0
-859 -858 -843 0
859 -858 843 0
859 858 -843 0
-860 859 844 0
-860 -859 -844 0
860 -859 844 0
860 859 -844 0
-861 860 845 0
-861 -860 -845 0
861 -860 845 0
861 860 -845 0
-862 861 846 0
-862 -861 -846 0
862 -861 846 0
862 861 -846 0
-863 862 847 0
-863 -862 -847 0
863 -862 847 0
863 862 -847 0
-864 863 848 0
-864 -863 -848 0
864 -863 848 0
864 863 -848 0
-865 864 849 0
-865 -864 -849 0
865 -864 849 0
865 864 -849 0
-866 865 850 0
-866 -865 -850 0
866 -865 850 0
866 865 -850 0
-866 0
-867 388 0
-867 47 0
867 -388 -47 0
-868 390 0
-868 44 0
868 -390 -44 0
-869 392 0
-869 40 0
869 -392 -40 0
-870 394 0
-870 44 0
870 -394 -44 0
-871 396 0
-871 47 0
871 -396 -47 0
-872 398 0
-872 46 0
872 -398 -46 0
-873 400 0
-873 95 0
873 -400 -95 0
-874 402 0
-874 92 0
874 -402 -92 0
-875 404 0
-875 88 0
875 -404 -88 0
-876 406 0
-876 92 0
876 -406 -92 0
-877 408 0
-877 95 0
877 -408 -95 0
-878 410 0
-878 94 0
878 -410 -94 0
-879 412 0
-879 143 0
879 -412 -143 0
-880 414 0
-880 135 0
880 -414 -135 0
-881 416 0
-881 140 0
881 -416 -140 0
-882 418 0
-882 138 0
882 -418 -138 0
-883 420 0
-883 191 0
883 -420 -191 0
-884 867 868 0
-884 -867 -868 0
884 -867 868 0
884 867 -868 0
-885 884 869 0
-885 -884 -869 0
885 -884 869 0
885 884 -869 0
-886 885 870 0
-886 -885 -870 0
886 -885 870 0
886 885 -870 0
-887 886 871 0
-887 -886 -871 0
887 -886 871 0
887 886 -871 0
-888 887 872 0
-888 -887 -872 0
888 -887 872 0
888 887 -872 0
-889 888 873 0
-889 -888 -873 0
889 -888 873 0
889 888 -873 0
-890 889 874 0
-890 -889 -874 0
890 -889 874 0
890 889 -874 0
-891 890 875 0
-891 -890 -875 0
891 -890 875 0
891 890 -875 0
-892 891 876 0
-892 -891 -876 0
892 -891 876 0
892 891 -876 0
-893 892 877 0
-893 -892 -877 0
893 -892 877 0
893 892 -877 0
-894 893 878 0
-894 -893 -878 0
894 -893 878 0
894 893 -878 0
-895 894 879 0
-895 -894 -879 0
895 -894 879 0
895 894 -879 0
-896 895 880 0
-896 -895 -880 0
896 -895 880 0
896 895 -880 0
-897 896 881 0
-897 -896 -881 0
897 -896 881 0
897 896 -881 0
-898 897 882 0
-898 -897 -882 0
898 -897 882 0
898 897 -882 0
-899 898 883 0
-899 -898 -883 0
899 -898 883 0
899 898 -883 0
-899 0
-900 388 0
-900 48 0
900 -388 -48 0
-901 390 0
-901 43 0
901 -390 -43 0
-902 392 0
-902 38 0
902 -392 -38 0
-903 394 0
-903 48 0
903 -394 -48 0
-904 396 0
-904 43 0
904 -396 -43 0
-905 398 0
-905 38 0
905 -398 -38 0
-906 400 0
-906 96 0
906 -400 -96 0
-907 402 0
-907 91 0
907 -402 -91 0
-908 404 0
-908 86 0
908 -404 -86 0
-909 406 0
-909 96 0
909 -406 -96 0
-910 408 0
-910 91 0
910 -408 -91 0
-911 410 0
-911 86 0
911 -410 -86 0
-912 412 0
-912 144 0
912 -412 -144 0
-913 414 0
-913 134 0
913 -414 -134 0
-914 416 0
-914 144 0
914 -416 -144 0
-915 418 0
-915 134 0
915 -418 -134 0
-916 420 0
-916 192 0
916 -420 -192 0
-917 900 901 0
-917 -900 -901 0
917 -900 901 0
917 900 -901 0
-918 917 902 0
-918 -917 -902 0
918 -917 902 0
918 917 -902 0
-919 918 903 0
-919 -918 -903 0
919 -918 903 0
919 918 -903 0
-920 919 904 0
-920 -919 -904 0
920 -919 904 0
920 919 -904 0
-921 920 905 0
-921 -920 -905 0
921 -920 905 0
921 920 -905 0
-922 921 906 0
-922 -921 -906 0
922 -921 906 0
922 921 -906 0
-923 922 907 0
-923 -922 -907 0
923 -922 907 0
923 922 -907 0
-924 923 908 0
-924 -923 -908 0
924 -923 908 0
924 923 -908 0
-925 924 909 0
-925 -924 -909 0
925 -924 909 0
925 924 -909 0
-926 925 910 0
-926 -925 -910 0
926 -925 910 0
926 925 -910 0
-927 926 911 0
-927 -926 -911 0
927 -926 911 0
927 926 -911 0
-928 927 912 0
-928 -927 -912 0
928 -927 912 0
928 927 -912 0
-929 928 913 0
-929 -928 -913 0
929 -928 913 0
929 928 -913 0
-930 929 914 0
-930 -929 -914 0
930 -929 914 0
930 929 -914 0
-931 930 915 0
-931 -930 -915 0
931 -930 915 0
931 930 -915 0
-932 931 916 0
-932 -931 -916 0
932 -931 916 0
932 931 -916 0
-932 0
-933 1 0
-933 19 0
933 -1 -19 0
-934 933 0
-934 33 0
934 -933 -33 0
-935 2 0
-935 24 0
935 -2 -24 0
-936 935 0
-936 33 0
936 -935 -33 0
-937 17 0
-937 9 0
937 -17 -9 0
-938 937 0
-938 33 0
938 -937 -33 0
-939 21 0
-939 14 0
939 -21 -14 0
-940 939 0
-940 33 0
940 -939 -33 0
-941 49 0
-941 67 0
941 -49 -67 0
-942 941 0
-942 81 0
942 -941 -81 0
-943 50 0
-943 72 0
943 -50 -72 0
-944 943 0
-944 81 0
944 -943 -81 0
-945 65 0
-945 57 0
945 -65 -57 0
-946 945 0
-946 81 0
946 -945 -81 0
-947 69 0
-947 62 0
947 -69 -62 0
-948 947 0
-948 81 0
948 -947 -81 0
-949 97 0
-949 115 0
949 -97 -115 0
-950 949 0
-950 129 0
950 -949 -129 0
-951 113 0
-951 105 0
951 -113 -105 0
-952 951 0
-952 129 0
952 -951 -129 0
-953 145 0
-953 163 0
953 -145 -163 0
-954 953 0
-954 177 0
954 -953 -177 0
-955 934 936 0
-955 -934 -936 0
955 -934 936 0
955 934 -936 0
-956 955 936 0
-956 -955 -936 0
956 -955 936 0
956 955 -936 0
-957 956 938 0
-957 -956 -938 0
957 -956 938 0
957 956 -938 0
-958 957 940 0
-958 -957 -940 0
958 -957 940 0
958 957 -940 0
-959 958 940 0
-959 -958 -940 0
959 -958 940 0
959 958 -940 0
-960 959 942 0
-960 -959 -942 0
960 -959 942 0
960 959 -942 0
-961 960 944 0
-961 -960 -944 0
961 -960 944 0
961 960 -944 0
-962 961 944 0
-962 -961 -944 0
962 -961 944 0
962 961 -944 0
-963 962 946 0
-963 -962 -946 0
963 -962 946 0
963 962 -946 0
-964 963 948 0
-964 -963 -948 0
964 -963 948 0
964 963 -948 0
-965 964 948 0
-965 -964 -948 0
965 -964 948 0
965 964 -948 0
-966 965 950 0
-966 -965 -950 0
966 -965 950 0
966 965 -950 0
-967 966 950 0
-967 -966 -950 0
967 -966 950 0
967 966 -950 0
-968 967 952 0
-968 -967 -952 0
968 -967 952 0
968 967 -952 0
-969 968 952 0
-969 -968 -952 0
969 -968 952 0
969 968 -952 0
-970 969 954 0
-970 -969 -954 0
970 -969 954 0
970 969 -954 0
-970 0
-971 933 0
-971 34 0
971 -933 -34 0
-972 935 0
-972 34 0
972 -935 -34 0
-973 935 0
-973 35 0
973 -935 -35 0
-974 937 0
-974 37 0
974 -937 -37 0
-975 939 0
-975 37 0
975 -939 -37 0
-976 939 0
-976 41 0
976 -939 -41 0
-977 941 0
-977 82 0
977 -941 -82 0
-978 943 0
-978 82 0
978 -943 -82 0
-979 943 0
-979 83 0
979 -943 -83 0
-980 945 0
-980 85 0
980 -945 -85 0
-981 947 0
-981 85 0
981 -947 -85 0
-982 947 0
-982 89 0
982 -947 -89 0
-983 949 0
-983 130 0
983 -949 -130 0
-984 949 0
-984 132 0
984 -949 -132 0
-985 951 0
-985 133 0
985 -951 -133 0
-986 951 0
-986 141 0
986 -951 -141 0
-987 953 0
-987 178 0
987 -953 -178 0
-988 971 972 0
-988 -971 -972 0
988 -971 972 0
988 971 -972 0
-989 988 973 0
-989 -988 -973 0
989 -988 973 0
989 988 -973 0
-990 989 974 0
-990 -989 -974 0
990 -989 974 0
990 989 -974 0
-991 990 975 0
-991 -990 -975 0
991 -990 975 0
991 990 -975 0
-992 991 976 0
-992 -991 -976 0
992 -991 976 0
992 991 -976 0
-993 992 977 0
-993 -992 -977 0
993 -992 977 0
993 992 -977 0
-994 993 978 0
-994 -993 -978 0
994 -993 978 0
994 993 -978 0
-995 994 979 0
-995 -994 -979 0
995 -994 979 0
995 994 -979 0
-996 995 980 0
-996 -995 -980 0
996 -995 980 0
996 995 -980 0
-997 996 981 0
-997 -996 -981 0
997 -996 981 0
997 996 -981 0
-998 997 982 0
-998 -997 -982 0
998 -997 982 0
998 997 -982 0
-999 998 983 0
-999 -998 -983 0
999 -998 983 0
999 998 -983 0
-1000 999 984 0
-1000 -999 -984 0
1000 -999 984 0
1000 999 -984 0
-1001 1000 985 0
-1001 -1000 -985 0
1001 -1000 985 0
1001 1000 -985 0
-1002 1001 986 0
-1002 -1001 -986 0
1002 -1001 986 0
1002 1001 -986 0
-1003 1002 987 0
-1003 -1002 -987 0
1003 -1002 987 0
1003 1002 -987 0
-1003 0
-1004 933 0
-1004 35 0
1004 -933 -35 0
-1005 935 0
-1005 36 0
1005 -935 -36 0
-1006 937 0
-1006 41 0
1006 -937 -41 0
-1007 939 0
-1007 45 0
1007 -939 -45 0
-1008 941 0
-1008 83 0
1008 -941 -83 0
-1009 943 0
-1009 84 0
1009 -943 -84 0
-1010 945 0
-1010 89 0
1010 -945 -89 0
-1011 947 0
-1011 93 0
1011 -947 -93 0
-1012 949 0
-1012 131 0
1012 -949 -131 0
-1013 951 0
-1013 137 0
1013 -951 -137 0
-1014 953 0
-1014 179 0
1014 -953 -179 0
-1015 1004 1005 0
-1015 -1004 -1005 0
1015 -1004 1005 0
1015 1004 -1005 0
-1016 1015 1005 0
-1016 -1015 -1005 0
1016 -1015 1005 0
1016 1015 -1005 0
-1017 1016 1006 0
-1017 -1016 -1006 0
1017 -1016 1006 0
1017 1016 -1006 0
-1018 1017 1007 0
-1018 -1017 -1007 0
1018 -1017 1007 0
1018 1017 -1007 0
-1019 1018 1007 0
-1019 -1018 -1007 0
1019 -1018 1007 0
1019 1018 -1007 0
-1020 1019 1008 0
-1020 -1019 -1008 0
1020 -1019 1008 0
1020 1019 -1008 0
-1021 1020 1009 0
-1021 -1020 -1009 0
1021 -1020 1009 0
1021 1020 -1009 0
-1022 1021 1009 0
-1022 -1021 -1009 0
1022 -1021 1009 0
1022 1021 -1009 0
-1023 1022 1010 0
-1023 -1022 -1010 0
1023 -1022 1010 0
1023 1022 -1010 0
-1024 1023 1011 0
-1024 -1023 -1011 0
1024 -1023 1011 0
1024 1023 -1011 0
-1025 1024 1011 0
-1025 -1024 -1011 0
1025 -1024 1011 0
1025 1024 -1011 0
-1026 1025 1012 0
-1026 -1025 -1012 0
1026 -1025 1012 0
1026 1025 -1012 0
-1027 1026 1012 0
-1027 -1026 -1012 0
1027 -1026 1012 0
1027 1026 -1012 0
-1028 1027 1013 0
-1028 -1027 -1013 0
1028 -1027 1013 0
1028 1027 -1013 0
-1029 1028 1013 0
-1029 -1028 -1013 0
1029 -1028 1013 0
1029 1028 -1013 0
-1030 1029 1014 0
-1030 -1029 -1014 0
1030 -1029 1014 0
1030 1029 -1014 0
-1030 0
-1031 933 0
-1031 37 0
1031 -933 -37 0
-1032 935 0
-1032 37 0
1032 -935 -37 0
-1033 935 0
-1033 41 0
1033 -935 -41 0
-1034 937 0
-1034 34 0
1034 -937 -34 0
-1035 939 0
-1035 34 0
1035 -939 -34 0
-1036 939 0
-1036 35 0
1036 -939 -35 0
-1037 941 0
-1037 85 0
1037 -941 -85 0
-1038 943 0
-1038 85 0
1038 -943 -85 0
-1039 943 0
-1039 89 0
1039 -943 -89 0
-1040 945 0
-1040 82 0
1040 -945 -82 0
-1041 947 0
-1041 82 0
1041 -947 -82 0
-1042 947 0
-1042 83 0
1042 -947 -83 0
-1043 949 0
-1043 133 0
1043 -949 -133 0
-1044 949 0
-1044 141 0
1044 -949 -141 0
-1045 951 0
-1045 130 0
1045 -951 -130 0
-1046 951 0
-1046 132 0
1046 -951 -132 0
-1047 953 0
-1047 181 0
1047 -953 -181 0
-1048 1031 1032 0
-1048 -1031 -1032 0
1048 -1031 1032 0
1048 1031 -1032 0
-1049 1048 1033 0
-1049 -1048 -1033 0
1049 -1048 1033 0
1049 1048 -1033 0
-1050 1049 1034 0
-1050 -1049 -1034 0
1050 -1049 1034 0
1050 1049 -1034 0
-1051 1050 1035 0
-1051 -1050 -1035 0
1051 -1050 1035 0
1051 1050 -1035 0
-1052 1051 1036 0
-1052 -1051 -1036 0
1052 -1051 1036 0
1052 1051 -1036 0
-1053 1052 1037 0
-1053 -1052 -1037 0
1053 -1052 1037 0
1053 1052 -1037 0
-1054 1053 1038 0
-1054 -1053 -1038 0
1054 -1053 1038 0
1054 1053 -1038 0
-1055 1054 1039 0
-1055 -1054 -1039 0
1055 -1054 1039 0
1055 1054 -1039 0
-1056 1055 1040 0
-1056 -1055 -1040 0
1056 -1055 1040 0
1056 1055 -1040 0
-1057 1056 1041 0
-1057 -1056 -1041 0
1057 -1056 1041 0
1057 1056 -1041 0
-1058 1057 1042 0
-1058 -1057 -1042 0
1058 -1057 1042 0
1058 1057 -1042 0
-1059 1058 1043 0
-1059 -1058 -1043 0
1059 -1058 1043 0
1059 1058 -1043 0
-1060 1059 1044 0
-1060 -1059 -1044 0
1060 -1059 1044 0
1060 1059 -1044 0
-1061 1060 1045 0
-1061 -1060 -1045 0
1061 -1060 1045 0
1061 1060 -1045 0
-1062 1061 1046 0
-1062 -1061 -1046 0
1062 -1061 1046 0
1062 1061 -1046 0
-1063 1062 1047 0
-1063 -1062 -1047 0
1063 -1062 1047 0
1063 1062 -1047 0
-1063 0
-1064 933 0
-1064 38 0
1064 -933 -38 0
-1065 935 0
-1065 38 0
1065 -935 -38 0
-1066 935 0
-1066 43 0
1066 -935 -43 0
-1067 937 0
-1067 38 0
1067 -937 -38 0
-1068 939 0
-1068 38 0
1068 -939 -38 0
-1069 939 0
-1069 43 0
1069 -939 -43 0
-1070 941 0
-1070 86 0
1070 -941 -86 0
-1071 943 0
-1071 86 0
1071 -943 -86 0
-1072 943 0
-1072 91 0
1072 -943 -91 0
-1073 945 0
-1073 86 0
1073 -945 -86 0
-1074 947 0
-1074 86 0
1074 -947 -86 0
-1075 947 0
-1075 91 0
1075 -947 -91 0
-1076 949 0
-1076 134 0
1076 -949 -134 0
-1077 949 0
-1077 144 0
1077 -949 -144 0
-1078 951 0
-1078 134 0
1078 -951 -134 0
-1079 951 0
-1079 144 0
1079 -951 -144 0
-1080 953 0
-1080 182 0
1080 -953 -182 0
-1081 1064 1065 0
-1081 -1064 -1065 0
1081 -1064 1065 0
1081 1064 -1065 0
-1082 1081 1066 0
-1082 -1081 -1066 0
1082 -1081 1066 0
1082 1081 -1066 0
-1083 1082 1067 0
-1083 -1082 -1067 0
1083 -1082 1067 0
1083 1082 -1067 0
-1084 1083 1068 0
-1084 -1083 -1068 0
1084 -1083 1068 0
1084 1083 -1068 0
-1085 1084 1069 0
-1085 -1084 -1069 0
1085 -1084 1069 0
1085 1084 -1069 0
-1086 1085 1070 0
-1086 -1085 -1070 0
1086 -1085 1070 0
1086 1085 -1070 0
-1087 1086 1071 0
-1087 -1086 -1071 0
1087 -1086 1071 0
1087 1086 -1071 0
-1088 1087 1072 0
-1088 -1087 -1072 0
1088 -1087 1072 0
1088 1087 -1072 0
-1089 1088 1073 0
-1089 -1088 -1073 0
1089 -1088 1073 0
1089 1088 -1073 0
-1090 1089 1074 0
-1090 -1089 -1074 0
1090 -1089 1074 0
1090 1089 -1074 0
-1091 1090 1075 0
-1091 -1090 -1075 0
1091 -1090 1075 0
1091 1090 -1075 0
-1092 1091 1076 0
-1092 -1091 -1076 0
1092 -1091 1076 0
1092 1091 -1076 0
-1093 1092 1077 0
-1093 -1092 -1077 0
1093 -1092 1077 0
1093 1092 -1077 0
-1094 1093 1078 0
-1094 -1093 -1078 0
1094 -1093 1078 0
1094 1093 -1078 0
-1095 1094 1079 0
-1095 -1094 -1079 0
1095 -1094 1079 0
1095 1094 -1079 0
-1096 1095 1080 0
-1096 -1095 -1080 0
1096 -1095 1080 0
1096 1095 -1080 0
-1096 0
-1097 933 0
-1097 39 0
1097 -933 -39 0
-1098 935 0
-1098 40 0
1098 -935 -40 0
-1099 935 0
-1099 44 0
1099 -935 -44 0
-1100 937 0
-1100 42 0
1100 -937 -42 0
-1101 939 0
-1101 46 0
1101 -939 -46 0
-1102 939 0
-1102 47 0
1102 -939 -47 0
-1103 941 0
-1103 87 0
1103 -941 -87 0
-1104 943 0
-1104 88 0
1104 -943 -88 0
-1105 943 0
-1105 92 0
1105 -943 -92 0
-1106 945 0
-1106 90 0
1106 -945 -90 0
-1107 947 0
-1107 94 0
1107 -947 -94 0
-1108 947 0
-1108 95 0
1108 -947 -95 0
-1109 949 0
-1109 135 0
1109 -949 -135 0
-1110 949 0
-1110 143 0
1110 -949 -143 0
-1111 951 0
-1111 138 0
1111 -951 -138 0
-1112 951 0
-1112 140 0
1112 -951 -140 0
-1113 953 0
-1113 183 0
1113 -953 -183 0
-1114 1097 1098 0
-1114 -1097 -1098 0
1114 -1097 1098 0
1114 1097 -1098 0
-1115 1114 1099 0
-1115 -1114 -1099 0
1115 -1114 1099 0
1115 1114 -1099 0
-1116 1115 1100 0
-1116 -1115 -1100 0
1116 -1115 1100 0
1116 1115 -1100 0
-1117 1116 1101 0
-1117 -1116 -1101 0
1117 -1116 1101 0
1117 1116 -1101 0
-1118 1117 1102 0
-1118 -1117 -1102 0
1118 -1117 1102 0
1118 1117 -1102 0
-1119 1118 1103 0
-1119 -1118 -1103 0
1119 -1118 1103 0
1119 1118 -1103 0
-1120 1119 1104 0
-1120 -1119 -1104 0
1120 -1119 1104 0
1120 1119 -1104 0
-1121 1120 1105 0
-1121 -1120 -1105 0
1121 -1120 1105 0
1121 1120 -1105 0
-1122 1121 1106 0
-1122 -1121 -1106 0
1122 -1121 1106 0
1122 1121 -1106 0
-1123 1122 1107 0
-1123 -1122 -1107 0
1123 -1122 1107 0
1123 1122 -1107 0
-1124 1123 1108 0
-1124 -1123 -1108 0
1124 -1123 1108 0
1124 1123 -1108 0
-1125 1124 1109 0
-1125 -1124 -1109 0
1125 -1124 1109 0
1125 1124 -1109 0
-1126 1125 1110 0
-1126 -1125 -1110 0
1126 -1125 1110 0
1126 1125 -1110 0
-1127 1126 1111 0
-1127 -1126 -1111 0
1127 -1126 1111 0
1127 1126 -1111 0
-1128 1127 1112 0
-1128 -1127 -1112 0
1128 -1127 1112 0
1128 1127 -1112 0
-1129 1128 1113 0
-1129 -1128 -1113 0
1129 -1128 1113 0
1129 1128 -1113 0
-1129 0
-1130 933 0
-1130 40 0
1130 -933 -40 0
-1131 935 0
-1131 39 0
1131 -935 -39 0
-1132 935 0
-1132 42 0
1132 -935 -42 0
-1133 937 0
-1133 46 0
1133 -937 -46 0
-1134 939 0
-1134 42 0
1134 -939 -42 0
-1135 939 0
-1135 39 0
1135 -939 -39 0
-1136 941 0
-1136 88 0
1136 -941 -88 0
-1137 943 0
-1137 87 0
1137 -943 -87 0
-1138 943 0
-1138 90 0
1138 -943 -90 0
-1139 945 0
-1139 94 0
1139 -945 -94 0
-1140 947 0
-1140 90 0
1140 -947 -90 0
-1141 947 0
-1141 87 0
1141 -947 -87 0
-1142 949 0
-1142 136 0
1142 -949 -136 0
-1143 949 0
-1143 142 0
1143 -949 -142 0
-1144 951 0
-1144 142 0
1144 -951 -142 0
-1145 951 0
-1145 136 0
1145 -951 -136 0
-1146 953 0
-1146 184 0
1146 -953 -184 0
-1147 1130 1131 0
-1147 -1130 -1131 0
1147 -1130 1131 0
1147 1130 -1131 0
-1148 1147 1132 0
-1148 -1147 -1132 0
1148 -1147 1132 0
1148 1147 -1132 0
-1149 1148 1133 0
-1149 -1148 -1133 0
1149 -1148 1133 0
1149 1148 -1133 0
-1150 1149 1134 0
-1150 -1149 -1134 0
1150 -1149 1134 0
1150 1149 -1134 0
-1151 1150 1135 0
-1151 -1150 -1135 0
1151 -1150 1135 0
1151 1150 -1135 0
-1152 1151 1136 0
-1152 -1151 -1136 0
1152 -1151 1136 0
1152 1151 -1136 0
-1153 1152 1137 0
-1153 -1152 -1137 0
1153 -1152 1137 0
1153 1152 -1137 0
-1154 1153 1138 0
-1154 -1153 -1138 0
1154 -1153 1138 0
1154 1153 -1138 0
-1155 1154 1139 0
-1155 -1154 -1139 0
1155 -1154 1139 0
1155 1154 -1139 0
-1156 1155 1140 0
-1156 -1155 -1140 0
1156 -1155 1140 0
1156 1155 -1140 0
-1157 1156 1141 0
-1157 -1156 -1141 0
1157 -1156 1141 0
1157 1156 -1141 0
-1158 1157 1142 0
-1158 -1157 -1142 0
1158 -1157 1142 0
1158 1157 -1142 0
-1159 1158 1143 0
-1159 -1158 -1143 0
1159 -1158 1143 0
1159 1158 -1143 0
-1160 1159 1144 0
-1160 -1159 -1144 0
1160 -1159 1144 0
1160 1159 -1144 0
-1161 1160 1145 0
-1161 -1160 -1145 0
1161 -1160 1145 0
1161 1160 -1145 0
-1162 1161 1146 0
-1162 -1161 -1146 0
1162 -1161 1146 0
1162 1161 -1146 0
-1162 0
-1163 933 0
-1163 41 0
1163 -933 -41 0
-1164 935 0
-1164 45 0
1164 -935 -45 0
-1165 937 0
-1165 35 0
1165 -937 -35 0
-1166 939 0
-1166 36 0
1166 -939 -36 0
-1167 941 0
-1167 89 0
1167 -941 -89 0
-1168 943 0
-1168 93 0
1168 -943 -93 0
-1169 945 0
-1169 83 0
1169 -945 -83 0
-1170 947 0
-1170 84 0
1170 -947 -84 0
-1171 949 0
-1171 137 0
1171 -949 -137 0
-1172 951 0
-1172 131 0
1172 -951 -131 0
-1173 953 0
-1173 185 0
1173 -953 -185 0
-1174 1163 1164 0
-1174 -1163 -1164 0
1174 -1163 1164 0
1174 1163 -1164 0
-1175 1174 1164 0
-1175 -1174 -1164 0
1175 -1174 1164 0
1175 1174 -1164 0
-1176 1175 1165 0
-1176 -1175 -1165 0
1176 -1175 1165 0
1176 1175 -1165 0
-1177 1176 1166 0
-1177 -1176 -1166 0
1177 -1176 1166 0
1177 1176 -1166 0
-1178 1177 1166 0
-1178 -1177 -1166 0
1178 -1177 1166 0
1178 1177 -1166 0
-1179 1178 1167 0
-1179 -1178 -1167 0
1179 -1178 1167 0
1179 1178 -1167 0
-1180 1179 1168 0
-1180 -1179 -1168 0
1180 -1179 1168 0
1180 1179 -1168 0
-1181 1180 1168 0
-1181 -1180 -1168 0
1181 -1180 1168 0
1181 1180 -1168 0
-1182 1181 1169 0
-1182 -1181 -1169 0
1182 -1181 1169 0
1182 1181 -1169 0
-1183 1182 1170 0
-1183 -1182 -1170 0
1183 -1182 1170 0
1183 1182 -1170 0
-1184 1183 1170 0
-1184 -1183 -1170 0
1184 -1183 1170 0
1184 1183 -1170 0
-1185 1184 1171 0
-1185 -1184 -1171 0
1185 -1184 1171 0
1185 1184 -1171 0
-1186 1185 1171 0
-1186 -1185 -1171 0
1186 -1185 1171 0
1186 1185 -1171 0
-1187 1186 1172 0
-1187 -1186 -1172 0
1187 -1186 1172 0
1187 1186 -1172 0
-1188 1187 1172 0
-1188 -1187 -1172 0
1188 -1187 1172 0
1188 1187 -1172 0
-1189 1188 1173 0
-1189 -1188 -1173 0
1189 -1188 1173 0
1189 1188 -1173 0
-1189 0
-1190 933 0
-1190 42 0
1190 -933 -42 0
-1191 935 0
-1191 46 0
1191 -935 -46 0
-1192 935 0
-1192 47 0
1192 -935 -47 0
-1193 937 0
-1193 39 0
1193 -937 -39 0
-1194 939 0
-1194 40 0
1194 -939 -40 0
-1195 939 0
-1195 44 0
1195 -939 -44 0
-1196 941 0
-1196 90 0
1196 -941 -90 0
-1197 943 0
-1197 94 0
1197 -943 -94 0
-1198 943 0
-1198 95 0
1198 -943 -95 0
-1199 945 0
-1199 87 0
1199 -945 -87 0
-1200 947 0
-1200 88 0
1200 -947 -88 0
-1201 947 0
-1201 92 0
1201 -947 -92 0
-1202 949 0
-1202 138 0
1202 -949 -138 0
-1203 949 0
-1203 140 0
1203 -949 -140 0
-1204 951 0
-1204 135 0
1204 -951 -135 0
-1205 951 0
-1205 143 0
1205 -951 -143 0
-1206 953 0
-1206 186 0
1206 -953 -186 0
-1207 1190 1191 0
-1207 -1190 -1191 0
1207 -1190 1191 0
1207 1190 -1191 0
-1208 1207 1192 0
-1208 -1207 -1192 0
1208 -1207 1192 0
1208 1207 -1192 0
-1209 1208 1193 0
-1209 -1208 -1193 0
1209 -1208 1193 0
1209 1208 -1193 0
-1210 1209 1194 0
-1210 -1209 -1194 0
1210 -1209 1194 0
1210 1209 -1194 0
-1211 1210 1195 0
-1211 -1210 -1195 0
1211 -1210 1195 0
1211 1210 -1195 0
-1212 1211 1196 0
-1212 -1211 -1196 0
1212 -1211 1196 0
1212 1211 -1196 0
-1213 1212 1197 0
-1213 -1212 -1197 0
1213 -1212 1197 0
1213 1212 -1197 0
-1214 1213 1198 0
-1214 -1213 -1198 0
1214 -1213 1198 0
1214 1213 -1198 0
-1215 1214 1199 0
-1215 -1214 -1199 0
1215 -1214 1199 0
1215 1214 -1199 0
-1216 1215 1200 0
-1216 -1215 -1200 0
1216 -1215 1200 0
1216 1215 -1200 0
-1217 1216 1201 0
-1217 -1216 -1201 0
1217 -1216 1201 0
1217 1216 -1201 0
-1218 1217 1202 0
-1218 -1217 -1202 0
1218 -1217 1202 0
1218 1217 -1202 0
-1219 1218 1203 0
-1219 -1218 -1203 0
1219 -1218 1203 0
1219 1218 -1203 0
-1220 1219 1204 0
-1220 -1219 -1204 0
1220 -1219 1204 0
1220 1219 -1204 0
-1221 1220 1205 0
-1221 -1220 -1205 0
1221 -1220 1205 0
1221 1220 -1205 0
-1222 1221 1206 0
-1222 -1221 -1206 0
1222 -1221 1206 0
1222 1221 -1206 0
-1222 0
-1223 933 0
-1223 43 0
1223 -933 -43 0
-1224 935 0
-1224 48 0
1224 -935 -48 0
-1225 937 0
-1225 43 0
1225 -937 -43 0
-1226 939 0
-1226 48 0
1226 -939 -48 0
-1227 941 0
-1227 91 0
1227 -941 -91 0
-1228 943 0
-1228 96 0
1228 -943 -96 0
-1229 945 0
-1229 91 0
1229 -945 -91 0
-1230 947 0
-1230 96 0
1230 -947 -96 0
-1231 949 0
-1231 139 0
1231 -949 -139 0
-1232 951 0
-1232 139 0
1232 -951 -139 0
-1233 953 0
-1233 187 0
1233 -953 -187 0
-1234 1223 1224 0
-1234 -1223 -1224 0
1234 -1223 1224 0
1234 1223 -1224 0
-1235 1234 1224 0
-1235 -1234 -1224 0
1235 -1234 1224 0
1235 1234 -1224 0
-1236 1235 1225 0
-1236 -1235 -1225 0
1236 -1235 1225 0
1236 1235 -1225 0
-1237 1236 1226 0
-1237 -1236 -1226 0
1237 -1236 1226 0
1237 1236 -1226 0
-1238 1237 1226 0
-1238 -1237 -1226 0
1238 -1237 1226 0
1238 1237 -1226 0
-1239 1238 1227 0
-1239 -1238 -1227 0
1239 -1238 1227 0
1239 1238 -1227 0
-1240 1239 1228 0
-1240 -1239 -1228 0
1240 -1239 1228 0
1240 1239 -1228 0
-1241 1240 1228 0
-1241 -1240 -1228 0
1241 -1240 1228 0
1241 1240 -1228 0
-1242 1241 1229 0
-1242 -1241 -1229 0
1242 -1241 1229 0
1242 1241 -1229 0
-1243 1242 1230 0
-1243 -1242 -1230 0
1243 -1242 1230 0
1243 1242 -1230 0
-1244 1243 1230 0
-1244 -1243 -1230 0
1244 -1243 1230 0
1244 1243 -1230 0
-1245 1244 1231 0
-1245 -1244 -1231 0
1245 -1244 1231 0
1245 1244 -1231 0
-1246 1245 1231 0
-1246 -1245 -1231 0
1246 -1245 1231 0
1246 1245 -1231 0
-1247 1246 1232 0
-1247 -1246 -1232 0
1247 -1246 1232 0
1247 1246 -1232 0
-1248 1247 1232 0
-1248 -1247 -1232 0
1248 -1247 1232 0
1248 1247 -1232 0
-1249 1248 1233 0
-1249 -1248 -1233 0
1249 -1248 1233 0
1249 1248 -1233 0
-1249 0
-1250 1 0
-1250 21 0
1250 -1 -21 0
-1251 1250 0
-1251 33 0
1251 -1250 -33 0
-1252 2 0
-1252 17 0
1252 -2 -17 0
-1253 1252 0
-1253 33 0
1253 -1252 -33 0
-1254 2 0
-1254 25 0
1254 -2 -25 0
-1255 1254 0
-1255 33 0
1255 -1254 -33 0
-1256 21 0
-1256 3 0
1256 -21 -3 0
-1257 1256 0
-1257 33 0
1257 -1256 -33 0
-1258 49 0
-1258 69 0
1258 -49 -69 0
-1259 1258 0
-1259 81 0
1259 -1258 -81 0
-1260 50 0
-1260 65 0
1260 -50 -65 0
-1261 1260 0
-1261 81 0
1261 -1260 -81 0
-1262 50 0
-1262 73 0
1262 -50 -73 0
-1263 1262 0
-1263 81 0
1263 -1262 -81 0
-1264 69 0
-1264 51 0
1264 -69 -51 0
-1265 1264 0
-1265 81 0
1265 -1264 -81 0
-1266 97 0
-1266 117 0
1266 -97 -117 0
-1267 1266 0
-1267 129 0
1267 -1266 -129 0
-1268 97 0
-1268 121 0
1268 -97 -121 0
-1269 1268 0
-1269 129 0
1269 -1268 -129 0
-1270 113 0
-1270 98 0
1270 -113 -98 0
-1271 1270 0
-1271 129 0
1271 -1270 -129 0
-1272 113 0
-1272 99 0
1272 -113 -99 0
-1273 1272 0
-1273 129 0
1273 -1272 -129 0
-1274 145 0
-1274 165 0
1274 -145 -165 0
-1275 1274 0
-1275 177 0
1275 -1274 -177 0
-1276 1251 1253 0
-1276 -1251 -1253 0
1276 -1251 1253 0
1276 1251 -1253 0
-1277 1276 1255 0
-1277 -1276 -1255 0
1277 -1276 1255 0
1277 1276 -1255 0
-1278 1277 1253 0
-1278 -1277 -1253 0
1278 -1277 1253 0
1278 1277 -1253 0
-1279 1278 1251 0
-1279 -1278 -1251 0
1279 -1278 1251 0
1279 1278 -1251 0
-1280 1279 1257 0
-1280 -1279 -1257 0
1280 -1279 1257 0
1280 1279 -1257 0
-1281 1280 1259 0
-1281 -1280 -1259 0
1281 -1280 1259 0
1281 1280 -1259 0
-1282 1281 1261 0
-1282 -1281 -1261 0
1282 -1281 1261 0
1282 1281 -1261 0
-1283 1282 1263 0
-1283 -1282 -1263 0
1283 -1282 1263 0
1283 1282 -1263 0
-1284 1283 1261 0
-1284 -1283 -1261 0
1284 -1283 1261 0
1284 1283 -1261 0
-1285 1284 1259 0
-1285 -1284 -1259 0
1285 -1284 1259 0
1285 1284 -1259 0
-1286 1285 1265 0
-1286 -1285 -1265 0
1286 -1285 1265 0
1286 1285 -1265 0
-1287 1286 1267 0
-1287 -1286 -1267 0
1287 -1286 1267 0
1287 1286 -1267 0
-1288 1287 1269 0
-1288 -1287 -1269 0
1288 -1287 1269 0
1288 1287 -1269 0
-1289 1288 1271 0
-1289 -1288 -1271 0
1289 -1288 1271 0
1289 1288 -1271 0
-1290 1289 1273 0
-1290 -1289 -1273 0
1290 -1289 1273 0
1290 1289 -1273 0
-1291 1290 1275 0
-1291 -1290 -1275 0
1291 -1290 1275 0
1291 1290 -1275 0
-1291 0
-1292 1250 0
-1292 34 0
1292 -1250 -34 0
-1293 1252 0
-1293 34 0
1293 -1252 -34 0
-1294 1254 0
-1294 35 0
1294 -1254 -35 0
-1295 1252 0
-1295 37 0
1295 -1252 -37 0
-1296 1250 0
-1296 37 0
1296 -1250 -37 0
-1297 1256 0
-1297 41 0
1297 -1256 -41 0
-1298 1258 0
-1298 82 0
1298 -1258 -82 0
-1299 1260 0
-1299 82 0
1299 -1260 -82 0
-1300 1262 0
-1300 83 0
1300 -1262 -83 0
-1301 1260 0
-1301 85 0
1301 -1260 -85 0
-1302 1258 0
-1302 85 0
1302 -1258 -85 0
-1303 1264 0
-1303 89 0
1303 -1264 -89 0
-1304 1266 0
-1304 130 0
1304 -1266 -130 0
-1305 1268 0
-1305 132 0
1305 -1268 -132 0
-1306 1270 0
-1306 133 0
1306 -1270 -133 0
-1307 1272 0
-1307 141 0
1307 -1272 -141 0
-1308 1274 0
-1308 178 0
1308 -1274 -178 0
-1309 1292 1293 0
-1309 -1292 -1293 0
1309 -1292 1293 0
1309 1292 -1293 0
-1310 1309 1294 0
-1310 -1309 -1294 0
1310 -1309 1294 0
1310 1309 -1294 0
-1311 1310 1295 0
-1311 -1310 -1295 0
1311 -1310 1295 0
1311 1310 -1295 0
-1312 1311 1296 0
-1312 -1311 -1296 0
1312 -1311 1296 0
1312 1311 -1296 0
-1313 1312 1297 0
-1313 -1312 -1297 0
1313 -1312 1297 0
1313 1312 -1297 0
-1314 1313 1298 0
-1314 -1313 -1298 0
1314 -1313 1298 0
1314 1313 -1298 0
-1315 1314 1299 0
-1315 -1314 -1299 0
1315 -1314 1299 0
1315 1314 -1299 0
-1316 1315 1300 0
-1316 -1315 -1300 0
1316 -1315 1300 0
1316 1315 -1300 0
-1317 1316 1301 0
-1317 -1316 -1301 0
1317 -1316 1301 0
1317 1316 -1301 0
-1318 1317 1302 0
-1318 -1317 -1302 0
1318 -1317 1302 0
1318 1317 -1302 0
-1319 1318 1303 0
-1319 -1318 -1303 0
1319 -1318 1303 0
1319 1318 -1303 0
-1320 1319 1304 0
-1320 -1319 -1304 0
1320 -1319 1304 0
1320 1319 -1304 0
-1321 1320 1305 0
-1321 -1320 -1305 0
1321 -1320 1305 0
1321 1320 -1305 0
-1322 1321 1306 0
-1322 -1321 -1306 0
1322 -1321 1306 0
1322 1321 -1306 0
-1323 1322 1307 0
-1323 -1322 -1307 0
1323 -1322 1307 0
1323 1322 -1307 0
-1324 1323 1308 0
-1324 -1323 -1308 0
1324 -1323 1308 0
1324 1323 -1308 0
-1324 0
-1325 1250 0
-1325 35 0
1325 -1250 -35 0
-1326 1252 0
-1326 36 0
1326 -1252 -36 0
-1327 1254 0
-1327 36 0
1327 -1254 -36 0
-1328 1252 0
-1328 41 0
1328 -1252 -41 0
-1329 1250 0
-1329 45 0
1329 -1250 -45 0
-1330 1256 0
-1330 45 0
1330 -1256 -45 0
-1331 1258 0
-1331 83 0
1331 -1258 -83 0
-1332 1260 0
-1332 84 0
1332 -1260 -84 0
-1333 1262 0
-1333 84 0
1333 -1262 -84 0
-1334 1260 0
-1334 89 0
1334 -1260 -89 0
-1335 1258 0
-1335 93 0
1335 -1258 -93 0
-1336 1264 0
-1336 93 0
1336 -1264 -93 0
-1337 1266 0
-1337 131 0
1337 -1266 -131 0
-1338 1268 0
-1338 131 0
1338 -1268 -131 0
-1339 1270 0
-1339 137 0
1339 -1270 -137 0
-1340 1272 0
-1340 137 0
1340 -1272 -137 0
-1341 1274 0
-1341 179 0
1341 -1274 -179 0
-1342 1325 1326 0
-1342 -1325 -1326 0
1342 -1325 1326 0
1342 1325 -1326 0
-1343 1342 1327 0
-1343 -1342 -1327 0
1343 -1342 1327 0
1343 1342 -1327 0
-1344 1343 1328 0
-1344 -1343 -1328 0
1344 -1343 1328 0
1344 1343 -1328 0
-1345 1344 1329 0
-1345 -1344 -1329 0
1345 -1344 1329 0
1345 1344 -1329 0
-1346 1345 1330 0
-1346 -1345 -1330 0
1346 -1345 1330 0
1346 1345 -1330 0
-1347 1346 1331 0
-1347 -1346 -1331 0
1347 -1346 1331 0
1347 1346 -1331 0
-1348 1347 1332 0
-1348 -1347 -1332 0
1348 -1347 1332 0
1348 1347 -1332 0
-1349 1348 1333 0
-1349 -1348 -1333 0
1349 -1348 1333 0
1349 1348 -1333 0
-1350 1349 1334 0
-1350 -1349 -1334 0
1350 -1349 1334 0
1350 1349 -1334 0
-1351 1350 1335 0
-1351 -1350 -1335 0
1351 -1350 1335 0
1351 1350 -1335 0
-1352 1351 1336 0
-1352 -1351 -1336 0
1352 -1351 1336 0
1352 1351 -1336 0
-1353 1352 1337 0
-1353 -1352 -1337 0
1353 -1352 1337 0
1353 1352 -1337 0
-1354 1353 1338 0
-1354 -1353 -1338 0
1354 -1353 1338 0
1354 1353 -1338 0
-1355 1354 1339 0
-1355 -1354 -1339 0
1355 -1354 1339 0
1355 1354 -1339 0
-1356 1355 1340 0
-1356 -1355 -1340 0
1356 -1355 1340 0
1356 1355 -1340 0
-1357 1356 1341 0
-1357 -1356 -1341 0
1357 -1356 1341 0
1357 1356 -1341 0
-1357 0
-1358 1250 0
-1358 36 0
1358 -1250 -36 0
-1359 1252 0
-1359 35 0
1359 -1252 -35 0
-1360 1254 0
-1360 34 0
1360 -1254 -34 0
-1361 1252 0
-1361 45 0
1361 -1252 -45 0
-1362 1250 0
-1362 41 0
1362 -1250 -41 0
-1363 1256 0
-1363 37 0
1363 -1256 -37 0
-1364 1258 0
-1364 84 0
1364 -1258 -84 0
-1365 1260 0
-1365 83 0
1365 -1260 -83 0
-1366 1262 0
-1366 82 0
1366 -1262 -82 0
-1367 1260 0
-1367 93 0
1367 -1260 -93 0
-1368 1258 0
-1368 89 0
1368 -1258 -89 0
-1369 1264 0
-1369 85 0
1369 -1264 -85 0
-1370 1266 0
-1370 132 0
1370 -1266 -132 0
-1371 1268 0
-1371 130 0
1371 -1268 -130 0
-1372 1270 0
-1372 141 0
1372 -1270 -141 0
-1373 1272 0
-1373 133 0
1373 -1272 -133 0
-1374 1274 0
-1374 180 0
1374 -1274 -180 0
-1375 1358 1359 0
-1375 -1358 -1359 0
1375 -1358 1359 0
1375 1358 -1359 0
-1376 1375 1360 0
-1376 -1375 -1360 0
1376 -1375 1360 0
1376 1375 -1360 0
-1377 1376 1361 0
-1377 -1376 -1361 0
1377 -1376 1361 0
1377 1376 -1361 0
-1378 1377 1362 0
-1378 -1377 -1362 0
1378 -1377 1362 0
1378 1377 -1362 0
-1379 1378 1363 0
-1379 -1378 -1363 0
1379 -1378 1363 0
1379 1378 -1363 0
-1380 1379 1364 0
-1380 -1379 -1364 0
1380 -1379 1364 0
1380 1379 -1364 0
-1381 1380 1365 0
-1381 -1380 -1365 0
1381 -1380 1365 0
1381 1380 -1365 0
-1382 1381 1366 0
-1382 -1381 -1366 0
1382 -1381 1366 0
1382 1381 -1366 0
-1383 1382 1367 0
-1383 -1382 -1367 0
1383 -1382 1367 0
1383 1382 -1367 0
-1384 1383 1368 0
-1384 -1383 -1368 0
1384 -1383 1368 0
1384 1383 -1368 0
-1385 1384 1369 0
-1385 -1384 -1369 0
1385 -1384 1369 0
1385 1384 -1369 0
-1386 1385 1370 0
-1386 -1385 -1370 0
1386 -1385 1370 0
1386 1385 -1370 0
-1387 1386 1371 0
-1387 -1386 -1371 0
1387 -1386 1371 0
1387 1386 -1371 0
-1388 1387 1372 0
-1388 -1387 -1372 0
1388 -1387 1372 0
1388 1387 -1372 0
-1389 1388 1373 0
-1389 -1388 -1373 0
1389 -1388 1373 0
1389 1388 -1373 0
-1390 1389 1374 0
-1390 -1389 -1374 0
1390 -1389 1374 0
1390 1389 -1374 0
-1390 0
-1391 1250 0
-1391 38 0
1391 -1250 -38 0
-1392 1252 0
-1392 38 0
1392 -1252 -38 0
-1393 1254 0
-1393 43 0
1393 -1254 -43 0
-1394 1256 0
-1394 43 0
1394 -1256 -43 0
-1395 1258 0
-1395 86 0
1395 -1258 -86 0
-1396 1260 0
-1396 86 0
1396 -1260 -86 0
-1397 1262 0
-1397 91 0
1397 -1262 -91 0
-1398 1264 0
-1398 91 0
1398 -1264 -91 0
-1399 1266 0
-1399 134 0
1399 -1266 -134 0
-1400 1268 0
-1400 144 0
1400 -1268 -144 0
-1401 1270 0
-1401 134 0
1401 -1270 -134 0
-1402 1272 0
-1402 144 0
1402 -1272 -144 0
-1403 1274 0
-1403 182 0
1403 -1274 -182 0
-1404 1391 1392 0
-1404 -1391 -1392 0
1404 -1391 1392 0
1404 1391 -1392 0
-1405 1404 1393 0
-1405 -1404 -1393 0
1405 -1404 1393 0
1405 1404 -1393 0
-1406 1405 1392 0
-1406 -1405 -1392 0
1406 -1405 1392 0
1406 1405 -1392 0
-1407 1406 1391 0
-1407 -1406 -1391 0
1407 -1406 1391 0
1407 1406 -1391 0
-1408 1407 1394 0
-1408 -1407 -1394 0
1408 -1407 1394 0
1408 1407 -1394 0
-1409 1408 1395 0
-1409 -1408 -1395 0
1409 -1408 1395 0
1409 1408 -1395 0
-1410 1409 1396 0
-1410 -1409 -1396 0
1410 -1409 1396 0
1410 1409 -1396 0
-1411 1410 1397 0
-1411 -1410 -1397 0
1411 -1410 1397 0
1411 1410 -1397 0
-1412 1411 1396 0
-1412 -1411 -1396 0
1412 -1411 1396 0
1412 1411 -1396 0
-1413 1412 1395 0
-1413 -1412 -1395 0
1413 -1412 1395 0
1413 1412 -1395 0
-1414 1413 1398 0
-1414 -1413 -1398 0
1414 -1413 1398 0
1414 1413 -1398 0
-1415 1414 1399 0
-1415 -1414 -1399 0
1415 -1414 1399 0
1415 1414 -1399 0
-1416 1415 1400 0
-1416 -1415 -1400 0
1416 -1415 1400 0
1416 1415 -1400 0
-1417 1416 1401 0
-1417 -1416 -1401 0
1417 -1416 1401 0
1417 1416 -1401 0
-1418 1417 1402 0
-1418 -1417 -1402 0
1418 -1417 1402 0
1418 1417 -1402 0
-1419 1418 1403 0
-1419 -1418 -1403 0
1419 -1418 1403 0
1419 1418 -1403 0
-1419 0
-1420 1250 0
-1420 39 0
1420 -1250 -39 0
-1421 1252 0
-1421 40 0
1421 -1252 -40 0
-1422 1254 0
-1422 44 0
1422 -1254 -44 0
-1423 1252 0
-1423 42 0
1423 -1252 -42 0
-1424 1250 0
-1424 46 0
1424 -1250 -46 0
-1425 1256 0
-1425 47 0
1425 -1256 -47 0
-1426 1258 0
-1426 87 0
1426 -1258 -87 0
-1427 1260 0
-1427 88 0
1427 -1260 -88 0
-1428 1262 0
-1428 92 0
1428 -1262 -92 0
-1429 1260 0
-1429 90 0
1429 -1260 -90 0
-1430 1258 0
-1430 94 0
1430 -1258 -94 0
-1431 1264 0
-1431 95 0
1431 -1264 -95 0
-1432 1266 0
-1432 135 0
1432 -1266 -135 0
-1433 1268 0
-1433 143 0
1433 -1268 -143 0
-1434 1270 0
-1434 138 0
1434 -1270 -138 0
-1435 1272 0
-1435 140 0
1435 -1272 -140 0
-1436 1274 0
-1436 183 0
1436 -1274 -183 0
-1437 1420 1421 0
-1437 -1420 -1421 0
1437 -1420 1421 0
1437 1420 -1421 0
-1438 1437 1422 0
-1438 -1437 -1422 0
1438 -1437 1422 0
1438 1437 -1422 0
-1439 1438 1423 0
-1439 -1438 -1423 0
1439 -1438 1423 0
1439 1438 -1423 0
-1440 1439 1424 0
-1440 -1439 -1424 0
1440 -1439 1424 0
1440 1439 -1424 0
-1441 1440 1425 0
-1441 -1440 -1425 0
1441 -1440 1425 0
1441 1440 -1425 0
-1442 1441 1426 0
-1442 -1441 -1426 0
1442 -1441 1426 0
1442 1441 -1426 0
-1443 1442 1427 0
-1443 -1442 -1427 0
1443 -1442 1427 0
1443 1442 -1427 0
-1444 1443 1428 0
-1444 -1443 -1428 0
1444 -1443 1428 0
1444 1443 -1428 0
-1445 1444 1429 0
-1445 -1444 -1429 0
1445 -1444 1429 0
1445 1444 -1429 0
-1446 1445 1430 0
-1446 -1445 -1430 0
1446 -1445 1430 0
1446 1445 -1430 0
-1447 1446 1431 0
-1447 -1446 -1431 0
1447 -1446 1431 0
1447 1446 -1431 0
-1448 1447 1432 0
-1448 -1447 -1432 0
1448 -1447 1432 0
1448 1447 -1432 0
-1449 1448 1433 0
-1449 -1448 -1433 0
1449 -1448 1433 0
1449 1448 -1433 0
-1450 1449 1434 0
-1450 -1449 -1434 0
1450 -1449 1434 0
1450 1449 -1434 0
-1451 1450 1435 0
-1451 -1450 -1435 0
1451 -1450 1435 0
1451 1450 -1435 0
-1452 1451 1436 0
-1452 -1451 -1436 0
1452 -1451 1436 0
1452 1451 -1436 0
-1452 0
-1453 1250 0
-1453 40 0
1453 -1250 -40 0
-1454 1252 0
-1454 39 0
1454 -1252 -39 0
-1455 1254 0
-1455 42 0
1455 -1254 -42 0
-1456 1252 0
-1456 46 0
1456 -1252 -46 0
-1457 1250 0
-1457 42 0
1457 -1250 -42 0
-1458 1256 0
-1458 39 0
1458 -1256 -39 0
-1459 1258 0
-1459 88 0
1459 -1258 -88 0
-1460 1260 0
-1460 87 0
1460 -1260 -87 0
-1461 1262 0
-1461 90 0
1461 -1262 -90 0
-1462 1260 0
-1462 94 0
1462 -1260 -94 0
-1463 1258 0
-1463 90 0
1463 -1258 -90 0
-1464 1264 0
-1464 87 0
1464 -1264 -87 0
-1465 1266 0
-1465 136 0
1465 -1266 -136 0
-1466 1268 0
-1466 142 0
1466 -1268 -142 0
-1467 1270 0
-1467 142 0
1467 -1270 -142 0
-1468 1272 0
-1468 136 0
1468 -1272 -136 0
-1469 1274 0
-1469 184 0
1469 -1274 -184 0
-1470 1453 1454 0
-1470 -1453 -1454 0
1470 -1453 1454 0
1470 1453 -1454 0
-1471 1470 1455 0
-1471 -1470 -1455 0
1471 -1470 1455 0
1471 1470 -1455 0
-1472 1471 1456 0
-1472 -1471 -1456 0
1472 -1471 1456 0
1472 1471 -1456 0
-1473 1472 1457 0
-1473 -1472 -1457 0
1473 -1472 1457 0
1473 1472 -1457 0
-1474 1473 1458 0
-1474 -1473 -1458 0
1474 -1473 1458 0
1474 1473 -1458 0
-1475 1474 1459 0
-1475 -1474 -1459 0
1475 -1474 1459 0
1475 1474 -1459 0
-1476 1475 1460 0
-1476 -1475 -1460 0
1476 -1475 1460 0
1476 1475 -1460 0
-1477 1476 1461 0
-1477 -1476 -1461 0
1477 -1476 1461 0
1477 1476 -1461 0
-1478 1477 1462 0
-1478 -1477 -1462 0
1478 -1477 1462 0
1478 1477 -1462 0
-1479 1478 1463 0
-1479 -1478 -1463 0
1479 -1478 1463 0
1479 1478 -1463 0
-1480 1479 1464 0
-1480 -1479 -1464 0
1480 -1479 1464 0
1480 1479 -1464 0
-1481 1480 1465 0
-1481 -1480 -1465 0
1481 -1480 1465 0
1481 1480 -1465 0
-1482 1481 1466 0
-1482 -1481 -1466 0
1482 -1481 1466 0
1482 1481 -1466 0
-1483 1482 1467 0
-1483 -1482 -1467 0
1483 -1482 1467 0
1483 1482 -1467 0
-1484 1483 1468 0
-1484 -1483 -1468 0
1484 -1483 1468 0
1484 1483 -1468 0
-1485 1484 1469 0
-1485 -1484 -1469 0
1485 -1484 1469 0
1485 1484 -1469 0
-1485 0
-1486 1250 0
-1486 43 0
1486 -1250 -43 0
-1487 1252 0
-1487 48 0
1487 -1252 -48 0
-1488 1254 0
-1488 48 0
1488 -1254 -48 0
-1489 1252 0
-1489 43 0
1489 -1252 -43 0
-1490 1250 0
-1490 48 0
1490 -1250 -48 0
-1491 1256 0
-1491 48 0
1491 -1256 -48 0
-1492 1258 0
-1492 91 0
1492 -1258 -91 0
-1493 1260 0
-1493 96 0
1493 -1260 -96 0
-1494 1262 0
-1494 96 0
1494 -1262 -96 0
-1495 1260 0
-1495 91 0
1495 -1260 -91 0
-1496 1258 0
-1496 96 0
1496 -1258 -96 0
-1497 1264 0
-1497 96 0
1497 -1264 -96 0
-1498 1266 0
-1498 139 0
1498 -1266 -139 0
-1499 1268 0
-1499 139 0
1499 -1268 -139 0
-1500 1270 0
-1500 139 0
1500 -1270 -139 0
-1501 1272 0
-1501 139 0
1501 -1272 -139 0
-1502 1274 0
-1502 187 0
1502 -1274 -187 0
-1503 1486 1487 0
-1503 -1486 -1487 0
1503 -1486 1487 0
1503 1486 -1487 0
-1504 1503 1488 0
-1504 -1503 -1488 0
1504 -1503 1488 0
1504 1503 -1488 0
-1505 1504 1489 0
-1505 -1504 -1489 0
1505 -1504 1489 0
1505 1504 -1489 0
-1506 1505 1490 0
-1506 -1505 -1490 0
1506 -1505 1490 0
1506 1505 -1490 0
-1507 1506 1491 0
-1507 -1506 -1491 0
1507 -1506 1491 0
1507 1506 -1491 0
-1508 1507 1492 0
-1508 -1507 -1492 0
1508 -1507 1492 0
1508 1507 -1492 0
-1509 1508 1493 0
-1509 -1508 -1493 0
1509 -1508 1493 0
1509 1508 -1493 0
-1510 1509 1494 0
-1510 -1509 -1494 0
1510 -1509 1494 0
1510 1509 -1494 0
-1511 1510 1495 0
-1511 -1510 -1495 0
1511 -1510 1495 0
1511 1510 -1495 0
-1512 1511 1496 0
-1512 -1511 -1496 0
1512 -1511 1496 0
1512 1511 -1496 0
-1513 1512 1497 0
-1513 -1512 -1497 0
1513 -1512 1497 0
1513 1512 -1497 0
-1514 1513 1498 0
-1514 -1513 -1498 0
1514 -1513 1498 0
1514 1513 -1498 0
-1515 1514 1499 0
-1515 -1514 -1499 0
1515 -1514 1499 0
1515 1514 -1499 0
-1516 1515 1500 0
-1516 -1515 -1500 0
1516 -1515 1500 0
1516 1515 -1500 0
-1517 1516 1501 0
-1517 -1516 -1501 0
1517 -1516 1501 0
1517 1516 -1501 0
-1518 1517 1502 0
-1518 -1517 -1502 0
1518 -1517 1502 0
1518 1517 -1502 0
-1518 0
-1519 1250 0
-1519 44 0
1519 -1250 -44 0
-1520 1252 0
-1520 47 0
1520 -1252 -47 0
-1521 1254 0
-1521 46 0
1521 -1254 -46 0
-1522 1256 0
-1522 40 0
1522 -1256 -40 0
-1523 1258 0
-1523 92 0
1523 -1258 -92 0
-1524 1260 0
-1524 95 0
1524 -1260 -95 0
-1525 1262 0
-1525 94 0
1525 -1262 -94 0
-1526 1264 0
-1526 88 0
1526 -1264 -88 0
-1527 1266 0
-1527 140 0
1527 -1266 -140 0
-1528 1268 0
-1528 138 0
1528 -1268 -138 0
-1529 1270 0
-1529 143 0
1529 -1270 -143 0
-1530 1272 0
-1530 135 0
1530 -1272 -135 0
-1531 1274 0
-1531 188 0
1531 -1274 -188 0
-1532 1519 1520 0
-1532 -1519 -1520 0
1532 -1519 1520 0
1532 1519 -1520 0
-1533 1532 1521 0
-1533 -1532 -1521 0
1533 -1532 1521 0
1533 1532 -1521 0
-1534 1533 1520 0
-1534 -1533 -1520 0
1534 -1533 1520 0
1534 1533 -1520 0
-1535 1534 1519 0
-1535 -1534 -1519 0
1535 -1534 1519 0
1535 1534 -1519 0
-1536 1535 1522 0
-1536 -1535 -1522 0
1536 -1535 1522 0
1536 1535 -1522 0
-1537 1536 1523 0
-1537 -1536 -1523 0
1537 -1536 1523 0
1537 1536 -1523 0
-1538 1537 1524 0
-1538 -1537 -1524 0
1538 -1537 1524 0
1538 1537 -1524 0
-1539 1538 1525 0
-1539 -1538 -1525 0
1539 -1538 1525 0
1539 1538 -1525 0
-1540 1539 1524 0
-1540 -1539 -1524 0
1540 -1539 1524 0
1540 1539 -1524 0
-1541 1540 1523 0
-1541 -1540 -1523 0
1541 -1540 1523 0
1541 1540 -1523 0
-1542 1541 1526 0
-1542 -1541 -1526 0
1542 -1541 1526 0
1542 1541 -1526 0
-1543 1542 1527 0
-1543 -1542 -1527 0
1543 -1542 1527 0
1543 1542 -1527 0
-1544 1543 1528 0
-1544 -1543 -1528 0
1544 -1543 1528 0
1544 1543 -1528 0
-1545 1544 1529 0
-1545 -1544 -1529 0
1545 -1544 1529 0
1545 1544 -1529 0
-1546 1545 1530 0
-1546 -1545 -1530 0
1546 -1545 1530 0
1546 1545 -1530 0
-1547 1546 1531 0
-1547 -1546 -1531 0
1547 -1546 1531 0
1547 1546 -1531 0
-1547 0
-1548 1250 0
-1548 47 0
1548 -1250 -47 0
-1549 1252 0
-1549 44 0
1549 -1252 -44 0
-1550 1254 0
-1550 40 0
1550 -1254 -40 0
-1551 1256 0
-1551 46 0
1551 -1256 -46 0
-1552 1258 0
-1552 95 0
1552 -1258 -95 0
-1553 1260 0
-1553 92 0
1553 -1260 -92 0
-1554 1262 0
-1554 88 0
1554 -1262 -88 0
-1555 1264 0
-1555 94 0
1555 -1264 -94 0
-1556 1266 0
-1556 143 0
1556 -1266 -143 0
-1557 1268 0
-1557 135 0
1557 -1268 -135 0
-1558 1270 0
-1558 140 0
1558 -1270 -140 0
-1559 1272 0
-1559 138 0
1559 -1272 -138 0
-1560 1274 0
-1560 191 0
1560 -1274 -191 0
-1561 1548 1549 0
-1561 -1548 -1549 0
1561 -1548 1549 0
1561 1548 -1549 0
-1562 1561 1550 0
-1562 -1561 -1550 0
1562 -1561 1550 0
1562 1561 -1550 0
-1563 1562 1549 0
-1563 -1562 -1549 0
1563 -1562 1549 0
1563 1562 -1549 0
-1564 1563 1548 0
-1564 -1563 -1548 0
1564 -1563 1548 0
1564 1563 -1548 0
-1565 1564 1551 0
-1565 -1564 -1551 0
1565 -1564 1551 0
1565 1564 -1551 0
-1566 1565 1552 0
-1566 -1565 -1552 0
1566 -1565 1552 0
1566 1565 -1552 0
-1567 1566 1553 0
-1567 -1566 -1553 0
1567 -1566 1553 0
1567 1566 -1553 0
-1568 1567 1554 0
-1568 -1567 -1554 0
1568 -1567 1554 0
1568 1567 -1554 0
-1569 1568 1553 0
-1569 -1568 -1553 0
1569 -1568 1553 0
1569 1568 -1553 0
-1570 1569 1552 0
-1570 -1569 -1552 0
1570 -1569 1552 0
1570 1569 -1552 0
-1571 1570 1555 0
-1571 -1570 -1555 0
1571 -1570 1555 0
1571 1570 -1555 0
-1572 1571 1556 0
-1572 -1571 -1556 0
1572 -1571 1556 0
1572 1571 -1556 0
-1573 1572 1557 0
-1573 -1572 -1557 0
1573 -1572 1557 0
1573 1572 -1557 0
-1574 1573 1558 0
-1574 -1573 -1558 0
1574 -1573 1558 0
1574 1573 -1558 0
-1575 1574 1559 0
-1575 -1574 -1559 0
1575 -1574 1559 0
1575 1574 -1559 0
-1576 1575 1560 0
-1576 -1575 -1560 0
1576 -1575 1560 0
1576 1575 -1560 0
-1576 0
-1577 1 0
-1577 22 0
1577 -1 -22 0
-1578 1577 0
-1578 33 0
1578 -1577 -33 0
-1579 2 0
-1579 18 0
1579 -2 -18 0
-1580 1579 0
-1580 33 0
1580 -1579 -33 0
-1581 2 0
-1581 27 0
1581 -2 -27 0
-1582 1581 0
-1582 33 0
1582 -1581 -33 0
-1583 17 0
-1583 6 0
1583 -17 -6 0
-1584 1583 0
-1584 33 0
1584 -1583 -33 0
-1585 21 0
-1585 5 0
1585 -21 -5 0
-1586 1585 0
-1586 33 0
1586 -1585 -33 0
-1587 21 0
-1587 11 0
1587 -21 -11 0
-1588 1587 0
-1588 33 0
1588 -1587 -33 0
-1589 49 0
-1589 70 0
1589 -49 -70 0
-1590 1589 0
-1590 81 0
1590 -1589 -81 0
-1591 50 0
-1591 66 0
1591 -50 -66 0
-1592 1591 0
-1592 81 0
1592 -1591 -81 0
-1593 50 0
-1593 75 0
1593 -50 -75 0
-1594 1593 0
-1594 81 0
1594 -1593 -81 0
-1595 65 0
-1595 54 0
1595 -65 -54 0
-1596 1595 0
-1596 81 0
1596 -1595 -81 0
-1597 69 0
-1597 53 0
1597 -69 -53 0
-1598 1597 0
-1598 81 0
1598 -1597 -81 0
-1599 69 0
-1599 59 0
1599 -69 -59 0
-1600 1599 0
-1600 81 0
1600 -1599 -81 0
-1601 97 0
-1601 118 0
1601 -97 -118 0
-1602 1601 0
-1602 129 0
1602 -1601 -129 0
-1603 97 0
-1603 124 0
1603 -97 -124 0
-1604 1603 0
-1604 129 0
1604 -1603 -129 0
-1605 113 0
-1605 102 0
1605 -113 -102 0
-1606 1605 0
-1606 129 0
1606 -1605 -129 0
-1607 113 0
-1607 111 0
1607 -113 -111 0
-1608 1607 0
-1608 129 0
1608 -1607 -129 0
-1609 145 0
-1609 166 0
1609 -145 -166 0
-1610 1609 0
-1610 177 0
1610 -1609 -177 0
-1611 1578 1580 0
-1611 -1578 -1580 0
1611 -1578 1580 0
1611 1578 -1580 0
-1612 1611 1582 0
-1612 -1611 -1582 0
1612 -1611 1582 0
1612 1611 -1582 0
-1613 1612 1584 0
-1613 -1612 -1584 0
1613 -1612 1584 0
1613 1612 -1584 0
-1614 1613 1586 0
-1614 -1613 -1586 0
1614 -1613 1586 0
1614 1613 -1586 0
-1615 1614 1588 0
-1615 -1614 -1588 0
1615 -1614 1588 0
1615 1614 -1588 0
-1616 1615 1590 0
-1616 -1615 -1590 0
1616 -1615 1590 0
1616 1615 -1590 0
-1617 1616 1592 0
-1617 -1616 -1592 0
1617 -1616 1592 0
1617 1616 -1592 0
-1618 1617 1594 0
-1618 -1617 -1594 0
1618 -1617 1594 0
1618 1617 -1594 0
-1619 1618 1596 0
-1619 -1618 -1596 0
1619 -1618 1596 0
1619 1618 -1596 0
-1620 1619 1598 0
-1620 -1619 -1598 0
1620 -1619 1598 0
1620 1619 -1598 0
-1621 1620 1600 0
-1621 -1620 -1600 0
1621 -1620 1600 0
1621 1620 -1600 0
-1622 1621 1602 0
-1622 -1621 -1602 0
1622 -1621 1602 0
1622 1621 -1602 0
-1623 1622 1604 0
-1623 -1622 -1604 0
1623 -1622 1604 0
1623 1622 -1604 0
-1624 1623 1606 0
-1624 -1623 -1606 0
1624 -1623 1606 0
1624 1623 -1606 0
-1625 1624 1608 0
-1625 -1624 -1608 0
1625 -1624 1608 0
1625 1624 -1608 0
-1626 1625 1610 0
-1626 -1625 -1610 0
1626 -1625 1610 0
1626 1625 -1610 0
-1626 0
-1627 1577 0
-1627 34 0
1627 -1577 -34 0
-1628 1579 0
-1628 34 0
1628 -1579 -34 0
-1629 1581 0
-1629 35 0
1629 -1581 -35 0
-1630 1583 0
-1630 37 0
1630 -1583 -37 0
-1631 1585 0
-1631 37 0
1631 -1585 -37 0
-1632 1587 0
-1632 41 0
1632 -1587 -41 0
-1633 1589 0
-1633 82 0
1633 -1589 -82 0
-1634 1591 0
-1634 82 0
1634 -1591 -82 0
-1635 1593 0
-1635 83 0
1635 -1593 -83 0
-1636 1595 0
-1636 85 0
1636 -1595 -85 0
-1637 1597 0
-1637 85 0
1637 -1597 -85 0
-1638 1599 0
-1638 89 0
1638 -1599 -89 0
-1639 1601 0
-1639 130 0
1639 -1601 -130 0
-1640 1603 0
-1640 132 0
1640 -1603 -132 0
-1641 1605 0
-1641 133 0
1641 -1605 -133 0
-1642 1607 0
-1642 141 0
1642 -1607 -141 0
-1643 1609 0
-1643 178 0
1643 -1609 -178 0
-1644 1627 1628 0
-1644 -1627 -1628 0
1644 -1627 1628 0
1644 1627 -1628 0
-1645 1644 1629 0
-1645 -1644 -1629 0
1645 -1644 1629 0
1645 1644 -1629 0
-1646 1645 1630 0
-1646 -1645 -1630 0
1646 -1645 1630 0
1646 1645 -1630 0
-1647 1646 1631 0
-1647 -1646 -1631 0
1647 -1646 1631 0
1647 1646 -1631 0
-1648 1647 1632 0
-1648 -1647 -1632 0
1648 -1647 1632 0
1648 1647 -1632 0
-1649 1648 1633 0
-1649 -1648 -1633 0
1649 -1648 1633 0
1649 1648 -1633 0
-1650 1649 1634 0
-1650 -1649 -1634 0
1650 -1649 1634 0
1650 1649 -1634 0
-1651 1650 1635 0
-1651 -1650 -1635 0
1651 -1650 1635 0
1651 1650 -1635 0
-1652 1651 1636 0
-1652 -1651 -1636 0
1652 -1651 1636 0
1652 1651 -1636 0
-1653 1652 1637 0
-1653 -1652 -1637 0
1653 -1652 1637 0
1653 1652 -1637 0
-1654 1653 1638 0
-1654 -1653 -1638 0
1654 -1653 1638 0
1654 1653 -1638 0
-1655 1654 1639 0
-1655 -1654 -1639 0
1655 -1654 1639 0
1655 1654 -1639 0
-1656 1655 1640 0
-1656 -1655 -1640 0
1656 -1655 1640 0
1656 1655 -1640 0
-1657 1656 1641 0
-1657 -1656 -1641 0
1657 -1656 1641 0
1657 1656 -1641 0
-1658 1657 1642 0
-1658 -1657 -1642 0
1658 -1657 1642 0
1658 1657 -1642 0
-1659 1658 1643 0
-1659 -1658 -1643 0
1659 -1658 1643 0
1659 1658 -1643 0
-1659 0
-1660 1577 0
-1660 35 0
1660 -1577 -35 0
-1661 1579 0
-1661 36 0
1661 -1579 -36 0
-1662 1581 0
-1662 36 0
1662 -1581 -36 0
-1663 1583 0
-1663 41 0
1663 -1583 -41 0
-1664 1585 0
-1664 45 0
1664 -1585 -45 0
-1665 1587 0
-1665 45 0
1665 -1587 -45 0
-1666 1589 0
-1666 83 0
1666 -1589 -83 0
-1667 1591 0
-1667 84 0
1667 -1591 -84 0
-1668 1593 0
-1668 84 0
1668 -1593 -84 0
-1669 1595 0
-1669 89 0
1669 -1595 -89 0
-1670 1597 0
-1670 93 0
1670 -1597 -93 0
-1671 1599 0
-1671 93 0
1671 -1599 -93 0
-1672 1601 0
-1672 131 0
1672 -1601 -131 0
-1673 1603 0
-1673 131 0
1673 -1603 -131 0
-1674 1605 0
-1674 137 0
1674 -1605 -137 0
-1675 1607 0
-1675 137 0
1675 -1607 -137 0
-1676 1609 0
-1676 179 0
1676 -1609 -179 0
-1677 1660 1661 0
-1677 -1660 -1661 0
1677 -1660 1661 0
1677 1660 -1661 0
-1678 1677 1662 0
-1678 -1677 -1662 0
1678 -1677 1662 0
1678 1677 -1662 0
-1679 1678 1663 0
-1679 -1678 -1663 0
1679 -1678 1663 0
1679 1678 -1663 0
-1680 1679 1664 0
-1680 -1679 -1664 0
1680 -1679 1664 0
1680 1679 -1664 0
-1681 1680 1665 0
-1681 -1680 -1665 0
1681 -1680 1665 0
1681 1680 -1665 0
-1682 1681 1666 0
-1682 -1681 -1666 0
1682 -1681 1666 0
1682 1681 -1666 0
-1683 1682 1667 0
-1683 -1682 -1667 0
1683 -1682 1667 0
1683 1682 -1667 0
-1684 1683 1668 0
-1684 -1683 -1668 0
1684 -1683 1668 0
1684 1683 -1668 0
-1685 1684 1669 0
-1685 -1684 -1669 0
1685 -1684 1669 0
1685 1684 -1669 0
-1686 1685 1670 0
-1686 -1685 -1670 0
1686 -1685 1670 0
1686 1685 -1670 0
-1687 1686 1671 0
-1687 -1686 -1671 0
1687 -1686 1671 0
1687 1686 -1671 0
-1688 1687 1672 0
-1688 -1687 -1672 0
1688 -1687 1672 0
1688 1687 -1672 0
-1689 1688 1673 0
-1689 -1688 -1673 0
1689 -1688 1673 0
1689 1688 -1673 0
-1690 1689 1674 0
-1690 -1689 -1674 0
1690 -1689 1674 0
1690 1689 -1674 0
-1691 1690 1675 0
-1691 -1690 -1675 0
1691 -1690 1675 0
1691 1690 -1675 0
-1692 1691 1676 0
-1692 -1691 -1676 0
1692 -1691 1676 0
1692 1691 -1676 0
-1692 0
-1693 1577 0
-1693 36 0
1693 -1577 -36 0
-1694 1579 0
-1694 35 0
1694 -1579 -35 0
-1695 1581 0
-1695 34 0
1695 -1581 -34 0
-1696 1583 0
-1696 45 0
1696 -1583 -45 0
-1697 1585 0
-1697 41 0
1697 -1585 -41 0
-1698 1587 0
-1698 37 0
1698 -1587 -37 0
-1699 1589 0
-1699 84 0
1699 -1589 -84 0
-1700 1591 0
-1700 83 0
1700 -1591 -83 0
-1701 1593 0
-1701 82 0
1701 -1593 -82 0
-1702 1595 0
-1702 93 0
1702 -1595 -93 0
-1703 1597 0
-1703 89 0
1703 -1597 -89 0
-1704 1599 0
-1704 85 0
1704 -1599 -85 0
-1705 1601 0
-1705 132 0
1705 -1601 -132 0
-1706 1603 0
-1706 130 0
1706 -1603 -130 0
-1707 1605 0
-1707 141 0
1707 -1605 -141 0
-1708 1607 0
-1708 133 0
1708 -1607 -133 0
-1709 1609 0
-1709 180 0
1709 -1609 -180 0
-1710 1693 1694 0
-1710 -1693 -1694 0
1710 -1693 1694 0
1710 1693 -1694 0
-1711 1710 1695 0
-1711 -1710 -1695 0
1711 -1710 1695 0
1711 1710 -1695 0
-1712 1711 1696 0
-1712 -1711 -1696 0
1712 -1711 1696 0
1712 1711 -1696 0
-1713 1712 1697 0
-1713 -1712 -1697 0
1713 -1712 1697 0
1713 1712 -1697 0
-1714 1713 1698 0
-1714 -1713 -1698 0
1714 -1713 1698 0
1714 1713 -1698 0
-1715 1714 1699 0
-1715 -1714 -1699 0
1715 -1714 1699 0
1715 1714 -1699 0
-1716 1715 1700 0
-1716 -1715 -1700 0
1716 -1715 1700 0
1716 1715 -1700 0
-1717 1716 1701 0
-1717 -1716 -1701 0
1717 -1716 1701 0
1717 1716 -1701 0
-1718 1717 1702 0
-1718 -1717 -1702 0
1718 -1717 1702 0
1718 1717 -1702 0
-1719 1718 1703 0
-1719 -1718 -1703 0
1719 -1718 1703 0
1719 1718 -1703 0
-1720 1719 1704 0
-1720 -1719 -1704 0
1720 -1719 1704 0
1720 1719 -1704 0
-1721 1720 1705 0
-1721 -1720 -1705 0
1721 -1720 1705 0
1721 1720 -1705 0
-1722 1721 1706 0
-1722 -1721 -1706 0
1722 -1721 1706 0
1722 1721 -1706 0
-1723 1722 1707 0
-1723 -1722 -1707 0
1723 -1722 1707 0
1723 1722 -1707 0
-1724 1723 1708 0
-1724 -1723 -1708 0
1724 -1723 1708 0
1724 1723 -1708 0
-1725 1724 1709 0
-1725 -1724 -1709 0
1725 -1724 1709 0
1725 1724 -1709 0
-1725 0
-1726 1577 0
-1726 37 0
1726 -1577 -37 0
-1727 1579 0
-1727 37 0
1727 -1579 -37 0
-1728 1581 0
-1728 41 0
1728 -1581 -41 0
-1729 1583 0
-1729 34 0
1729 -1583 -34 0
-1730 1585 0
-1730 34 0
1730 -1585 -34 0
-1731 1587 0
-1731 35 0
1731 -1587 -35 0
-1732 1589 0
-1732 85 0
1732 -1589 -85 0
-1733 1591 0
-1733 85 0
1733 -1591 -85 0
-1734 1593 0
-1734 89 0
1734 -1593 -89 0
-1735 1595 0
-1735 82 0
1735 -1595 -82 0
-1736 1597 0
-1736 82 0
1736 -1597 -82 0
-1737 1599 0
-1737 83 0
1737 -1599 -83 0
-1738 1601 0
-1738 133 0
1738 -1601 -133 0
-1739 1603 0
-1739 141 0
1739 -1603 -141 0
-1740 1605 0
-1740 130 0
1740 -1605 -130 0
-1741 1607 0
-1741 132 0
1741 -1607 -132 0
-1742 1609 0
-1742 181 0
1742 -1609 -181 0
-1743 1726 1727 0
-1743 -1726 -1727 0
1743 -1726 1727 0
1743 1726 -1727 0
-1744 1743 1728 0
-1744 -1743 -1728 0
1744 -1743 1728 0
1744 1743 -1728 0
-1745 1744 1729 0
-1745 -1744 -1729 0
1745 -1744 1729 0
1745 1744 -1729 0
-1746 1745 1730 0
-1746 -1745 -1730 0
1746 -1745 1730 0
1746 1745 -1730 0
-1747 1746 1731 0
-1747 -1746 -1731 0
1747 -1746 1731 0
1747 1746 -1731 0
-1748 1747 1732 0
-1748 -1747 -1732 0
1748 -1747 1732 0
1748 1747 -1732 0
-1749 1748 1733 0
-1749 -1748 -1733 0
1749 -1748 1733 0
1749 1748 -1733 0
-1750 1749 1734 0
-1750 -1749 -1734 0
1750 -1749 1734 0
1750 1749 -1734 0
-1751 1750 1735 0
-1751 -1750 -1735 0
1751 -1750 1735 0
1751 1750 -1735 0
-1752 1751 1736 0
-1752 -1751 -1736 0
1752 -1751 1736 0
1752 1751 -1736 0
-1753 1752 1737 0
-1753 -1752 -1737 0
1753 -1752 1737 0
1753 1752 -1737 0
-1754 1753 1738 0
-1754 -1753 -1738 0
1754 -1753 1738 0
1754 1753 -1738 0
-1755 1754 1739 0
-1755 -1754 -1739 0
1755 -1754 1739 0
1755 1754 -1739 0
-1756 1755 1740 0
-1756 -1755 -1740 0
1756 -1755 1740 0
1756 1755 -1740 0
-1757 1756 1741 0
-1757 -1756 -1741 0
1757 -1756 1741 0
1757 1756 -1741 0
-1758 1757 1742 0
-1758 -1757 -1742 0
1758 -1757 1742 0
1758 1757 -1742 0
-1758 0
-1759 1577 0
-1759 38 0
1759 -1577 -38 0
-1760 1579 0
-1760 38 0
1760 -1579 -38 0
-1761 1581 0
-1761 43 0
1761 -1581 -43 0
-1762 1583 0
-1762 38 0
1762 -1583 -38 0
-1763 1585 0
-1763 38 0
1763 -1585 -38 0
-1764 1587 0
-1764 43 0
1764 -1587 -43 0
-1765 1589 0
-1765 86 0
1765 -1589 -86 0
-1766 1591 0
-1766 86 0
1766 -1591 -86 0
-1767 1593 0
-1767 91 0
1767 -1593 -91 0
-1768 1595 0
-1768 86 0
1768 -1595 -86 0
-1769 1597 0
-1769 86 0
1769 -1597 -86 0
-1770 1599 0
-1770 91 0
1770 -1599 -91 0
-1771 1601 0
-1771 134 0
1771 -1601 -134 0
-1772 1603 0
-1772 144 0
1772 -1603 -144 0
-1773 1605 0
-1773 134 0
1773 -1605 -134 0
-1774 1607 0
-1774 144 0
1774 -1607 -144 0
-1775 1609 0
-1775 182 0
1775 -1609 -182 0
-1776 1759 1760 0
-1776 -1759 -1760 0
1776 -1759 1760 0
1776 1759 -1760 0
-1777 1776 1761 0
-1777 -1776 -1761 0
1777 -1776 1761 0
1777 1776 -1761 0
-1778 1777 1762 0
-1778 -1777 -1762 0
1778 -1777 1762 0
1778 1777 -1762 0
-1779 1778 1763 0
-1779 -1778 -1763 0
1779 -1778 1763 0
1779 1778 -1763 0
-1780 1779 1764 0
-1780 -1779 -1764 0
1780 -1779 1764 0
1780 1779 -1764 0
-1781 1780 1765 0
-1781 -1780 -1765 0
1781 -1780 1765 0
1781 1780 -1765 0
-1782 1781 1766 0
-1782 -1781 -1766 0
1782 -1781 1766 0
1782 1781 -1766 0
-1783 1782 1767 0
-1783 -1782 -1767 0
1783 -1782 1767 0
1783 1782 -1767 0
-1784 1783 1768 0
-1784 -1783 -1768 0
1784 -1783 1768 0
1784 1783 -1768 0
-1785 1784 1769 0
-1785 -1784 -1769 0
1785 -1784 1769 0
1785 1784 -1769 0
-1786 1785 1770 0
-1786 -1785 -1770 0
1786 -1785 1770 0
1786 1785 -1770 0
-1787 1786 1771 0
-1787 -1786 -1771 0
1787 -1786 1771 0
1787 1786 -1771 0
-1788 1787 1772 0
-1788 -1787 -1772 0
1788 -1787 1772 0
1788 1787 -1772 0
-1789 1788 1773 0
-1789 -1788 -1773 0
1789 -1788 1773 0
1789 1788 -1773 0
-1790 1789 1774 0
-1790 -1789 -1774 0
1790 -1789 1774 0
1790 1789 -1774 0
-1791 1790 1775 0
-1791 -1790 -1775 0
1791 -1790 1775 0
1791 1790 -1775 0
-1791 0
-1792 1577 0
-1792 39 0
1792 -1577 -39 0
-1793 1579 0
-1793 40 0
1793 -1579 -40 0
-1794 1581 0
-1794 44 0
1794 -1581 -44 0
-1795 1583 0
-1795 42 0
1795 -1583 -42 0
-1796 1585 0
-1796 46 0
1796 -1585 -46 0
-1797 1587 0
-1797 47 0
1797 -1587 -47 0
-1798 1589 0
-1798 87 0
1798 -1589 -87 0
-1799 1591 0
-1799 88 0
1799 -1591 -88 0
-1800 1593 0
-1800 92 0
1800 -1593 -92 0
-1801 1595 0
-1801 90 0
1801 -1595 -90 0
-1802 1597 0
-1802 94 0
1802 -1597 -94 0
-1803 1599 0
-1803 95 0
1803 -1599 -95 0
-1804 1601 0
-1804 135 0
1804 -1601 -135 0
-1805 1603 0
-1805 143 0
1805 -1603 -143 0
-1806 1605 0
-1806 138 0
1806 -1605 -138 0
-1807 1607 0
-1807 140 0
1807 -1607 -140 0
-1808 1609 0
-1808 183 0
1808 -1609 -183 0
-1809 1792 1793 0
-1809 -1792 -1793 0
1809 -1792 1793 0
1809 1792 -1793 0
-1810 1809 1794 0
-1810 -1809 -1794 0
1810 -1809 1794 0
1810 1809 -1794 0
-1811 1810 1795 0
-1811 -1810 -1795 0
1811 -1810 1795 0
1811 1810 -1795 0
-1812 1811 1796 0
-1812 -1811 -1796 0
1812 -1811 1796 0
1812 1811 -1796 0
-1813 1812 1797 0
-1813 -1812 -1797 0
1813 -1812 1797 0
1813 1812 -1797 0
-1814 1813 1798 0
-1814 -1813 -1798 0
1814 -1813 1798 0
1814 1813 -1798 0
-1815 1814 1799 0
-1815 -1814 -1799 0
1815 -1814 1799 0
1815 1814 -1799 0
-1816 1815 1800 0
-1816 -1815 -1800 0
1816 -1815 1800 0
1816 1815 -1800 0
-1817 1816 1801 0
-1817 -1816 -1801 0
1817 -1816 1801 0
1817 1816 -1801 0
-1818 1817 1802 0
-1818 -1817 -1802 0
1818 -1817 1802 0
1818 1817 -1802 0
-1819 1818 1803 0
-1819 -1818 -1803 0
1819 -1818 1803 0
1819 1818 -1803 0
-1820 1819 1804 0
-1820 -1819 -1804 0
1820 -1819 1804 0
1820 1819 -1804 0
-1821 1820 1805 0
-1821 -1820 -1805 0
1821 -1820 1805 0
1821 1820 -1805 0
-1822 1821 1806 0
-1822 -1821 -1806 0
1822 -1821 1806 0
1822 1821 -1806 0
-1823 1822 1807 0
-1823 -1822 -1807 0
1823 -1822 1807 0
1823 1822 -1807 0
-1824 1823 1808 0
-1824 -1823 -1808 0
1824 -1823 1808 0
1824 1823 -1808 0
-1824 0
-1825 1577 0
-1825 40 0
1825 -1577 -40 0
-1826 1579 0
-1826 39 0
1826 -1579 -39 0
-1827 1581 0
-1827 42 0
1827 -1581 -42 0
-1828 1583 0
-1828 46 0
1828 -1583 -46 0
-1829 1585 0
-1829 42 0
1829 -1585 -42 0
-1830 1587 0
-1830 39 0
1830 -1587 -39 0
-1831 1589 0
-1831 88 0
1831 -1589 -88 0
-1832 1591 0
-1832 87 0
1832 -1591 -87 0
-1833 1593 0
-1833 90 0
1833 -1593 -90 0
-1834 1595 0
-1834 94 0
1834 -1595 -94 0
-1835 1597 0
-1835 90 0
1835 -1597 -90 0
-1836 1599 0
-1836 87 0
1836 -1599 -87 0
-1837 1601 0
-1837 136 0
1837 -1601 -136 0
-1838 1603 0
-1838 142 0
1838 -1603 -142 0
-1839 1605 0
-1839 142 0
1839 -1605 -142 0
-1840 1607 0
-1840 136 0
1840 -1607 -136 0
-1841 1609 0
-1841 184 0
1841 -1609 -184 0
-1842 1825 1826 0
-1842 -1825 -1826 0
1842 -1825 1826 0
1842 1825 -1826 0
-1843 1842 1827 0
-1843 -1842 -1827 0
1843 -1842 1827 0
1843 1842 -1827 0
-1844 1843 1828 0
-1844 -1843 -1828 0
1844 -1843 1828 0
1844 1843 -1828 0
-1845 1844 1829 0
-1845 -1844 -1829 0
1845 -1844 1829 0
1845 1844 -1829 0
-1846 1845 1830 0
-1846 -1845 -1830 0
1846 -1845 1830 0
1846 1845 -1830 0
-1847 1846 1831 0
-1847 -1846 -1831 0
1847 -1846 1831 0
1847 1846 -1831 0
-1848 1847 1832 0
-1848 -1847 -1832 0
1848 -1847 1832 0
1848 1847 -1832 0
-1849 1848 1833 0
-1849 -1848 -1833 0
1849 -1848 1833 0
1849 1848 -1833 0
-1850 1849 1834 0
-1850 -1849 -1834 0
1850 -1849 1834 0
1850 1849 -1834 0
-1851 1850 1835 0
-1851 -1850 -1835 0
1851 -1850 1835 0
1851 1850 -1835 0
-1852 1851 1836 0
-1852 -1851 -1836 0
1852 -1851 1836 0
1852 1851 -1836 0
-1853 1852 1837 0
-1853 -1852 -1837 0
1853 -1852 1837 0
1853 1852 -1837 0
-1854 1853 1838 0
-1854 -1853 -1838 0
1854 -1853 1838 0
1854 1853 -1838 0
-1855 1854 1839 0
-1855 -1854 -1839 0
1855 -1854 1839 0
1855 1854 -1839 0
-1856 1855 1840 0
-1856 -1855 -1840 0
1856 -1855 1840 0
1856 1855 -1840 0
-1857 1856 1841 0
-1857 -1856 -1841 0
1857 -1856 1841 0
1857 1856 -1841 0
-1857 0
-1858 1577 0
-1858 41 0
1858 -1577 -41 0
-1859 1579 0
-1859 45 0
1859 -1579 -45 0
-1860 1581 0
-1860 45 0
1860 -1581 -45 0
-1861 1583 0
-1861 35 0
1861 -1583 -35 0
-1862 1585 0
-1862 36 0
1862 -1585 -36 0
-1863 1587 0
-1863 36 0
1863 -1587 -36 0
-1864 1589 0
-1864 89 0
1864 -1589 -89 0
-1865 1591 0
-1865 93 0
1865 -1591 -93 0
-1866 1593 0
-1866 93 0
1866 -1593 -93 0
-1867 1595 0
-1867 83 0
1867 -1595 -83 0
-1868 1597 0
-1868 84 0
1868 -1597 -84 0
-1869 1599 0
-1869 84 0
1869 -1599 -84 0
-1870 1601 0
-1870 137 0
1870 -1601 -137 0
-1871 1603 0
-1871 137 0
1871 -1603 -137 0
-1872 1605 0
-1872 131 0
1872 -1605 -131 0
-1873 1607 0
-1873 131 0
1873 -1607 -131 0
-1874 1609 0
-1874 185 0
1874 -1609 -185 0
-1875 1858 1859 0
-1875 -1858 -1859 0
1875 -1858 1859 0
1875 1858 -1859 0
-1876 1875 1860 0
-1876 -1875 -1860 0
1876 -1875 1860 0
1876 1875 -1860 0
-1877 1876 1861 0
-1877 -1876 -1861 0
1877 -1876 1861 0
1877 1876 -1861 0
-1878 1877 1862 0
-1878 -1877 -1862 0
1878 -1877 1862 0
1878 1877 -1862 0
-1879 1878 1863 0
-1879 -1878 -1863 0
1879 -1878 1863 0
1879 1878 -1863 0
-1880 1879 1864 0
-1880 -1879 -1864 0
1880 -1879 1864 0
1880 1879 -1864 0
-1881 1880 1865 0
-1881 -1880 -1865 0
1881 -1880 1865 0
1881 1880 -1865 0
-1882 1881 1866 0
-1882 -1881 -1866 0
1882 -1881 1866 0
1882 1881 -1866 0
-1883 1882 1867 0
-1883 -1882 -1867 0
1883 -1882 1867 0
1883 1882 -1867 0
-1884 1883 1868 0
-1884 -1883 -1868 0
1884 -1883 1868 0
1884 1883 -1868 0
-1885 1884 1869 0
-1885 -1884 -1869 0
1885 -1884 1869 0
1885 1884 -1869 0
-1886 1885 1870 0
-1886 -1885 -1870 0
1886 -1885 1870 0
1886 1885 -1870 0
-1887 1886 1871 0
-1887 -1886 -1871 0
1887 -1886 1871 0
1887 1886 -1871 0
-1888 1887 1872 0
-1888 -1887 -1872 0
1888 -1887 1872 0
1888 1887 -1872 0
-1889 1888 1873 0
-1889 -1888 -1873 0
1889 -1888 1873 0
1889 1888 -1873 0
-1890 1889 1874 0
-1890 -1889 -1874 0
1890 -1889 1874 0
1890 1889 -1874 0
-1890 0
-1891 1577 0
-1891 42 0
1891 -1577 -42 0
-1892 1579 0
-1892 46 0
1892 -1579 -46 0
-1893 1581 0
-1893 47 0
1893 -1581 -47 0
-1894 1583 0
-1894 39 0
1894 -1583 -39 0
-1895 1585 0
-1895 40 0
1895 -1585 -40 0
-1896 1587 0
-1896 44 0
1896 -1587 -44 0
-1897 1589 0
-1897 90 0
1897 -1589 -90 0
-1898 1591 0
-1898 94 0
1898 -1591 -94 0
-1899 1593 0
-1899 95 0
1899 -1593 -95 0
-1900 1595 0
-1900 87 0
1900 -1595 -87 0
-1901 1597 0
-1901 88 0
1901 -1597 -88 0
-1902 1599 0
-1902 92 0
1902 -1599 -92 0
-1903 1601 0
-1903 138 0
1903 -1601 -138 0
-1904 1603 0
-1904 140 0
1904 -1603 -140 0
-1905 1605 0
-1905 135 0
1905 -1605 -135 0
-1906 1607 0
-1906 143 0
1906 -1607 -143 0
-1907 1609 0
-1907 186 0
1907 -1609 -186 0
-1908 1891 1892 0
-1908 -1891 -1892 0
1908 -1891 1892 0
1908 1891 -1892 0
-1909 1908 1893 0
-1909 -1908 -1893 0
1909 -1908 1893 0
1909 1908 -1893 0
-1910 1909 1894 0
-1910 -1909 -1894 0
1910 -1909 1894 0
1910 1909 -1894 0
-1911 1910 1895 0
-1911 -1910 -1895 0
1911 -1910 1895 0
1911 1910 -1895 0
-1912 1911 1896 0
-1912 -1911 -1896 0
1912 -1911 1896 0
1912 1911 -1896 0
-1913 1912 1897 0
-1913 -1912 -1897 0
1913 -1912 1897 0
1913 1912 -1897 0
-1914 1913 1898 0
-1914 -1913 -1898 0
1914 -1913 1898 0
1914 1913 -1898 0
-1915 1914 1899 0
-1915 -1914 -1899 0
1915 -1914 1899 0
1915 1914 -1899 0
-1916 1915 1900 0
-1916 -1915 -1900 0
1916 -1915 1900 0
1916 1915 -1900 0
-1917 1916 1901 0
-1917 -1916 -1901 0
1917 -1916 1901 0
1917 1916 -1901 0
-1918 1917 1902 0
-1918 -1917 -1902 0
1918 -1917 1902 0
1918 1917 -1902 0
-1919 1918 1903 0
-1919 -1918 -1903 0
1919 -1918 1903 0
1919 1918 -1903 0
-1920 1919 1904 0
-1920 -1919 -1904 0
1920 -1919 1904 0
1920 1919 -1904 0
-1921 1920 1905 0
-1921 -1920 -1905 0
1921 -1920 1905 0
1921 1920 -1905 0
-1922 1921 1906 0
-1922 -1921 -1906 0
1922 -1921 1906 0
1922 1921 -1906 0
-1923 1922 1907 0
-1923 -1922 -1907 0
1923 -1922 1907 0
1923 1922 -1907 0
-1923 0
-1924 1577 0
-1924 43 0
1924 -1577 -43 0
-1925 1579 0
-1925 48 0
1925 -1579 -48 0
-1926 1581 0
-1926 48 0
1926 -1581 -48 0
-1927 1583 0
-1927 43 0
1927 -1583 -43 0
-1928 1585 0
-1928 48 0
1928 -1585 -48 0
-1929 1587 0
-1929 48 0
1929 -1587 -48 0
-1930 1589 0
-1930 91 0
1930 -1589 -91 0
-1931 1591 0
-1931 96 0
1931 -1591 -96 0
-1932 1593 0
-1932 96 0
1932 -1593 -96 0
-1933 1595 0
-1933 91 0
1933 -1595 -91 0
-1934 1597 0
-1934 96 0
1934 -1597 -96 0
-1935 1599 0
-1935 96 0
1935 -1599 -96 0
-1936 1601 0
-1936 139 0
1936 -1601 -139 0
-1937 1603 0
-1937 139 0
1937 -1603 -139 0
-1938 1605 0
-1938 139 0
1938 -1605 -139 0
-1939 1607 0
-1939 139 0
1939 -1607 -139 0
-1940 1609 0
-1940 187 0
1940 -1609 -187 0
-1941 1924 1925 0
-1941 -1924 -1925 0
1941 -1924 1925 0
1941 1924 -1925 0
-1942 1941 1926 0
-1942 -1941 -1926 0
1942 -1941 1926 0
1942 1941 -1926 0
-1943 1942 1927 0
-1943 -1942 -1927 0
1943 -1942 1927 0
1943 1942 -1927 0
-1944 1943 1928 0
-1944 -1943 -1928 0
1944 -1943 1928 0
1944 1943 -1928 0
-1945 1944 1929 0
-1945 -1944 -1929 0
1945 -1944 1929 0
1945 1944 -1929 0
-1946 1945 1930 0
-1946 -1945 -1930 0
1946 -1945 1930 0
1946 1945 -1930 0
-1947 1946 1931 0
-1947 -1946 -1931 0
1947 -1946 1931 0
1947 1946 -1931 0
-1948 1947 1932 0
-1948 -1947 -1932 0
1948 -1947 1932 0
1948 1947 -1932 0
-1949 1948 1933 0
-1949 -1948 -1933 0
1949 -1948 1933 0
1949 1948 -1933 0
-1950 1949 1934 0
-1950 -1949 -1934 0
1950 -1949 1934 0
1950 1949 -1934 0
-1951 1950 1935 0
-1951 -1950 -1935 0
1951 -1950 1935 0
1951 1950 -1935 0
-1952 1951 1936 0
-1952 -1951 -1936 0
1952 -1951 1936 0
1952 1951 -1936 0
-1953 1952 1937 0
-1953 -1952 -1937 0
1953 -1952 1937 0
1953 1952 -1937 0
-1954 1953 1938 0
-1954 -1953 -1938 0
1954 -1953 1938 0
1954 1953 -1938 0
-1955 1954 1939 0
-1955 -1954 -1939 0
1955 -1954 1939 0
1955 1954 -1939 0
-1956 1955 1940 0
-1956 -1955 -1940 0
1956 -1955 1940 0
1956 1955 -1940 0
-1956 0
-1957 1577 0
-1957 44 0
1957 -1577 -44 0
-1958 1579 0
-1958 47 0
1958 -1579 -47 0
-1959 1581 0
-1959 46 0
1959 -1581 -46 0
-1960 1583 0
-1960 47 0
1960 -1583 -47 0
-1961 1585 0
-1961 44 0
1961 -1585 -44 0
-1962 1587 0
-1962 40 0
1962 -1587 -40 0
-1963 1589 0
-1963 92 0
1963 -1589 -92 0
-1964 1591 0
-1964 95 0
1964 -1591 -95 0
-1965 1593 0
-1965 94 0
1965 -1593 -94 0
-1966 1595 0
-1966 95 0
1966 -1595 -95 0
-1967 1597 0
-1967 92 0
1967 -1597 -92 0
-1968 1599 0
-1968 88 0
1968 -1599 -88 0
-1969 1601 0
-1969 140 0
1969 -1601 -140 0
-1970 1603 0
-1970 138 0
1970 -1603 -138 0
-1971 1605 0
-1971 143 0
1971 -1605 -143 0
-1972 1607 0
-1972 135 0
1972 -1607 -135 0
-1973 1609 0
-1973 188 0
1973 -1609 -188 0
-1974 1957 1958 0
-1974 -1957 -1958 0
1974 -1957 1958 0
1974 1957 -1958 0
-1975 1974 1959 0
-1975 -1974 -1959 0
1975 -1974 1959 0
1975 1974 -1959 0
-1976 1975 1960 0
-1976 -1975 -1960 0
1976 -1975 1960 0
1976 1975 -1960 0
-1977 1976 1961 0
-1977 -1976 -1961 0
1977 -1976 1961 0
1977 1976 -1961 0
-1978 1977 1962 0
-1978 -1977 -1962 0
1978 -1977 1962 0
1978 1977 -1962 0
-1979 1978 1963 0
-1979 -1978 -1963 0
1979 -1978 1963 0
1979 1978 -1963 0
-1980 1979 1964 0
-1980 -1979 -1964 0
1980 -1979 1964 0
1980 1979 -1964 0
-1981 1980 1965 0
-1981 -1980 -1965 0
1981 -1980 1965 0
1981 1980 -1965 0
-1982 1981 1966 0
-1982 -1981 -1966 0
1982 -1981 1966 0
1982 1981 -1966 0
-1983 1982 1967 0
-1983 -1982 -1967 0
1983 -1982 1967 0
1983 1982 -1967 0
-1984 1983 1968 0
-1984 -1983 -1968 0
1984 -1983 1968 0
1984 1983 -1968 0
-1985 1984 1969 0
-1985 -1984 -1969 0
1985 -1984 1969 0
1985 1984 -1969 0
-1986 1985 1970 0
-1986 -1985 -1970 0
1986 -1985 1970 0
1986 1985 -1970 0
-1987 1986 1971 0
-1987 -1986 -1971 0
1987 -1986 1971 0
1987 1986 -1971 0
-1988 1987 1972 0
-1988 -1987 -1972 0
1988 -1987 1972 0
1988 1987 -1972 0
-1989 1988 1973 0
-1989 -1988 -1973 0
1989 -1988 1973 0
1989 1988 -1973 0
-1989 0
-1990 1577 0
-1990 45 0
1990 -1577 -45 0
-1991 1579 0
-1991 41 0
1991 -1579 -41 0
-1992 1581 0
-1992 37 0
1992 -1581 -37 0
-1993 1583 0
-1993 36 0
1993 -1583 -36 0
-1994 1585 0
-1994 35 0
1994 -1585 -35 0
-1995 1587 0
-1995 34 0
1995 -1587 -34 0
-1996 1589 0
-1996 93 0
1996 -1589 -93 0
-1997 1591 0
-1997 89 0
1997 -1591 -89 0
-1998 1593 0
-1998 85 0
1998 -1593 -85 0
-1999 1595 0
-1999 84 0
1999 -1595 -84 0
-2000 1597 0
-2000 83 0
2000 -1597 -83 0
-2001 1599 0
-2001 82 0
2001 -1599 -82 0
-2002 1601 0
-2002 141 0
2002 -1601 -141 0
-2003 1603 0
-2003 133 0
2003 -1603 -133 0
-2004 1605 0
-2004 132 0
2004 -1605 -132 0
-2005 1607 0
-2005 130 0
2005 -1607 -130 0
-2006 1609 0
-2006 189 0
2006 -1609 -189 0
-2007 1990 1991 0
-2007 -1990 -1991 0
2007 -1990 1991 0
2007 1990 -1991 0
-2008 2007 1992 0
-2008 -2007 -1992 0
2008 -2007 1992 0
2008 2007 -1992 0
-2009 2008 1993 0
-2009 -2008 -1993 0
2009 -2008 1993 0
2009 2008 -1993 0
-2010 2009 1994 0
-2010 -2009 -1994 0
2010 -2009 1994 0
2010 2009 -1994 0
-2011 2010 1995 0
-2011 -2010 -1995 0
2011 -2010 1995 0
2011 2010 -1995 0
-2012 2011 1996 0
-2012 -2011 -1996 0
2012 -2011 1996 0
2012 2011 -1996 0
-2013 2012 1997 0
-2013 -2012 -1997 0
2013 -2012 1997 0
2013 2012 -1997 0
-2014 2013 1998 0
-2014 -2013 -1998 0
2014 -2013 1998 0
2014 2013 -1998 0
-2015 2014 1999 0
-2015 -2014 -1999 0
2015 -2014 1999 0
2015 2014 -1999 0
-2016 2015 2000 0
-2016 -2015 -2000 0
2016 -2015 2000 0
2016 2015 -2000 0
-2017 2016 2001 0
-2017 -2016 -2001 0
2017 -2016 2001 0
2017 2016 -2001 0
-2018 2017 2002 0
-2018 -2017 -2002 0
2018 -2017 2002 0
2018 2017 -2002 0
-2019 2018 2003 0
-2019 -2018 -2003 0
2019 -2018 2003 0
2019 2018 -2003 0
-2020 2019 2004 0
-2020 -2019 -2004 0
2020 -2019 2004 0
2020 2019 -2004 0
-2021 2020 2005 0
-2021 -2020 -2005 0
2021 -2020 2005 0
2021 2020 -2005 0
-2022 2021 2006 0
-2022 -2021 -2006 0
2022 -2021 2006 0
2022 2021 -2006 0
-2022 0
-2023 1577 0
-2023 46 0
2023 -1577 -46 0
-2024 1579 0
-2024 42 0
2024 -1579 -42 0
-2025 1581 0
-2025 39 0
2025 -1581 -39 0
-2026 1583 0
-2026 40 0
2026 -1583 -40 0
-2027 1585 0
-2027 39 0
2027 -1585 -39 0
-2028 1587 0
-2028 42 0
2028 -1587 -42 0
-2029 1589 0
-2029 94 0
2029 -1589 -94 0
-2030 1591 0
-2030 90 0
2030 -1591 -90 0
-2031 1593 0
-2031 87 0
2031 -1593 -87 0
-2032 1595 0
-2032 88 0
2032 -1595 -88 0
-2033 1597 0
-2033 87 0
2033 -1597 -87 0
-2034 1599 0
-2034 90 0
2034 -1599 -90 0
-2035 1601 0
-2035 142 0
2035 -1601 -142 0
-2036 1603 0
-2036 136 0
2036 -1603 -136 0
-2037 1605 0
-2037 136 0
2037 -1605 -136 0
-2038 1607 0
-2038 142 0
2038 -1607 -142 0
-2039 1609 0
-2039 190 0
2039 -1609 -190 0
-2040 2023 2024 0
-2040 -2023 -2024 0
2040 -2023 2024 0
2040 2023 -2024 0
-2041 2040 2025 0
-2041 -2040 -2025 0
2041 -2040 2025 0
2041 2040 -2025 0
-2042 2041 2026 0
-2042 -2041 -2026 0
2042 -2041 2026 0
2042 2041 -2026 0
-2043 2042 2027 0
-2043 -2042 -2027 0
2043 -2042 2027 0
2043 2042 -2027 0
-2044 2043 2028 0
-2044 -2043 -2028 0
2044 -2043 2028 0
2044 2043 -2028 0
-2045 2044 2029 0
-2045 -2044 -2029 0
2045 -2044 2029 0
2045 2044 -2029 0
-2046 2045 2030 0
-2046 -2045 -2030 0
2046 -2045 2030 0
2046 2045 -2030 0
-2047 2046 2031 0
-2047 -2046 -2031 0
2047 -2046 2031 0
2047 2046 -2031 0
-2048 2047 2032 0
-2048 -2047 -2032 0
2048 -2047 2032 0
2048 2047 -2032 0
-2049 2048 2033 0
-2049 -2048 -2033 0
2049 -2048 2033 0
2049 2048 -2033 0
-2050 2049 2034 0
-2050 -2049 -2034 0
2050 -2049 2034 0
2050 2049 -2034 0
-2051 2050 2035 0
-2051 -2050 -2035 0
2051 -2050 2035 0
2051 2050 -2035 0
-2052 2051 2036 0
-2052 -2051 -2036 0
2052 -2051 2036 0
2052 2051 -2036 0
-2053 2052 2037 0
-2053 -2052 -2037 0
2053 -2052 2037 0
2053 2052 -2037 0
-2054 2053 2038 0
-2054 -2053 -2038 0
2054 -2053 2038 0
2054 2053 -2038 0
-2055 2054 2039 0
-2055 -2054 -2039 0
2055 -2054 2039 0
2055 2054 -2039 0
-2055 0
-2056 1577 0
-2056 47 0
2056 -1577 -47 0
-2057 1579 0
-2057 44 0
2057 -1579 -44 0
-2058 1581 0
-2058 40 0
2058 -1581 -40 0
-2059 1583 0
-2059 44 0
2059 -1583 -44 0
-2060 1585 0
-2060 47 0
2060 -1585 -47 0
-2061 1587 0
-2061 46 0
2061 -1587 -46 0
-2062 1589 0
-2062 95 0
2062 -1589 -95 0
-2063 1591 0
-2063 92 0
2063 -1591 -92 0
-2064 1593 0
-2064 88 0
2064 -1593 -88 0
-2065 1595 0
-2065 92 0
2065 -1595 -92 0
-2066 1597 0
-2066 95 0
2066 -1597 -95 0
-2067 1599 0
-2067 94 0
2067 -1599 -94 0
-2068 1601 0
-2068 143 0
2068 -1601 -143 0
-2069 1603 0
-2069 135 0
2069 -1603 -135 0
-2070 1605 0
-2070 140 0
2070 -1605 -140 0
-2071 1607 0
-2071 138 0
2071 -1607 -138 0
-2072 1609 0
-2072 191 0
2072 -1609 -191 0
-2073 2056 2057 0
-2073 -2056 -2057 0
2073 -2056 2057 0
2073 2056 -2057 0
-2074 2073 2058 0
-2074 -2073 -2058 0
2074 -2073 2058 0
2074 2073 -2058 0
-2075 2074 2059 0
-2075 -2074 -2059 0
2075 -2074 2059 0
2075 2074 -2059 0
-2076 2075 2060 0
-2076 -2075 -2060 0
2076 -2075 2060 0
2076 2075 -2060 0
-2077 2076 2061 0
-2077 -2076 -2061 0
2077 -2076 2061 0
2077 2076 -2061 0
-2078 2077 2062 0
-2078 -2077 -2062 0
2078 -2077 2062 0
2078 2077 -2062 0
-2079 2078 2063 0
-2079 -2078 -2063 0
2079 -2078 2063 0
2079 2078 -2063 0
-2080 2079 2064 0
-2080 -2079 -2064 0
2080 -2079 2064 0
2080 2079 -2064 0
-2081 2080 2065 0
-2081 -2080 -2065 0
2081 -2080 2065 0
2081 2080 -2065 0
-2082 2081 2066 0
-2082 -2081 -2066 0
2082 -2081 2066 0
2082 2081 -2066 0
-2083 2082 2067 0
-2083 -2082 -2067 0
2083 -2082 2067 0
2083 2082 -2067 0
-2084 2083 2068 0
-2084 -2083 -2068 0
2084 -2083 2068 0
2084 2083 -2068 0
-2085 2084 2069 0
-2085 -2084 -2069 0
2085 -2084 2069 0
2085 2084 -2069 0
-2086 2085 2070 0
-2086 -2085 -2070 0
2086 -2085 2070 0
2086 2085 -2070 0
-2087 2086 2071 0
-2087 -2086 -2071 0
2087 -2086 2071 0
2087 2086 -2071 0
-2088 2087 2072 0
-2088 -2087 -2072 0
2088 -2087 2072 0
2088 2087 -2072 0
-2088 0
-2089 1577 0
-2089 48 0
2089 -1577 -48 0
-2090 1579 0
-2090 43 0
2090 -1579 -43 0
-2091 1581 0
-2091 38 0
2091 -1581 -38 0
-2092 1583 0
-2092 48 0
2092 -1583 -48 0
-2093 1585 0
-2093 43 0
2093 -1585 -43 0
-2094 1587 0
-2094 38 0
2094 -1587 -38 0
-2095 1589 0
-2095 96 0
2095 -1589 -96 0
-2096 1591 0
-2096 91 0
2096 -1591 -91 0
-2097 1593 0
-2097 86 0
2097 -1593 -86 0
-2098 1595 0
-2098 96 0
2098 -1595 -96 0
-2099 1597 0
-2099 91 0
2099 -1597 -91 0
-2100 1599 0
-2100 86 0
2100 -1599 -86 0
-2101 1601 0
-2101 144 0
2101 -1601 -144 0
-2102 1603 0
-2102 134 0
2102 -1603 -134 0
-2103 1605 0
-2103 144 0
2103 -1605 -144 0
-2104 1607 0
-2104 134 0
2104 -1607 -134 0
-2105 1609 0
-2105 192 0
2105 -1609 -192 0
-2106 2089 2090 0
-2106 -2089 -2090 0
2106 -2089 2090 0
2106 2089 -2090 0
-2107 2106 2091 0
-2107 -2106 -2091 0
2107 -2106 2091 0
2107 2106 -2091 0
-2108 2107 2092 0
-2108 -2107 -2092 0
2108 -2107 2092 0
2108 2107 -2092 0
-2109 2108 2093 0
-2109 -2108 -2093 0
2109 -2108 2093 0
2109 2108 -2093 0
-2110 2109 2094 0
-2110 -2109 -2094 0
2110 -2109 2094 0
2110 2109 -2094 0
-2111 2110 2095 0
-2111 -2110 -2095 0
2111 -2110 2095 0
2111 2110 -2095 0
-2112 2111 2096 0
-2112 -2111 -2096 0
2112 -2111 2096 0
2112 2111 -2096 0
-2113 2112 2097 0
-2113 -2112 -2097 0
2113 -2112 2097 0
2113 2112 -2097 0
-2114 2113 2098 0
-2114 -2113 -2098 0
2114 -2113 2098 0
2114 2113 -2098 0
-2115 2114 2099 0
-2115 -2114 -2099 0
2115 -2114 2099 0
2115 2114 -2099 0
-2116 2115 2100 0
-2116 -2115 -2100 0
2116 -2115 2100 0
2116 2115 -2100 0
-2117 2116 2101 0
-2117 -2116 -2101 0
2117 -2116 2101 0
2117 2116 -2101 0
-2118 2117 2102 0
-2118 -2117 -2102 0
2118 -2117 2102 0
2118 2117 -2102 0
-2119 2118 2103 0
-2119 -2118 -2103 0
2119 -2118 2103 0
2119 2118 -2103 0
-2120 2119 2104 0
-2120 -2119 -2104 0
2120 -2119 2104 0
2120 2119 -2104 0
-2121 2120 2105 0
-2121 -2120 -2105 0
2121 -2120 2105 0
2121 2120 -2105 0
-2121 0
-2122 1 0
-2122 23 0
2122 -1 -23 0
-2123 2122 0
-2123 33 0
2123 -2122 -33 0
-2124 2 0
-2124 20 0
2124 -2 -20 0
-2125 2124 0
-2125 33 0
2125 -2124 -33 0
-2126 2 0
-2126 28 0
2126 -2 -28 0
-2127 2126 0
-2127 33 0
2127 -2126 -33 0
-2128 17 0
-2128 10 0
2128 -17 -10 0
-2129 2128 0
-2129 33 0
2129 -2128 -33 0
-2130 21 0
-2130 13 0
2130 -21 -13 0
-2131 2130 0
-2131 33 0
2131 -2130 -33 0
-2132 21 0
-2132 15 0
2132 -21 -15 0
-2133 2132 0
-2133 33 0
2133 -2132 -33 0
-2134 49 0
-2134 71 0
2134 -49 -71 0
-2135 2134 0
-2135 81 0
2135 -2134 -81 0
-2136 50 0
-2136 68 0
2136 -50 -68 0
-2137 2136 0
-2137 81 0
2137 -2136 -81 0
-2138 50 0
-2138 76 0
2138 -50 -76 0
-2139 2138 0
-2139 81 0
2139 -2138 -81 0
-2140 65 0
-2140 58 0
2140 -65 -58 0
-2141 2140 0
-2141 81 0
2141 -2140 -81 0
-2142 69 0
-2142 61 0
2142 -69 -61 0
-2143 2142 0
-2143 81 0
2143 -2142 -81 0
-2144 69 0
-2144 63 0
2144 -69 -63 0
-2145 2144 0
-2145 81 0
2145 -2144 -81 0
-2146 97 0
-2146 119 0
2146 -97 -119 0
-2147 2146 0
-2147 129 0
2147 -2146 -129 0
-2148 97 0
-2148 123 0
2148 -97 -123 0
-2149 2148 0
-2149 129 0
2149 -2148 -129 0
-2150 113 0
-2150 106 0
2150 -113 -106 0
-2151 2150 0
-2151 129 0
2151 -2150 -129 0
-2152 113 0
-2152 107 0
2152 -113 -107 0
-2153 2152 0
-2153 129 0
2153 -2152 -129 0
-2154 145 0
-2154 167 0
2154 -145 -167 0
-2155 2154 0
-2155 177 0
2155 -2154 -177 0
-2156 2123 2125 0
-2156 -2123 -2125 0
2156 -2123 2125 0
2156 2123 -2125 0
-2157 2156 2127 0
-2157 -2156 -2127 0
2157 -2156 2127 0
2157 2156 -2127 0
-2158 2157 2129 0
-2158 -2157 -2129 0
2158 -2157 2129 0
2158 2157 -2129 0
-2159 2158 2131 0
-2159 -2158 -2131 0
2159 -2158 2131 0
2159 2158 -2131 0
-2160 2159 2133 0
-2160 -2159 -2133 0
2160 -2159 2133 0
2160 2159 -2133 0
-2161 2160 2135 0
-2161 -2160 -2135 0
2161 -2160 2135 0
2161 2160 -2135 0
-2162 2161 2137 0
-2162 -2161 -2137 0
2162 -2161 2137 0
2162 2161 -2137 0
-2163 2162 2139 0
-2163 -2162 -2139 0
2163 -2162 2139 0
2163 2162 -2139 0
-2164 2163 2141 0
-2164 -2163 -2141 0
2164 -2163 2141 0
2164 2163 -2141 0
-2165 2164 2143 0
-2165 -2164 -2143 0
2165 -2164 2143 0
2165 2164 -2143 0
-2166 2165 2145 0
-2166 -2165 -2145 0
2166 -2165 2145 0
2166 2165 -2145 0
-2167 2166 2147 0
-2167 -2166 -2147 0
2167 -2166 2147 0
2167 2166 -2147 0
-2168 2167 2149 0
-2168 -2167 -2149 0
2168 -2167 2149 0
2168 2167 -2149 0
-2169 2168 2151 0
-2169 -2168 -2151 0
2169 -2168 2151 0
2169 2168 -2151 0
-2170 2169 2153 0
-2170 -2169 -2153 0
2170 -2169 2153 0
2170 2169 -2153 0
-2171 2170 2155 0
-2171 -2170 -2155 0
2171 -2170 2155 0
2171 2170 -2155 0
-2171 0
-2172 2122 0
-2172 34 0
2172 -2122 -34 0
-2173 2124 0
-2173 34 0
2173 -2124 -34 0
-2174 2126 0
-2174 35 0
2174 -2126 -35 0
-2175 2128 0
-2175 37 0
2175 -2128 -37 0
-2176 2130 0
-2176 37 0
2176 -2130 -37 0
-2177 2132 0
-2177 41 0
2177 -2132 -41 0
-2178 2134 0
-2178 82 0
2178 -2134 -82 0
-2179 2136 0
-2179 82 0
2179 -2136 -82 0
-2180 2138 0
-2180 83 0
2180 -2138 -83 0
-2181 2140 0
-2181 85 0
2181 -2140 -85 0
-2182 2142 0
-2182 85 0
2182 -2142 -85 0
-2183 2144 0
-2183 89 0
2183 -2144 -89 0
-2184 2146 0
-2184 130 0
2184 -2146 -130 0
-2185 2148 0
-2185 132 0
2185 -2148 -132 0
-2186 2150 0
-2186 133 0
2186 -2150 -133 0
-2187 2152 0
-2187 141 0
2187 -2152 -141 0
-2188 2154 0
-2188 178 0
2188 -2154 -178 0
-2189 2172 2173 0
-2189 -2172 -2173 0
2189 -2172 2173 0
2189 2172 -2173 0
-2190 2189 2174 0
-2190 -2189 -2174 0
2190 -2189 2174 0
2190 2189 -2174 0
-2191 2190 2175 0
-2191 -2190 -2175 0
2191 -2190 2175 0
2191 2190 -2175 0
-2192 2191 2176 0
-2192 -2191 -2176 0
2192 -2191 2176 0
2192 2191 -2176 0
-2193 2192 2177 0
-2193 -2192 -2177 0
2193 -2192 2177 0
2193 2192 -2177 0
-2194 2193 2178 0
-2194 -2193 -2178 0
2194 -2193 2178 0
2194 2193 -2178 0
-2195 2194 2179 0
-2195 -2194 -2179 0
2195 -2194 2179 0
2195 2194 -2179 0
-2196 2195 2180 0
-2196 -2195 -2180 0
2196 -2195 2180 0
2196 2195 -2180 0
-2197 2196 2181 0
-2197 -2196 -2181 0
2197 -2196 2181 0
2197 2196 -2181 0
-2198 2197 2182 0
-2198 -2197 -2182 0
2198 -2197 2182 0
2198 2197 -2182 0
-2199 2198 2183 0
-2199 -2198 -2183 0
2199 -2198 2183 0
2199 2198 -2183 0
-2200 2199 2184 0
-2200 -2199 -2184 0
2200 -2199 2184 0
2200 2199 -2184 0
-2201 2200 2185 0
-2201 -2200 -2185 0
2201 -2200 2185 0
2201 2200 -2185 0
-2202 2201 2186 0
-2202 -2201 -2186 0
2202 -2201 2186 0
2202 2201 -2186 0
-2203 2202 2187 0
-2203 -2202 -2187 0
2203 -2202 2187 0
2203 2202 -2187 0
-2204 2203 2188 0
-2204 -2203 -2188 0
2204 -2203 2188 0
2204 2203 -2188 0
-2204 0
-2205 2122 0
-2205 35 0
2205 -2122 -35 0
-2206 2124 0
-2206 36 0
2206 -2124 -36 0
-2207 2126 0
-2207 36 0
2207 -2126 -36 0
-2208 2128 0
-2208 41 0
2208 -2128 -41 0
-2209 2130 0
-2209 45 0
2209 -2130 -45 0
-2210 2132 0
-2210 45 0
2210 -2132 -45 0
-2211 2134 0
-2211 83 0
2211 -2134 -83 0
-2212 2136 0
-2212 84 0
2212 -2136 -84 0
-2213 2138 0
-2213 84 0
2213 -2138 -84 0
-2214 2140 0
-2214 89 0
2214 -2140 -89 0
-2215 2142 0
-2215 93 0
2215 -2142 -93 0
-2216 2144 0
-2216 93 0
2216 -2144 -93 0
-2217 2146 0
-2217 131 0
2217 -2146 -131 0
-2218 2148 0
-2218 131 0
2218 -2148 -131 0
-2219 2150 0
-2219 137 0
2219 -2150 -137 0
-2220 2152 0
-2220 137 0
2220 -2152 -137 0
-2221 2154 0
-2221 179 0
2221 -2154 -179 0
-2222 2205 2206 0
-2222 -2205 -2206 0
2222 -2205 2206 0
2222 2205 -2206 0
-2223 2222 2207 0
-2223 -2222 -2207 0
2223 -2222 2207 0
2223 2222 -2207 0
-2224 2223 2208 0
-2224 -2223 -2208 0
2224 -2223 2208 0
2224 2223 -2208 0
-2225 2224 2209 0
-2225 -2224 -2209 0
2225 -2224 2209 0
2225 2224 -2209 0
-2226 2225 2210 0
-2226 -2225 -2210 0
2226 -2225 2210 0
2226 2225 -2210 0
-2227 2226 2211 0
-2227 -2226 -2211 0
2227 -2226 2211 0
2227 2226 -2211 0
-2228 2227 2212 0
-2228 -2227 -2212 0
2228 -2227 2212 0
2228 2227 -2212 0
-2229 2228 2213 0
-2229 -2228 -2213 0
2229 -2228 2213 0
2229 2228 -2213 0
-2230 2229 2214 0
-2230 -2229 -2214 0
2230 -2229 2214 0
2230 2229 -2214 0
-2231 2230 2215 0
-2231 -2230 -2215 0
2231 -2230 2215 0
2231 2230 -2215 0
-2232 2231 2216 0
-2232 -2231 -2216 0
2232 -2231 2216 0
2232 2231 -2216 0
-2233 2232 2217 0
-2233 -2232 -2217 0
2233 -2232 2217 0
2233 2232 -2217 0
-2234 2233 2218 0
-2234 -2233 -2218 0
2234 -2233 2218 0
2234 2233 -2218 0
-2235 2234 2219 0
-2235 -2234 -2219 0
2235 -2234 2219 0
2235 2234 -2219 0
-2236 2235 2220 0
-2236 -2235 -2220 0
2236 -2235 2220 0
2236 2235 -2220 0
-2237 2236 2221 0
-2237 -2236 -2221 0
2237 -2236 2221 0
2237 2236 -2221 0
-2237 0
-2238 2122 0
-2238 36 0
2238 -2122 -36 0
-2239 2124 0
-2239 35 0
2239 -2124 -35 0
-2240 2126 0
-2240 34 0
2240 -2126 -34 0
-2241 2128 0
-2241 45 0
2241 -2128 -45 0
-2242 2130 0
-2242 41 0
2242 -2130 -41 0
-2243 2132 0
-2243 37 0
2243 -2132 -37 0
-2244 2134 0
-2244 84 0
2244 -2134 -84 0
-2245 2136 0
-2245 83 0
2245 -2136 -83 0
-2246 2138 0
-2246 82 0
2246 -2138 -82 0
-2247 2140 0
-2247 93 0
2247 -2140 -93 0
-2248 2142 0
-2248 89 0
2248 -2142 -89 0
-2249 2144 0
-2249 85 0
2249 -2144 -85 0
-2250 2146 0
-2250 132 0
2250 -2146 -132 0
-2251 2148 0
-2251 130 0
2251 -2148 -130 0
-2252 2150 0
-2252 141 0
2252 -2150 -141 0
-2253 2152 0
-2253 133 0
2253 -2152 -133 0
-2254 2154 0
-2254 180 0
2254 -2154 -180 0
-2255 2238 2239 0
-2255 -2238 -2239 0
2255 -2238 2239 0
2255 2238 -2239 0
-2256 2255 2240 0
-2256 -2255 -2240 0
2256 -2255 2240 0
2256 2255 -2240 0
-2257 2256 2241 0
-2257 -2256 -2241 0
2257 -2256 2241 0
2257 2256 -2241 0
-2258 2257 2242 0
-2258 -2257 -2242 0
2258 -2257 2242 0
2258 2257 -2242 0
-2259 2258 2243 0
-2259 -2258 -2243 0
2259 -2258 2243 0
2259 2258 -2243 0
-2260 2259 2244 0
-2260 -2259 -2244 0
2260 -2259 2244 0
2260 2259 -2244 0
-2261 2260 2245 0
-2261 -2260 -2245 0
2261 -2260 2245 0
2261 2260 -2245 0
-2262 2261 2246 0
-2262 -2261 -2246 0
2262 -2261 2246 0
2262 2261 -2246 0
-2263 2262 2247 0
-2263 -2262 -2247 0
2263 -2262 2247 0
2263 2262 -2247 0
-2264 2263 2248 0
-2264 -2263 -2248 0
2264 -2263 2248 0
2264 2263 -2248 0
-2265 2264 2249 0
-2265 -2264 -2249 0
2265 -2264 2249 0
2265 2264 -2249 0
-2266 2265 2250 0
-2266 -2265 -2250 0
2266 -2265 2250 0
2266 2265 -2250 0
-2267 2266 2251 0
-2267 -2266 -2251 0
2267 -2266 2251 0
2267 2266 -2251 0
-2268 2267 2252 0
-2268 -2267 -2252 0
2268 -2267 2252 0
2268 2267 -2252 0
-2269 2268 2253 0
-2269 -2268 -2253 0
2269 -2268 2253 0
2269 2268 -2253 0
-2270 2269 2254 0
-2270 -2269 -2254 0
2270 -2269 2254 0
2270 2269 -2254 0
-2270 0
-2271 2122 0
-2271 37 0
2271 -2122 -37 0
-2272 2124 0
-2272 37 0
2272 -2124 -37 0
-2273 2126 0
-2273 41 0
2273 -2126 -41 0
-2274 2128 0
-2274 34 0
2274 -2128 -34 0
-2275 2130 0
-2275 34 0
2275 -2130 -34 0
-2276 2132 0
-2276 35 0
2276 -2132 -35 0
-2277 2134 0
-2277 85 0
2277 -2134 -85 0
-2278 2136 0
-2278 85 0
2278 -2136 -85 0
-2279 2138 0
-2279 89 0
2279 -2138 -89 0
-2280 2140 0
-2280 82 0
2280 -2140 -82 0
-2281 2142 0
-2281 82 0
2281 -2142 -82 0
-2282 2144 0
-2282 83 0
2282 -2144 -83 0
-2283 2146 0
-2283 133 0
2283 -2146 -133 0
-2284 2148 0
-2284 141 0
2284 -2148 -141 0
-2285 2150 0
-2285 130 0
2285 -2150 -130 0
-2286 2152 0
-2286 132 0
2286 -2152 -132 0
-2287 2154 0
-2287 181 0
2287 -2154 -181 0
-2288 2271 2272 0
-2288 -2271 -2272 0
2288 -2271 2272 0
2288 2271 -2272 0
-2289 2288 2273 0
-2289 -2288 -2273 0
2289 -2288 2273 0
2289 2288 -2273 0
-2290 2289 2274 0
-2290 -2289 -2274 0
2290 -2289 2274 0
2290 2289 -2274 0
-2291 2290 2275 0
-2291 -2290 -2275 0
2291 -2290 2275 0
2291 2290 -2275 0
-2292 2291 2276 0
-2292 -2291 -2276 0
2292 -2291 2276 0
2292 2291 -2276 0
-2293 2292 2277 0
-2293 -2292 -2277 0
2293 -2292 2277 0
2293 2292 -2277 0
-2294 2293 2278 0
-2294 -2293 -2278 0
2294 -2293 2278 0
2294 2293 -2278 0
-2295 2294 2279 0
-2295 -2294 -2279 0
2295 -2294 2279 0
2295 2294 -2279 0
-2296 2295 2280 0
-2296 -2295 -2280 0
2296 -2295 2280 0
2296 2295 -2280 0
-2297 2296 2281 0
-2297 -2296 -2281 0
2297 -2296 2281 0
2297 2296 -2281 0
-2298 2297 2282 0
-2298 -2297 -2282 0
2298 -2297 2282 0
2298 2297 -2282 0
-2299 2298 2283 0
-2299 -2298 -2283 0
2299 -2298 2283 0
2299 2298 -2283 0
-2300 2299 2284 0
-2300 -2299 -2284 0
2300 -2299 2284 0
2300 2299 -2284 0
-2301 2300 2285 0
-2301 -2300 -2285 0
2301 -2300 2285 0
2301 2300 -2285 0
-2302 2301 2286 0
-2302 -2301 -2286 0
2302 -2301 2286 0
2302 2301 -2286 0
-2303 2302 2287 0
-2303 -2302 -2287 0
2303 -2302 2287 0
2303 2302 -2287 0
-2303 0
-2304 2122 0
-2304 38 0
2304 -2122 -38 0
-2305 2124 0
-2305 38 0
2305 -2124 -38 0
-2306 2126 0
-2306 43 0
2306 -2126 -43 0
-2307 2128 0
-2307 38 0
2307 -2128 -38 0
-2308 2130 0
-2308 38 0
2308 -2130 -38 0
-2309 2132 0
-2309 43 0
2309 -2132 -43 0
-2310 2134 0
-2310 86 0
2310 -2134 -86 0
-2311 2136 0
-2311 86 0
2311 -2136 -86 0
-2312 2138 0
-2312 91 0
2312 -2138 -91 0
-2313 2140 0
-2313 86 0
2313 -2140 -86 0
-2314 2142 0
-2314 86 0
2314 -2142 -86 0
-2315 2144 0
-2315 91 0
2315 -2144 -91 0
-2316 2146 0
-2316 134 0
2316 -2146 -134 0
-2317 2148 0
-2317 144 0
2317 -2148 -144 0
-2318 2150 0
-2318 134 0
2318 -2150 -134 0
-2319 2152 0
-2319 144 0
2319 -2152 -144 0
-2320 2154 0
-2320 182 0
2320 -2154 -182 0
-2321 2304 2305 0
-2321 -2304 -2305 0
2321 -2304 2305 0
2321 2304 -2305 0
-2322 2321 2306 0
-2322 -2321 -2306 0
2322 -2321 2306 0
2322 2321 -2306 0
-2323 2322 2307 0
-2323 -2322 -2307 0
2323 -2322 2307 0
2323 2322 -2307 0
-2324 2323 2308 0
-2324 -2323 -2308 0
2324 -2323 2308 0
2324 2323 -2308 0
-2325 2324 2309 0
-2325 -2324 -2309 0
2325 -2324 2309 0
2325 2324 -2309 0
-2326 2325 2310 0
-2326 -2325 -2310 0
2326 -2325 2310 0
2326 2325 -2310 0
-2327 2326 2311 0
-2327 -2326 -2311 0
2327 -2326 2311 0
2327 2326 -2311 0
-2328 2327 2312 0
-2328 -2327 -2312 0
2328 -2327 2312 0
2328 2327 -2312 0
-2329 2328 2313 0
-2329 -2328 -2313 0
2329 -2328 2313 0
2329 2328 -2313 0
-2330 2329 2314 0
-2330 -2329 -2314 0
2330 -2329 2314 0
2330 2329 -2314 0
-2331 2330 2315 0
-2331 -2330 -2315 0
2331 -2330 2315 0
2331 2330 -2315 0
-2332 2331 2316 0
-2332 -2331 -2316 0
2332 -2331 2316 0
2332 2331 -2316 0
-2333 2332 2317 0
-2333 -2332 -2317 0
2333 -2332 2317 0
2333 2332 -2317 0
-2334 2333 2318 0
-2334 -2333 -2318 0
2334 -2333 2318 0
2334 2333 -2318 0
-2335 2334 2319 0
-2335 -2334 -2319 0
2335 -2334 2319 0
2335 2334 -2319 0
-2336 2335 2320 0
-2336 -2335 -2320 0
2336 -2335 2320 0
2336 2335 -2320 0
-2336 0
-2337 2122 0
-2337 39 0
2337 -2122 -39 0
-2338 2124 0
-2338 40 0
2338 -2124 -40 0
-2339 2126 0
-2339 44 0
2339 -2126 -44 0
-2340 2128 0
-2340 42 0
2340 -2128 -42 0
-2341 2130 0
-2341 46 0
2341 -2130 -46 0
-2342 2132 0
-2342 47 0
2342 -2132 -47 0
-2343 2134 0
-2343 87 0
2343 -2134 -87 0
-2344 2136 0
-2344 88 0
2344 -2136 -88 0
-2345 2138 0
-2345 92 0
2345 -2138 -92 0
-2346 2140 0
-2346 90 0
2346 -2140 -90 0
-2347 2142 0
-2347 94 0
2347 -2142 -94 0
-2348 2144 0
-2348 95 0
2348 -2144 -95 0
-2349 2146 0
-2349 135 0
2349 -2146 -135 0
-2350 2148 0
-2350 143 0
2350 -2148 -143 0
-2351 2150 0
-2351 138 0
2351 -2150 -138 0
-2352 2152 0
-2352 140 0
2352 -2152 -140 0
-2353 2154 0
-2353 183 0
2353 -2154 -183 0
-2354 2337 2338 0
-2354 -2337 -2338 0
2354 -2337 2338 0
2354 2337 -2338 0
-2355 2354 2339 0
-2355 -2354 -2339 0
2355 -2354 2339 0
2355 2354 -2339 0
-2356 2355 2340 0
-2356 -2355 -2340 0
2356 -2355 2340 0
2356 2355 -2340 0
-2357 2356 2341 0
-2357 -2356 -2341 0
2357 -2356 2341 0
2357 2356 -2341 0
-2358 2357 2342 0
-2358 -2357 -2342 0
2358 -2357 2342 0
2358 2357 -2342 0
-2359 2358 2343 0
-2359 -2358 -2343 0
2359 -2358 2343 0
2359 2358 -2343 0
-2360 2359 2344 0
-2360 -2359 -2344 0
2360 -2359 2344 0
2360 2359 -2344 0
-2361 2360 2345 0
-2361 -2360 -2345 0
2361 -2360 2345 0
2361 2360 -2345 0
-2362 2361 2346 0
-2362 -2361 -2346 0
2362 -2361 2346 0
2362 2361 -2346 0
-2363 2362 2347 0
-2363 -2362 -2347 0
2363 -2362 2347 0
2363 2362 -2347 0
-2364 2363 2348 0
-2364 -2363 -2348 0
2364 -2363 2348 0
2364 2363 -2348 0
-2365 2364 2349 0
-2365 -2364 -2349 0
2365 -2364 2349 0
2365 2364 -2349 0
-2366 2365 2350 0
-2366 -2365 -2350 0
2366 -2365 2350 0
2366 2365 -2350 0
-2367 2366 2351 0
-2367 -2366 -2351 0
2367 -2366 2351 0
2367 2366 -2351 0
-2368 2367 2352 0
-2368 -2367 -2352 0
2368 -2367 2352 0
2368 2367 -2352 0
-2369 2368 2353 0
-2369 -2368 -2353 0
2369 -2368 2353 0
2369 2368 -2353 0
-2369 0
-2370 2122 0
-2370 40 0
2370 -2122 -40 0
-2371 2124 0
-2371 39 0
2371 -2124 -39 0
-2372 2126 0
-2372 42 0
2372 -2126 -42 0
-2373 2128 0
-2373 46 0
2373 -2128 -46 0
-2374 2130 0
-2374 42 0
2374 -2130 -42 0
-2375 2132 0
-2375 39 0
2375 -2132 -39 0
-2376 2134 0
-2376 88 0
2376 -2134 -88 0
-2377 2136 0
-2377 87 0
2377 -2136 -87 0
-2378 2138 0
-2378 90 0
2378 -2138 -90 0
-2379 2140 0
-2379 94 0
2379 -2140 -94 0
-2380 2142 0
-2380 90 0
2380 -2142 -90 0
-2381 2144 0
-2381 87 0
2381 -2144 -87 0
-2382 2146 0
-2382 136 0
2382 -2146 -136 0
-2383 2148 0
-2383 142 0
2383 -2148 -142 0
-2384 2150 0
-2384 142 0
2384 -2150 -142 0
-2385 2152 0
-2385 136 0
2385 -2152 -136 0
-2386 2154 0
-2386 184 0
2386 -2154 -184 0
-2387 2370 2371 0
-2387 -2370 -2371 0
2387 -2370 2371 0
2387 2370 -2371 0
-2388 2387 2372 0
-2388 -2387 -2372 0
2388 -2387 2372 0
2388 2387 -2372 0
-2389 2388 2373 0
-2389 -2388 -2373 0
2389 -2388 2373 0
2389 2388 -2373 0
-2390 2389 2374 0
-2390 -2389 -2374 0
2390 -2389 2374 0
2390 2389 -2374 0
-2391 2390 2375 0
-2391 -2390 -2375 0
2391 -2390 2375 0
2391 2390 -2375 0
-2392 2391 2376 0
-2392 -2391 -2376 0
2392 -2391 2376 0
2392 2391 -2376 0
-2393 2392 2377 0
-2393 -2392 -2377 0
2393 -2392 2377 0
2393 2392 -2377 0
-2394 2393 2378 0
-2394 -2393 -2378 0
2394 -2393 2378 0
2394 2393 -2378 0
-2395 2394 2379 0
-2395 -2394 -2379 0
2395 -2394 2379 0
2395 2394 -2379 0
-2396 2395 2380 0
-2396 -2395 -2380 0
2396 -2395 2380 0
2396 2395 -2380 0
-2397 2396 2381 0
-2397 -2396 -2381 0
2397 -2396 2381 0
2397 2396 -2381 0
-2398 2397 2382 0
-2398 -2397 -2382 0
2398 -2397 2382 0
2398 2397 -2382 0
-2399 2398 2383 0
-2399 -2398 -2383 0
2399 -2398 2383 0
2399 2398 -2383 0
-2400 2399 2384 0
-2400 -2399 -2384 0
2400 -2399 2384 0
2400 2399 -2384 0
-2401 2400 2385 0
-2401 -2400 -2385 0
2401 -2400 2385 0
2401 2400 -2385 0
-2402 2401 2386 0
-2402 -2401 -2386 0
2402 -2401 2386 0
2402 2401 -2386 0
-2402 0
-2403 2122 0
-2403 41 0
2403 -2122 -41 0
-2404 2124 0
-2404 45 0
2404 -2124 -45 0
-2405 2126 0
-2405 45 0
2405 -2126 -45 0
-2406 2128 0
-2406 35 0
2406 -2128 -35 0
-2407 2130 0
-2407 36 0
2407 -2130 -36 0
-2408 2132 0
-2408 36 0
2408 -2132 -36 0
-2409 2134 0
-2409 89 0
2409 -2134 -89 0
-2410 2136 0
-2410 93 0
2410 -2136 -93 0
-2411 2138 0
-2411 93 0
2411 -2138 -93 0
-2412 2140 0
-2412 83 0
2412 -2140 -83 0
-2413 2142 0
-2413 84 0
2413 -2142 -84 0
-2414 2144 0
-2414 84 0
2414 -2144 -84 0
-2415 2146 0
-2415 137 0
2415 -2146 -137 0
-2416 2148 0
-2416 137 0
2416 -2148 -137 0
-2417 2150 0
-2417 131 0
2417 -2150 -131 0
-2418 2152 0
-2418 131 0
2418 -2152 -131 0
-2419 2154 0
-2419 185 0
2419 -2154 -185 0
-2420 2403 2404 0
-2420 -2403 -2404 0
2420 -2403 2404 0
2420 2403 -2404 0
-2421 2420 2405 0
-2421 -2420 -2405 0
2421 -2420 2405 0
2421 2420 -2405 0
-2422 2421 2406 0
-2422 -2421 -2406 0
2422 -2421 2406 0
2422 2421 -2406 0
-2423 2422 2407 0
-2423 -2422 -2407 0
2423 -2422 2407 0
2423 2422 -2407 0
-2424 2423 2408 0
-2424 -2423 -2408 0
2424 -2423 2408 0
2424 2423 -2408 0
-2425 2424 2409 0
-2425 -2424 -2409 0
2425 -2424 2409 0
2425 2424 -2409 0
-2426 2425 2410 0
-2426 -2425 -2410 0
2426 -2425 2410 0
2426 2425 -2410 0
-2427 2426 2411 0
-2427 -2426 -2411 0
2427 -2426 2411 0
2427 2426 -2411 0
-2428 2427 2412 0
-2428 -2427 -2412 0
2428 -2427 2412 0
2428 2427 -2412 0
-2429 2428 2413 0
-2429 -2428 -2413 0
2429 -2428 2413 0
2429 2428 -2413 0
-2430 2429 2414 0
-2430 -2429 -2414 0
2430 -2429 2414 0
2430 2429 -2414 0
-2431 2430 2415 0
-2431 -2430 -2415 0
2431 -2430 2415 0
2431 2430 -2415 0
-2432 2431 2416 0
-2432 -2431 -2416 0
2432 -2431 2416 0
2432 2431 -2416 0
-2433 2432 2417 0
-2433 -2432 -2417 0
2433 -2432 2417 0
2433 2432 -2417 0
-2434 2433 2418 0
-2434 -2433 -2418 0
2434 -2433 2418 0
2434 2433 -2418 0
-2435 2434 2419 0
-2435 -2434 -2419 0
2435 -2434 2419 0
2435 2434 -2419 0
-2435 0
-2436 2122 0
-2436 42 0
2436 -2122 -42 0
-2437 2124 0
-2437 46 0
2437 -2124 -46 0
-2438 2126 0
-2438 47 0
2438 -2126 -47 0
-2439 2128 0
-2439 39 0
2439 -2128 -39 0
-2440 2130 0
-2440 40 0
2440 -2130 -40 0
-2441 2132 0
-2441 44 0
2441 -2132 -44 0
-2442 2134 0
-2442 90 0
2442 -2134 -90 0
-2443 2136 0
-2443 94 0
2443 -2136 -94 0
-2444 2138 0
-2444 95 0
2444 -2138 -95 0
-2445 2140 0
-2445 87 0
2445 -2140 -87 0
-2446 2142 0
-2446 88 0
2446 -2142 -88 0
-2447 2144 0
-2447 92 0
2447 -2144 -92 0
-2448 2146 0
-2448 138 0
2448 -2146 -138 0
-2449 2148 0
-2449 140 0
2449 -2148 -140 0
-2450 2150 0
-2450 135 0
2450 -2150 -135 0
-2451 2152 0
-2451 143 0
2451 -2152 -143 0
-2452 2154 0
-2452 186 0
2452 -2154 -186 0
-2453 2436 2437 0
-2453 -2436 -2437 0
2453 -2436 2437 0
2453 2436 -2437 0
-2454 2453 2438 0
-2454 -2453 -2438 0
2454 -2453 2438 0
2454 2453 -2438 0
-2455 2454 2439 0
-2455 -2454 -2439 0
2455 -2454 2439 0
2455 2454 -2439 0
-2456 2455 2440 0
-2456 -2455 -2440 0
2456 -2455 2440 0
2456 2455 -2440 0
-2457 2456 2441 0
-2457 -2456 -2441 0
2457 -2456 2441 0
2457 2456 -2441 0
-2458 2457 2442 0
-2458 -2457 -2442 0
2458 -2457 2442 0
2458 2457 -2442 0
-2459 2458 2443 0
-2459 -2458 -2443 0
2459 -2458 2443 0
2459 2458 -2443 0
-2460 2459 2444 0
-2460 -2459 -2444 0
2460 -2459 2444 0
2460 2459 -2444 0
-2461 2460 2445 0
-2461 -2460 -2445 0
2461 -2460 2445 0
2461 2460 -2445 0
-2462 2461 2446 0
-2462 -2461 -2446 0
2462 -2461 2446 0
2462 2461 -2446 0
-2463 2462 2447 0
-2463 -2462 -2447 0
2463 -2462 2447 0
2463 2462 -2447 0
-2464 2463 2448 0
-2464 -2463 -2448 0
2464 -2463 2448 0
2464 2463 -2448 0
-2465 2464 2449 0
-2465 -2464 -2449 0
2465 -2464 2449 0
2465 2464 -2449 0
-2466 2465 2450 0
-2466 -2465 -2450 0
2466 -2465 2450 0
2466 2465 -2450 0
-2467 2466 2451 0
-2467 -2466 -2451 0
2467 -2466 2451 0
2467 2466 -2451 0
-2468 2467 2452 0
-2468 -2467 -2452 0
2468 -2467 2452 0
2468 2467 -2452 0
-2468 0
-2469 2122 0
-2469 43 0
2469 -2122 -43 0
-2470 2124 0
-2470 48 0
2470 -2124 -48 0
-2471 2126 0
-2471 48 0
2471 -2126 -48 0
-2472 2128 0
-2472 43 0
2472 -2128 -43 0
-2473 2130 0
-2473 48 0
2473 -2130 -48 0
-2474 2132 0
-2474 48 0
2474 -2132 -48 0
-2475 2134 0
-2475 91 0
2475 -2134 -91 0
-2476 2136 0
-2476 96 0
2476 -2136 -96 0
-2477 2138 0
-2477 96 0
2477 -2138 -96 0
-2478 2140 0
-2478 91 0
2478 -2140 -91 0
-2479 2142 0
-2479 96 0
2479 -2142 -96 0
-2480 2144 0
-2480 96 0
2480 -2144 -96 0
-2481 2146 0
-2481 139 0
2481 -2146 -139 0
-2482 2148 0
-2482 139 0
2482 -2148 -139 0
-2483 2150 0
-2483 139 0
2483 -2150 -139 0
-2484 2152 0
-2484 139 0
2484 -2152 -139 0
-2485 2154 0
-2485 187 0
2485 -2154 -187 0
-2486 2469 2470 0
-2486 -2469 -2470 0
2486 -2469 2470 0
2486 2469 -2470 0
-2487 2486 2471 0
-2487 -2486 -2471 0
2487 -2486 2471 0
2487 2486 -2471 0
-2488 2487 2472 0
-2488 -2487 -2472 0
2488 -2487 2472 0
2488 2487 -2472 0
-2489 2488 2473 0
-2489 -2488 -2473 0
2489 -2488 2473 0
2489 2488 -2473 0
-2490 2489 2474 0
-2490 -2489 -2474 0
2490 -2489 2474 0
2490 2489 -2474 0
-2491 2490 2475 0
-2491 -2490 -2475 0
2491 -2490 2475 0
2491 2490 -2475 0
-2492 2491 2476 0
-2492 -2491 -2476 0
2492 -2491 2476 0
2492 2491 -2476 0
-2493 2492 2477 0
-2493 -2492 -2477 0
2493 -2492 2477 0
2493 2492 -2477 0
-2494 2493 2478 0
-2494 -2493 -2478 0
2494 -2493 2478 0
2494 2493 -2478 0
-2495 2494 2479 0
-2495 -2494 -2479 0
2495 -2494 2479 0
2495 2494 -2479 0
-2496 2495 2480 0
-2496 -2495 -2480 0
2496 -2495 2480 0
2496 2495 -2480 0
-2497 2496 2481 0
-2497 -2496 -2481 0
2497 -2496 2481 0
2497 2496 -2481 0
-2498 2497 2482 0
-2498 -2497 -2482 0
2498 -2497 2482 0
2498 2497 -2482 0
-2499 2498 2483 0
-2499 -2498 -2483 0
2499 -2498 2483 0
2499 2498 -2483 0
-2500 2499 2484 0
-2500 -2499 -2484 0
2500 -2499 2484 0
2500 2499 -2484 0
-2501 2500 2485 0
-2501 -2500 -2485 0
2501 -2500 2485 0
2501 2500 -2485 0
-2501 0
-2502 2122 0
-2502 44 0
2502 -2122 -44 0
-2503 2124 0
-2503 47 0
2503 -2124 -47 0
-2504 2126 0
-2504 46 0
2504 -2126 -46 0
-2505 2128 0
-2505 47 0
2505 -2128 -47 0
-2506 2130 0
-2506 44 0
2506 -2130 -44 0
-2507 2132 0
-2507 40 0
2507 -2132 -40 0
-2508 2134 0
-2508 92 0
2508 -2134 -92 0
-2509 2136 0
-2509 95 0
2509 -2136 -95 0
-2510 2138 0
-2510 94 0
2510 -2138 -94 0
-2511 2140 0
-2511 95 0
2511 -2140 -95 0
-2512 2142 0
-2512 92 0
2512 -2142 -92 0
-2513 2144 0
-2513 88 0
2513 -2144 -88 0
-2514 2146 0
-2514 140 0
2514 -2146 -140 0
-2515 2148 0
-2515 138 0
2515 -2148 -138 0
-2516 2150 0
-2516 143 0
2516 -2150 -143 0
-2517 2152 0
-2517 135 0
2517 -2152 -135 0
-2518 2154 0
-2518 188 0
2518 -2154 -188 0
-2519 2502 2503 0
-2519 -2502 -2503 0
2519 -2502 2503 0
2519 2502 -2503 0
-2520 2519 2504 0
-2520 -2519 -2504 0
2520 -2519 2504 0
2520 2519 -2504 0
-2521 2520 2505 0
-2521 -2520 -2505 0
2521 -2520 2505 0
2521 2520 -2505 0
-2522 2521 2506 0
-2522 -2521 -2506 0
2522 -2521 2506 0
2522 2521 -2506 0
-2523 2522 2507 0
-2523 -2522 -2507 0
2523 -2522 2507 0
2523 2522 -2507 0
-2524 2523 2508 0
-2524 -2523 -2508 0
2524 -2523 2508 0
2524 2523 -2508 0
-2525 2524 2509 0
-2525 -2524 -2509 0
2525 -2524 2509 0
2525 2524 -2509 0
-2526 2525 2510 0
-2526 -2525 -2510 0
2526 -2525 2510 0
2526 2525 -2510 0
-2527 2526 2511 0
-2527 -2526 -2511 0
2527 -2526 2511 0
2527 2526 -2511 0
-2528 2527 2512 0
-2528 -2527 -2512 0
2528 -2527 2512 0
2528 2527 -2512 0
-2529 2528 2513 0
-2529 -2528 -2513 0
2529 -2528 2513 0
2529 2528 -2513 0
-2530 2529 2514 0
-2530 -2529 -2514 0
2530 -2529 2514 0
2530 2529 -2514 0
-2531 2530 2515 0
-2531 -2530 -2515 0
2531 -2530 2515 0
2531 2530 -2515 0
-2532 2531 2516 0
-2532 -2531 -2516 0
2532 -2531 2516 0
2532 2531 -2516 0
-2533 2532 2517 0
-2533 -2532 -2517 0
2533 -2532 2517 0
2533 2532 -2517 0
-2534 2533 2518 0
-2534 -2533 -2518 0
2534 -2533 2518 0
2534 2533 -2518 0
-2534 0
-2535 2122 0
-2535 45 0
2535 -2122 -45 0
-2536 2124 0
-2536 41 0
2536 -2124 -41 0
-2537 2126 0
-2537 37 0
2537 -2126 -37 0
-2538 2128 0
-2538 36 0
2538 -2128 -36 0
-2539 2130 0
-2539 35 0
2539 -2130 -35 0
-2540 2132 0
-2540 34 0
2540 -2132 -34 0
-2541 2134 0
-2541 93 0
2541 -2134 -93 0
-2542 2136 0
-2542 89 0
2542 -2136 -89 0
-2543 2138 0
-2543 85 0
2543 -2138 -85 0
-2544 2140 0
-2544 84 0
2544 -2140 -84 0
-2545 2142 0
-2545 83 0
2545 -2142 -83 0
-2546 2144 0
-2546 82 0
2546 -2144 -82 0
-2547 2146 0
-2547 141 0
2547 -2146 -141 0
-2548 2148 0
-2548 133 0
2548 -2148 -133 0
-2549 2150 0
-2549 132 0
2549 -2150 -132 0
-2550 2152 0
-2550 130 0
2550 -2152 -130 0
-2551 2154 0
-2551 189 0
2551 -2154 -189 0
-2552 2535 2536 0
-2552 -2535 -2536 0
2552 -2535 2536 0
2552 2535 -2536 0
-2553 2552 2537 0
-2553 -2552 -2537 0
2553 -2552 2537 0
2553 2552 -2537 0
-2554 2553 2538 0
-2554 -2553 -2538 0
2554 -2553 2538 0
2554 2553 -2538 0
-2555 2554 2539 0
-2555 -2554 -2539 0
2555 -2554 2539 0
2555 2554 -2539 0
-2556 2555 2540 0
-2556 -2555 -2540 0
2556 -2555 2540 0
2556 2555 -2540 0
-2557 2556 2541 0
-2557 -2556 -2541 0
2557 -2556 2541 0
2557 2556 -2541 0
-2558 2557 2542 0
-2558 -2557 -2542 0
2558 -2557 2542 0
2558 2557 -2542 0
-2559 2558 2543 0
-2559 -2558 -2543 0
2559 -2558 2543 0
2559 2558 -2543 0
-2560 2559 2544 0
-2560 -2559 -2544 0
2560 -2559 2544 0
2560 2559 -2544 0
-2561 2560 2545 0
-2561 -2560 -2545 0
2561 -2560 2545 0
2561 2560 -2545 0
-2562 2561 2546 0
-2562 -2561 -2546 0
2562 -2561 2546 0
2562 2561 -2546 0
-2563 2562 2547 0
-2563 -2562 -2547 0
2563 -2562 2547 0
2563 2562 -2547 0
-2564 2563 2548 0
-2564 -2563 -2548 0
2564 -2563 2548 0
2564 2563 -2548 0
-2565 2564 2549 0
-2565 -2564 -2549 0
2565 -2564 2549 0
2565 2564 -2549 0
-2566 2565 2550 0
-2566 -2565 -2550 0
2566 -2565 2550 0
2566 2565 -2550 0
-2567 2566 2551 0
-2567 -2566 -2551 0
2567 -2566 2551 0
2567 2566 -2551 0
-2567 0
-2568 2122 0
-2568 46 0
2568 -2122 -46 0
-2569 2124 0
-2569 42 0
2569 -2124 -42 0
-2570 2126 0
-2570 39 0
2570 -2126 -39 0
-2571 2128 0
-2571 40 0
2571 -2128 -40 0
-2572 2130 0
-2572 39 0
2572 -2130 -39 0
-2573 2132 0
-2573 42 0
2573 -2132 -42 0
-2574 2134 0
-2574 94 0
2574 -2134 -94 0
-2575 2136 0
-2575 90 0
2575 -2136 -90 0
-2576 2138 0
-2576 87 0
2576 -2138 -87 0
-2577 2140 0
-2577 88 0
2577 -2140 -88 0
-2578 2142 0
-2578 87 0
2578 -2142 -87 0
-2579 2144 0
-2579 90 0
2579 -2144 -90 0
-2580 2146 0
-2580 142 0
2580 -2146 -142 0
-2581 2148 0
-2581 136 0
2581 -2148 -136 0
-2582 2150 0
-2582 136 0
2582 -2150 -136 0
-2583 2152 0
-2583 142 0
2583 -2152 -142 0
-2584 2154 0
-2584 190 0
2584 -2154 -190 0
-2585 2568 2569 0
-2585 -2568 -2569 0
2585 -2568 2569 0
2585 2568 -2569 0
-2586 2585 2570 0
-2586 -2585 -2570 0
2586 -2585 2570 0
2586 2585 -2570 0
-2587 2586 2571 0
-2587 -2586 -2571 0
2587 -2586 2571 0
2587 2586 -2571 0
-2588 2587 2572 0
-2588 -2587 -2572 0
2588 -2587 2572 0
2588 2587 -2572 0
-2589 2588 2573 0
-2589 -2588 -2573 0
2589 -2588 2573 0
2589 2588 -2573 0
-2590 2589 2574 0
-2590 -2589 -2574 0
2590 -2589 2574 0
2590 2589 -2574 0
-2591 2590 2575 0
-2591 -2590 -2575 0
2591 -2590 2575 0
2591 2590 -2575 0
-2592 2591 2576 0
-2592 -2591 -2576 0
2592 -2591 2576 0
2592 2591 -2576 0
-2593 2592 2577 0
-2593 -2592 -2577 0
2593 -2592 2577 0
2593 2592 -2577 0
-2594 2593 2578 0
-2594 -2593 -2578 0
2594 -2593 2578 0
2594 2593 -2578 0
-2595 2594 2579 0
-2595 -2594 -2579 0
2595 -2594 2579 0
2595 2594 -2579 0
-2596 2595 2580 0
-2596 -2595 -2580 0
2596 -2595 2580 0
2596 2595 -2580 0
-2597 2596 2581 0
-2597 -2596 -2581 0
2597 -2596 2581 0
2597 2596 -2581 0
-2598 2597 2582 0
-2598 -2597 -2582 0
2598 -2597 2582 0
2598 2597 -2582 0
-2599 2598 2583 0
-2599 -2598 -2583 0
2599 -2598 2583 0
2599 2598 -2583 0
-2600 2599 2584 0
-2600 -2599 -2584 0
2600 -2599 2584 0
2600 2599 -2584 0
-2600 0
-2601 2122 0
-2601 47 0
2601 -2122 -47 0
-2602 2124 0
-2602 44 0
2602 -2124 -44 0
-2603 2126 0
-2603 40 0
2603 -2126 -40 0
-2604 2128 0
-2604 44 0
2604 -2128 -44 0
-2605 2130 0
-2605 47 0
2605 -2130 -47 0
-2606 2132 0
-2606 46 0
2606 -2132 -46 0
-2607 2134 0
-2607 95 0
2607 -2134 -95 0
-2608 2136 0
-2608 92 0
2608 -2136 -92 0
-2609 2138 0
-2609 88 0
2609 -2138 -88 0
-2610 2140 0
-2610 92 0
2610 -2140 -92 0
-2611 2142 0
-2611 95 0
2611 -2142 -95 0
-2612 2144 0
-2612 94 0
2612 -2144 -94 0
-2613 2146 0
-2613 143 0
2613 -2146 -143 0
-2614 2148 0
-2614 135 0
2614 -2148 -135 0
-2615 2150 0
-2615 140 0
2615 -2150 -140 0
-2616 2152 0
-2616 138 0
2616 -2152 -138 0
-2617 2154 0
-2617 191 0
2617 -2154 -191 0
-2618 2601 2602 0
-2618 -2601 -2602 0
2618 -2601 2602 0
2618 2601 -2602 0
-2619 2618 2603 0
-2619 -2618 -2603 0
2619 -2618 2603 0
2619 2618 -2603 0
-2620 2619 2604 0
-2620 -2619 -2604 0
2620 -2619 2604 0
2620 2619 -2604 0
-2621 2620 2605 0
-2621 -2620 -2605 0
2621 -2620 2605 0
2621 2620 -2605 0
-2622 2621 2606 0
-2622 -2621 -2606 0
2622 -2621 2606 0
2622 2621 -2606 0
-2623 2622 2607 0
-2623 -2622 -2607 0
2623 -2622 2607 0
2623 2622 -2607 0
-2624 2623 2608 0
-2624 -2623 -2608 0
2624 -2623 2608 0
2624 2623 -2608 0
-2625 2624 2609 0
-2625 -2624 -2609 0
2625 -2624 2609 0
2625 2624 -2609 0
-2626 2625 2610 0
-2626 -2625 -2610 0
2626 -2625 2610 0
2626 2625 -2610 0
-2627 2626 2611 0
-2627 -2626 -2611 0
2627 -2626 2611 0
2627 2626 -2611 0
-2628 2627 2612 0
-2628 -2627 -2612 0
2628 -2627 2612 0
2628 2627 -2612 0
-2629 2628 2613 0
-2629 -2628 -2613 0
2629 -2628 2613 0
2629 2628 -2613 0
-2630 2629 2614 0
-2630 -2629 -2614 0
2630 -2629 2614 0
2630 2629 -2614 0
-2631 2630 2615 0
-2631 -2630 -2615 0
2631 -2630 2615 0
2631 2630 -2615 0
-2632 2631 2616 0
-2632 -2631 -2616 0
2632 -2631 2616 0
2632 2631 -2616 0
-2633 2632 2617 0
-2633 -2632 -2617 0
2633 -2632 2617 0
2633 2632 -2617 0
-2633 0
-2634 2122 0
-2634 48 0
2634 -2122 -48 0
-2635 2124 0
-2635 43 0
2635 -2124 -43 0
-2636 2126 0
-2636 38 0
2636 -2126 -38 0
-2637 2128 0
-2637 48 0
2637 -2128 -48 0
-2638 2130 0
-2638 43 0
2638 -2130 -43 0
-2639 2132 0
-2639 38 0
2639 -2132 -38 0
-2640 2134 0
-2640 96 0
2640 -2134 -96 0
-2641 2136 0
-2641 91 0
2641 -2136 -91 0
-2642 2138 0
-2642 86 0
2642 -2138 -86 0
-2643 2140 0
-2643 96 0
2643 -2140 -96 0
-2644 2142 0
-2644 91 0
2644 -2142 -91 0
-2645 2144 0
-2645 86 0
2645 -2144 -86 0
-2646 2146 0
-2646 144 0
2646 -2146 -144 0
-2647 2148 0
-2647 134 0
2647 -2148 -134 0
-2648 2150 0
-2648 144 0
2648 -2150 -144 0
-2649 2152 0
-2649 134 0
2649 -2152 -134 0
-2650 2154 0
-2650 192 0
2650 -2154 -192 0
-2651 2634 2635 0
-2651 -2634 -2635 0
2651 -2634 2635 0
2651 2634 -2635 0
-2652 2651 2636 0
-2652 -2651 -2636 0
2652 -2651 2636 0
2652 2651 -2636 0
-2653 2652 2637 0
-2653 -2652 -2637 0
2653 -2652 2637 0
2653 2652 -2637 0
-2654 2653 2638 0
-2654 -2653 -2638 0
2654 -2653 2638 0
2654 2653 -2638 0
-2655 2654 2639 0
-2655 -2654 -2639 0
2655 -2654 2639 0
2655 2654 -2639 0
-2656 2655 2640 0
-2656 -2655 -2640 0
2656 -2655 2640 0
2656 2655 -2640 0
-2657 2656 2641 0
-2657 -2656 -2641 0
2657 -2656 2641 0
2657 2656 -2641 0
-2658 2657 2642 0
-2658 -2657 -2642 0
2658 -2657 2642 0
2658 2657 -2642 0
-2659 2658 2643 0
-2659 -2658 -2643 0
2659 -2658 2643 0
2659 2658 -2643 0
-2660 2659 2644 0
-2660 -2659 -2644 0
2660 -2659 2644 0
2660 2659 -2644 0
-2661 2660 2645 0
-2661 -2660 -2645 0
2661 -2660 2645 0
2661 2660 -2645 0
-2662 2661 2646 0
-2662 -2661 -2646 0
2662 -2661 2646 0
2662 2661 -2646 0
-2663 2662 2647 0
-2663 -2662 -2647 0
2663 -2662 2647 0
2663 2662 -2647 0
-2664 2663 2648 0
-2664 -2663 -2648 0
2664 -2663 2648 0
2664 2663 -2648 0
-2665 2664 2649 0
-2665 -2664 -2649 0
2665 -2664 2649 0
2665 2664 -2649 0
-2666 2665 2650 0
-2666 -2665 -2650 0
2666 -2665 2650 0
2666 2665 -2650 0
-2666 0
-2667 1 0
-2667 24 0
2667 -1 -24 0
-2668 2667 0
-2668 33 0
2668 -2667 -33 0
-2669 2 0
-2669 19 0
2669 -2 -19 0
-2670 2669 0
-2670 33 0
2670 -2669 -33 0
-2671 2 0
-2671 26 0
2671 -2 -26 0
-2672 2671 0
-2672 33 0
2672 -2671 -33 0
-2673 17 0
-2673 14 0
2673 -17 -14 0
-2674 2673 0
-2674 33 0
2674 -2673 -33 0
-2675 21 0
-2675 9 0
2675 -21 -9 0
-2676 2675 0
-2676 33 0
2676 -2675 -33 0
-2677 21 0
-2677 7 0
2677 -21 -7 0
-2678 2677 0
-2678 33 0
2678 -2677 -33 0
-2679 49 0
-2679 72 0
2679 -49 -72 0
-2680 2679 0
-2680 81 0
2680 -2679 -81 0
-2681 50 0
-2681 67 0
2681 -50 -67 0
-2682 2681 0
-2682 81 0
2682 -2681 -81 0
-2683 50 0
-2683 74 0
2683 -50 -74 0
-2684 2683 0
-2684 81 0
2684 -2683 -81 0
-2685 65 0
-2685 62 0
2685 -65 -62 0
-2686 2685 0
-2686 81 0
2686 -2685 -81 0
-2687 69 0
-2687 57 0
2687 -69 -57 0
-2688 2687 0
-2688 81 0
2688 -2687 -81 0
-2689 69 0
-2689 55 0
2689 -69 -55 0
-2690 2689 0
-2690 81 0
2690 -2689 -81 0
-2691 97 0
-2691 120 0
2691 -97 -120 0
-2692 2691 0
-2692 129 0
2692 -2691 -129 0
-2693 97 0
-2693 122 0
2693 -97 -122 0
-2694 2693 0
-2694 129 0
2694 -2693 -129 0
-2695 113 0
-2695 110 0
2695 -113 -110 0
-2696 2695 0
-2696 129 0
2696 -2695 -129 0
-2697 113 0
-2697 103 0
2697 -113 -103 0
-2698 2697 0
-2698 129 0
2698 -2697 -129 0
-2699 145 0
-2699 168 0
2699 -145 -168 0
-2700 2699 0
-2700 177 0
2700 -2699 -177 0
-2701 2668 2670 0
-2701 -2668 -2670 0
2701 -2668 2670 0
2701 2668 -2670 0
-2702 2701 2672 0
-2702 -2701 -2672 0
2702 -2701 2672 0
2702 2701 -2672 0
-2703 2702 2674 0
-2703 -2702 -2674 0
2703 -2702 2674 0
2703 2702 -2674 0
-2704 2703 2676 0
-2704 -2703 -2676 0
2704 -2703 2676 0
2704 2703 -2676 0
-2705 2704 2678 0
-2705 -2704 -2678 0
2705 -2704 2678 0
2705 2704 -2678 0
-2706 2705 2680 0
-2706 -2705 -2680 0
2706 -2705 2680 0
2706 2705 -2680 0
-2707 2706 2682 0
-2707 -2706 -2682 0
2707 -2706 2682 0
2707 2706 -2682 0
-2708 2707 2684 0
-2708 -2707 -2684 0
2708 -2707 2684 0
2708 2707 -2684 0
-2709 2708 2686 0
-2709 -2708 -2686 0
2709 -2708 2686 0
2709 2708 -2686 0
-2710 2709 2688 0
-2710 -2709 -2688 0
2710 -2709 2688 0
2710 2709 -2688 0
-2711 2710 2690 0
-2711 -2710 -2690 0
2711 -2710 2690 0
2711 2710 -2690 0
-2712 2711 2692 0
-2712 -2711 -2692 0
2712 -2711 2692 0
2712 2711 -2692 0
-2713 2712 2694 0
-2713 -2712 -2694 0
2713 -2712 2694 0
2713 2712 -2694 0
-2714 2713 2696 0
-2714 -2713 -2696 0
2714 -2713 2696 0
2714 2713 -2696 0
-2715 2714 2698 0
-2715 -2714 -2698 0
2715 -2714 2698 0
2715 2714 -2698 0
-2716 2715 2700 0
-2716 -2715 -2700 0
2716 -2715 2700 0
2716 2715 -2700 0
-2716 0
-2717 2667 0
-2717 34 0
2717 -2667 -34 0
-2718 2669 0
-2718 34 0
2718 -2669 -34 0
-2719 2671 0
-2719 35 0
2719 -2671 -35 0
-2720 2673 0
-2720 37 0
2720 -2673 -37 0
-2721 2675 0
-2721 37 0
2721 -2675 -37 0
-2722 2677 0
-2722 41 0
2722 -2677 -41 0
-2723 2679 0
-2723 82 0
2723 -2679 -82 0
-2724 2681 0
-2724 82 0
2724 -2681 -82 0
-2725 2683 0
-2725 83 0
2725 -2683 -83 0
-2726 2685 0
-2726 85 0
2726 -2685 -85 0
-2727 2687 0
-2727 85 0
2727 -2687 -85 0
-2728 2689 0
-2728 89 0
2728 -2689 -89 0
-2729 2691 0
-2729 130 0
2729 -2691 -130 0
-2730 2693 0
-2730 132 0
2730 -2693 -132 0
-2731 2695 0
-2731 133 0
2731 -2695 -133 0
-2732 2697 0
-2732 141 0
2732 -2697 -141 0
-2733 2699 0
-2733 178 0
2733 -2699 -178 0
-2734 2717 2718 0
-2734 -2717 -2718 0
2734 -2717 2718 0
2734 2717 -2718 0
-2735 2734 2719 0
-2735 -2734 -2719 0
2735 -2734 2719 0
2735 2734 -2719 0
-2736 2735 2720 0
-2736 -2735 -2720 0
2736 -2735 2720 0
2736 2735 -2720 0
-2737 2736 2721 0
-2737 -2736 -2721 0
2737 -2736 2721 0
2737 2736 -2721 0
-2738 2737 2722 0
-2738 -2737 -2722 0
2738 -2737 2722 0
2738 2737 -2722 0
-2739 2738 2723 0
-2739 -2738 -2723 0
2739 -2738 2723 0
2739 2738 -2723 0
-2740 2739 2724 0
-2740 -2739 -2724 0
2740 -2739 2724 0
2740 2739 -2724 0
-2741 2740 2725 0
-2741 -2740 -2725 0
2741 -2740 2725 0
2741 2740 -2725 0
-2742 2741 2726 0
-2742 -2741 -2726 0
2742 -2741 2726 0
2742 2741 -2726 0
-2743 2742 2727 0
-2743 -2742 -2727 0
2743 -2742 2727 0
2743 2742 -2727 0
-2744 2743 2728 0
-2744 -2743 -2728 0
2744 -2743 2728 0
2744 2743 -2728 0
-2745 2744 2729 0
-2745 -2744 -2729 0
2745 -2744 2729 0
2745 2744 -2729 0
-2746 2745 2730 0
-2746 -2745 -2730 0
2746 -2745 2730 0
2746 2745 -2730 0
-2747 2746 2731 0
-2747 -2746 -2731 0
2747 -2746 2731 0
2747 2746 -2731 0
-2748 2747 2732 0
-2748 -2747 -2732 0
2748 -2747 2732 0
2748 2747 -2732 0
-2749 2748 2733 0
-2749 -2748 -2733 0
2749 -2748 2733 0
2749 2748 -2733 0
-2749 0
-2750 2667 0
-2750 35 0
2750 -2667 -35 0
-2751 2669 0
-2751 36 0
2751 -2669 -36 0
-2752 2671 0
-2752 36 0
2752 -2671 -36 0
-2753 2673 0
-2753 41 0
2753 -2673 -41 0
-2754 2675 0
-2754 45 0
2754 -2675 -45 0
-2755 2677 0
-2755 45 0
2755 -2677 -45 0
-2756 2679 0
-2756 83 0
2756 -2679 -83 0
-2757 2681 0
-2757 84 0
2757 -2681 -84 0
-2758 2683 0
-2758 84 0
2758 -2683 -84 0
-2759 2685 0
-2759 89 0
2759 -2685 -89 0
-2760 2687 0
-2760 93 0
2760 -2687 -93 0
-2761 2689 0
-2761 93 0
2761 -2689 -93 0
-2762 2691 0
-2762 131 0
2762 -2691 -131 0
-2763 2693 0
-2763 131 0
2763 -2693 -131 0
-2764 2695 0
-2764 137 0
2764 -2695 -137 0
-2765 2697 0
-2765 137 0
2765 -2697 -137 0
-2766 2699 0
-2766 179 0
2766 -2699 -179 0
-2767 2750 2751 0
-2767 -2750 -2751 0
2767 -2750 2751 0
2767 2750 -2751 0
-2768 2767 2752 0
-2768 -2767 -2752 0
2768 -2767 2752 0
2768 2767 -2752 0
-2769 2768 2753 0
-2769 -2768 -2753 0
2769 -2768 2753 0
2769 2768 -2753 0
-2770 2769 2754 0
-2770 -2769 -2754 0
2770 -2769 2754 0
2770 2769 -2754 0
-2771 2770 2755 0
-2771 -2770 -2755 0
2771 -2770 2755 0
2771 2770 -2755 0
-2772 2771 2756 0
-2772 -2771 -2756 0
2772 -2771 2756 0
2772 2771 -2756 0
-2773 2772 2757 0
-2773 -2772 -2757 0
2773 -2772 2757 0
2773 2772 -2757 0
-2774 2773 2758 0
-2774 -2773 -2758 0
2774 -2773 2758 0
2774 2773 -2758 0
-2775 2774 2759 0
-2775 -2774 -2759 0
2775 -2774 2759 0
2775 2774 -2759 0
-2776 2775 2760 0
-2776 -2775 -2760 0
2776 -2775 2760 0
2776 2775 -2760 0
-2777 2776 2761 0
-2777 -2776 -2761 0
2777 -2776 2761 0
2777 2776 -2761 0
-2778 2777 2762 0
-2778 -2777 -2762 0
2778 -2777 2762 0
2778 2777 -2762 0
-2779 2778 2763 0
-2779 -2778 -2763 0
2779 -2778 2763 0
2779 2778 -2763 0
-2780 2779 2764 0
-2780 -2779 -2764 0
2780 -2779 2764 0
2780 2779 -2764 0
-2781 2780 2765 0
-2781 -2780 -2765 0
2781 -2780 2765 0
2781 2780 -2765 0
-2782 2781 2766 0
-2782 -2781 -2766 0
2782 -2781 2766 0
2782 2781 -2766 0
-2782 0
-2783 2667 0
-2783 36 0
2783 -2667 -36 0
-2784 2669 0
-2784 35 0
2784 -2669 -35 0
-2785 2671 0
-2785 34 0
2785 -2671 -34 0
-2786 2673 0
-2786 45 0
2786 -2673 -45 0
-2787 2675 0
-2787 41 0
2787 -2675 -41 0
-2788 2677 0
-2788 37 0
2788 -2677 -37 0
-2789 2679 0
-2789 84 0
2789 -2679 -84 0
-2790 2681 0
-2790 83 0
2790 -2681 -83 0
-2791 2683 0
-2791 82 0
2791 -2683 -82 0
-2792 2685 0
-2792 93 0
2792 -2685 -93 0
-2793 2687 0
-2793 89 0
2793 -2687 -89 0
-2794 2689 0
-2794 85 0
2794 -2689 -85 0
-2795 2691 0
-2795 132 0
2795 -2691 -132 0
-2796 2693 0
-2796 130 0
2796 -2693 -130 0
-2797 2695 0
-2797 141 0
2797 -2695 -141 0
-2798 2697 0
-2798 133 0
2798 -2697 -133 0
-2799 2699 0
-2799 180 0
2799 -2699 -180 0
-2800 2783 2784 0
-2800 -2783 -2784 0
2800 -2783 2784 0
2800 2783 -2784 0
-2801 2800 2785 0
-2801 -2800 -2785 0
2801 -2800 2785 0
2801 2800 -2785 0
-2802 2801 2786 0
-2802 -2801 -2786 0
2802 -2801 2786 0
2802 2801 -2786 0
-2803 2802 2787 0
-2803 -2802 -2787 0
2803 -2802 2787 0
2803 2802 -2787 0
-2804 2803 2788 0
-2804 -2803 -2788 0
2804 -2803 2788 0
2804 2803 -2788 0
-2805 2804 2789 0
-2805 -2804 -2789 0
2805 -2804 2789 0
2805 2804 -2789 0
-2806 2805 2790 0
-2806 -2805 -2790 0
2806 -2805 2790 0
2806 2805 -2790 0
-2807 2806 2791 0
-2807 -2806 -2791 0
2807 -2806 2791 0
2807 2806 -2791 0
-2808 2807 2792 0
-2808 -2807 -2792 0
2808 -2807 2792 0
2808 2807 -2792 0
-2809 2808 2793 0
-2809 -2808 -2793 0
2809 -2808 2793 0
2809 2808 -2793 0
-2810 2809 2794 0
-2810 -2809 -2794 0
2810 -2809 2794 0
2810 2809 -2794 0
-2811 2810 2795 0
-2811 -2810 -2795 0
2811 -2810 2795 0
2811 2810 -2795 0
-2812 2811 2796 0
-2812 -2811 -2796 0
2812 -2811 2796 0
2812 2811 -2796 0
-2813 2812 2797 0
-2813 -2812 -2797 0
2813 -2812 2797 0
2813 2812 -2797 0
-2814 2813 2798 0
-2814 -2813 -2798 0
2814 -2813 2798 0
2814 2813 -2798 0
-2815 2814 2799 0
-2815 -2814 -2799 0
2815 -2814 2799 0
2815 2814 -2799 0
-2815 0
-2816 2667 0
-2816 37 0
2816 -2667 -37 0
-2817 2669 0
-2817 37 0
2817 -2669 -37 0
-2818 2671 0
-2818 41 0
2818 -2671 -41 0
-2819 2673 0
-2819 34 0
2819 -2673 -34 0
-2820 2675 0
-2820 34 0
2820 -2675 -34 0
-2821 2677 0
-2821 35 0
2821 -2677 -35 0
-2822 2679 0
-2822 85 0
2822 -2679 -85 0
-2823 2681 0
-2823 85 0
2823 -2681 -85 0
-2824 2683 0
-2824 89 0
2824 -2683 -89 0
-2825 2685 0
-2825 82 0
2825 -2685 -82 0
-2826 2687 0
-2826 82 0
2826 -2687 -82 0
-2827 2689 0
-2827 83 0
2827 -2689 -83 0
-2828 2691 0
-2828 133 0
2828 -2691 -133 0
-2829 2693 0
-2829 141 0
2829 -2693 -141 0
-2830 2695 0
-2830 130 0
2830 -2695 -130 0
-2831 2697 0
-2831 132 0
2831 -2697 -132 0
-2832 2699 0
-2832 181 0
2832 -2699 -181 0
-2833 2816 2817 0
-2833 -2816 -2817 0
2833 -2816 2817 0
2833 2816 -2817 0
-2834 2833 2818 0
-2834 -2833 -2818 0
2834 -2833 2818 0
2834 2833 -2818 0
-2835 2834 2819 0
-2835 -2834 -2819 0
2835 -2834 2819 0
2835 2834 -2819 0
-2836 2835 2820 0
-2836 -2835 -2820 0
2836 -2835 2820 0
2836 2835 -2820 0
-2837 2836 2821 0
-2837 -2836 -2821 0
2837 -2836 2821 0
2837 2836 -2821 0
-2838 2837 2822 0
-2838 -2837 -2822 0
2838 -2837 2822 0
2838 2837 -2822 0
-2839 2838 2823 0
-2839 -2838 -2823 0
2839 -2838 2823 0
2839 2838 -2823 0
-2840 2839 2824 0
-2840 -2839 -2824 0
2840 -2839 2824 0
2840 2839 -2824 0
-2841 2840 2825 0
-2841 -2840 -2825 0
2841 -2840 2825 0
2841 2840 -2825 0
-2842 2841 2826 0
-2842 -2841 -2826 0
2842 -2841 2826 0
2842 2841 -2826 0
-2843 2842 2827 0
-2843 -2842 -2827 0
2843 -2842 2827 0
2843 2842 -2827 0
-2844 2843 2828 0
-2844 -2843 -2828 0
2844 -2843 2828 0
2844 2843 -2828 0
-2845 2844 2829 0
-2845 -2844 -2829 0
2845 -2844 2829 0
2845 2844 -2829 0
-2846 2845 2830 0
-2846 -2845 -2830 0
2846 -2845 2830 0
2846 2845 -2830 0
-2847 2846 2831 0
-2847 -2846 -2831 0
2847 -2846 2831 0
2847 2846 -2831 0
-2848 2847 2832 0
-2848 -2847 -2832 0
2848 -2847 2832 0
2848 2847 -2832 0
-2848 0
-2849 2667 0
-2849 38 0
2849 -2667 -38 0
-2850 2669 0
-2850 38 0
2850 -2669 -38 0
-2851 2671 0
-2851 43 0
2851 -2671 -43 0
-2852 2673 0
-2852 38 0
2852 -2673 -38 0
-2853 2675 0
-2853 38 0
2853 -2675 -38 0
-2854 2677 0
-2854 43 0
2854 -2677 -43 0
-2855 2679 0
-2855 86 0
2855 -2679 -86 0
-2856 2681 0
-2856 86 0
2856 -2681 -86 0
-2857 2683 0
-2857 91 0
2857 -2683 -91 0
-2858 2685 0
-2858 86 0
2858 -2685 -86 0
-2859 2687 0
-2859 86 0
2859 -2687 -86 0
-2860 2689 0
-2860 91 0
2860 -2689 -91 0
-2861 2691 0
-2861 134 0
2861 -2691 -134 0
-2862 2693 0
-2862 144 0
2862 -2693 -144 0
-2863 2695 0
-2863 134 0
2863 -2695 -134 0
-2864 2697 0
-2864 144 0
2864 -2697 -144 0
-2865 2699 0
-2865 182 0
2865 -2699 -182 0
-2866 2849 2850 0
-2866 -2849 -2850 0
2866 -2849 2850 0
2866 2849 -2850 0
-2867 2866 2851 0
-2867 -2866 -2851 0
2867 -2866 2851 0
2867 2866 -2851 0
-2868 2867 2852 0
-2868 -2867 -2852 0
2868 -2867 2852 0
2868 2867 -2852 0
-2869 2868 2853 0
-2869 -2868 -2853 0
2869 -2868 2853 0
2869 2868 -2853 0
-2870 2869 2854 0
-2870 -2869 -2854 0
2870 -2869 2854 0
2870 2869 -2854 0
-2871 2870 2855 0
-2871 -2870 -2855 0
2871 -2870 2855 0
2871 2870 -2855 0
-2872 2871 2856 0
-2872 -2871 -2856 0
2872 -2871 2856 0
2872 2871 -2856 0
-2873 2872 2857 0
-2873 -2872 -2857 0
2873 -2872 2857 0
2873 2872 -2857 0
-2874 2873 2858 0
-2874 -2873 -2858 0
2874 -2873 2858 0
2874 2873 -2858 0
-2875 2874 2859 0
-2875 -2874 -2859 0
2875 -2874 2859 0
2875 2874 -2859 0
-2876 2875 2860 0
-2876 -2875 -2860 0
2876 -2875 2860 0
2876 2875 -2860 0
-2877 2876 2861 0
-2877 -2876 -2861 0
2877 -2876 2861 0
2877 2876 -2861 0
-2878 2877 2862 0
-2878 -2877 -2862 0
2878 -2877 2862 0
2878 2877 -2862 0
-2879 2878 2863 0
-2879 -2878 -2863 0
2879 -2878 2863 0
2879 2878 -2863 0
-2880 2879 2864 0
-2880 -2879 -2864 0
2880 -2879 2864 0
2880 2879 -2864 0
-2881 2880 2865 0
-2881 -2880 -2865 0
2881 -2880 2865 0
2881 2880 -2865 0
-2881 0
-2882 2667 0
-2882 39 0
2882 -2667 -39 0
-2883 2669 0
-2883 40 0
2883 -2669 -40 0
-2884 2671 0
-2884 44 0
2884 -2671 -44 0
-2885 2673 0
-2885 42 0
2885 -2673 -42 0
-2886 2675 0
-2886 46 0
2886 -2675 -46 0
-2887 2677 0
-2887 47 0
2887 -2677 -47 0
-2888 2679 0
-2888 87 0
2888 -2679 -87 0
-2889 2681 0
-2889 88 0
2889 -2681 -88 0
-2890 2683 0
-2890 92 0
2890 -2683 -92 0
-2891 2685 0
-2891 90 0
2891 -2685 -90 0
-2892 2687 0
-2892 94 0
2892 -2687 -94 0
-2893 2689 0
-2893 95 0
2893 -2689 -95 0
-2894 2691 0
-2894 135 0
2894 -2691 -135 0
-2895 2693 0
-2895 143 0
2895 -2693 -143 0
-2896 2695 0
-2896 138 0
2896 -2695 -138 0
-2897 2697 0
-2897 140 0
2897 -2697 -140 0
-2898 2699 0
-2898 183 0
2898 -2699 -183 0
-2899 2882 2883 0
-2899 -2882 -2883 0
2899 -2882 2883 0
2899 2882 -2883 0
-2900 2899 2884 0
-2900 -2899 -2884 0
2900 -2899 2884 0
2900 2899 -2884 0
-2901 2900 2885 0
-2901 -2900 -2885 0
2901 -2900 2885 0
2901 2900 -2885 0
-2902 2901 2886 0
-2902 -2901 -2886 0
2902 -2901 2886 0
2902 2901 -2886 0
-2903 2902 2887 0
-2903 -2902 -2887 0
2903 -2902 2887 0
2903 2902 -2887 0
-2904 2903 2888 0
-2904 -2903 -2888 0
2904 -2903 2888 0
2904 2903 -2888 0
-2905 2904 2889 0
-2905 -2904 -2889 0
2905 -2904 2889 0
2905 2904 -2889 0
-2906 2905 2890 0
-2906 -2905 -2890 0
2906 -2905 2890 0
2906 2905 -2890 0
-2907 2906 2891 0
-2907 -2906 -2891 0
2907 -2906 2891 0
2907 2906 -2891 0
-2908 2907 2892 0
-2908 -2907 -2892 0
2908 -2907 2892 0
2908 2907 -2892 0
-2909 2908 2893 0
-2909 -2908 -2893 0
2909 -2908 2893 0
2909 2908 -2893 0
-2910 2909 2894 0
-2910 -2909 -2894 0
2910 -2909 2894 0
2910 2909 -2894 0
-2911 2910 2895 0
-2911 -2910 -2895 0
2911 -2910 2895 0
2911 2910 -2895 0
-2912 2911 2896 0
-2912 -2911 -2896 0
2912 -2911 2896 0
2912 2911 -2896 0
-2913 2912 2897 0
-2913 -2912 -2897 0
2913 -2912 2897 0
2913 2912 -2897 0
-2914 2913 2898 0
-2914 -2913 -2898 0
2914 -2913 2898 0
2914 2913 -2898 0
-2914 0
-2915 2667 0
-2915 40 0
2915 -2667 -40 0
-2916 2669 0
-2916 39 0
2916 -2669 -39 0
-2917 2671 0
-2917 42 0
2917 -2671 -42 0
-2918 2673 0
-2918 46 0
2918 -2673 -46 0
-2919 2675 0
-2919 42 0
2919 -2675 -42 0
-2920 2677 0
-2920 39 0
2920 -2677 -39 0
-2921 2679 0
-2921 88 0
2921 -2679 -88 0
-2922 2681 0
-2922 87 0
2922 -2681 -87 0
-2923 2683 0
-2923 90 0
2923 -2683 -90 0
-2924 2685 0
-2924 94 0
2924 -2685 -94 0
-2925 2687 0
-2925 90 0
2925 -2687 -90 0
-2926 2689 0
-2926 87 0
2926 -2689 -87 0
-2927 2691 0
-2927 136 0
2927 -2691 -136 0
-2928 2693 0
-2928 142 0
2928 -2693 -142 0
-2929 2695 0
-2929 142 0
2929 -2695 -142 0
-2930 2697 0
-2930 136 0
2930 -2697 -136 0
-2931 2699 0
-2931 184 0
2931 -2699 -184 0
-2932 2915 2916 0
-2932 -2915 -2916 0
2932 -2915 2916 0
2932 2915 -2916 0
-2933 2932 2917 0
-2933 -2932 -2917 0
2933 -2932 2917 0
2933 2932 -2917 0
-2934 2933 2918 0
-2934 -2933 -2918 0
2934 -2933 2918 0
2934 2933 -2918 0
-2935 2934 2919 0
-2935 -2934 -2919 0
2935 -2934 2919 0
2935 2934 -2919 0
-2936 2935 2920 0
-2936 -2935 -2920 0
2936 -2935 2920 0
2936 2935 -2920 0
-2937 2936 2921 0
-2937 -2936 -2921 0
2937 -2936 2921 0
2937 2936 -2921 0
-2938 2937 2922 0
-2938 -2937 -2922 0
2938 -2937 2922 0
2938 2937 -2922 0
-2939 2938 2923 0
-2939 -2938 -2923 0
2939 -2938 2923 0
2939 2938 -2923 0
-2940 2939 2924 0
-2940 -2939 -2924 0
2940 -2939 2924 0
2940 2939 -2924 0
-2941 2940 2925 0
-2941 -2940 -2925 0
2941 -2940 2925 0
2941 2940 -2925 0
-2942 2941 2926 0
-2942 -2941 -2926 0
2942 -2941 2926 0
2942 2941 -2926 0
-2943 2942 2927 0
-2943 -2942 -2927 0
2943 -2942 2927 0
2943 2942 -2927 0
-2944 2943 2928 0
-2944 -2943 -2928 0
2944 -2943 2928 0
2944 2943 -2928 0
-2945 2944 2929 0
-2945 -2944 -2929 0
2945 -2944 2929 0
2945 2944 -2929 0
-2946 2945 2930 0
-2946 -2945 -2930 0
2946 -2945 2930 0
2946 2945 -2930 0
-2947 2946 2931 0
-2947 -2946 -2931 0
2947 -2946 2931 0
2947 2946 -2931 0
-2947 0
-2948 2667 0
-2948 41 0
2948 -2667 -41 0
-2949 2669 0
-2949 45 0
2949 -2669 -45 0
-2950 2671 0
-2950 45 0
2950 -2671 -45 0
-2951 2673 0
-2951 35 0
2951 -2673 -35 0
-2952 2675 0
-2952 36 0
2952 -2675 -36 0
-2953 2677 0
-2953 36 0
2953 -2677 -36 0
-2954 2679 0
-2954 89 0
2954 -2679 -89 0
-2955 2681 0
-2955 93 0
2955 -2681 -93 0
-2956 2683 0
-2956 93 0
2956 -2683 -93 0
-2957 2685 0
-2957 83 0
2957 -2685 -83 0
-2958 2687 0
-2958 84 0
2958 -2687 -84 0
-2959 2689 0
-2959 84 0
2959 -2689 -84 0
-2960 2691 0
-2960 137 0
2960 -2691 -137 0
-2961 2693 0
-2961 137 0
2961 -2693 -137 0
-2962 2695 0
-2962 131 0
2962 -2695 -131 0
-2963 2697 0
-2963 131 0
2963 -2697 -131 0
-2964 2699 0
-2964 185 0
2964 -2699 -185 0
-2965 2948 2949 0
-2965 -2948 -2949 0
2965 -2948 2949 0
2965 2948 -2949 0
-2966 2965 2950 0
-2966 -2965 -2950 0
2966 -2965 2950 0
2966 2965 -2950 0
-2967 2966 2951 0
-2967 -2966 -2951 0
2967 -2966 2951 0
2967 2966 -2951 0
-2968 2967 2952 0
-2968 -2967 -2952 0
2968 -2967 2952 0
2968 2967 -2952 0
-2969 2968 2953 0
-2969 -2968 -2953 0
2969 -2968 2953 0
2969 2968 -2953 0
-2970 2969 2954 0
-2970 -2969 -2954 0
2970 -2969 2954 0
2970 2969 -2954 0
-2971 2970 2955 0
-2971 -2970 -2955 0
2971 -2970 2955 0
2971 2970 -2955 0
-2972 2971 2956 0
-2972 -2971 -2956 0
2972 -2971 2956 0
2972 2971 -2956 0
-2973 2972 2957 0
-2973 -2972 -2957 0
2973 -2972 2957 0
2973 2972 -2957 0
-2974 2973 2958 0
-2974 -2973 -2958 0
2974 -2973 2958 0
2974 2973 -2958 0
-2975 2974 2959 0
-2975 -2974 -2959 0
2975 -2974 2959 0
2975 2974 -2959 0
-2976 2975 2960 0
-2976 -2975 -2960 0
2976 -2975 2960 0
2976 2975 -2960 0
-2977 2976 2961 0
-2977 -2976 -2961 0
2977 -2976 2961 0
2977 2976 -2961 0
-2978 2977 2962 0
-2978 -2977 -2962 0
2978 -2977 2962 0
2978 2977 -2962 0
-2979 2978 2963 0
-2979 -2978 -2963 0
2979 -2978 2963 0
2979 2978 -2963 0
-2980 2979 2964 0
-2980 -2979 -2964 0
2980 -2979 2964 0
2980 2979 -2964 0
-2980 0
-2981 2667 0
-2981 42 0
2981 -2667 -42 0
-2982 2669 0
-2982 46 0
2982 -2669 -46 0
-2983 2671 0
-2983 47 0
2983 -2671 -47 0
-2984 2673 0
-2984 39 0
2984 -2673 -39 0
-2985 2675 0
-2985 40 0
2985 -2675 -40 0
-2986 2677 0
-2986 44 0
2986 -2677 -44 0
-2987 2679 0
-2987 90 0
2987 -2679 -90 0
-2988 2681 0
-2988 94 0
2988 -2681 -94 0
-2989 2683 0
-2989 95 0
2989 -2683 -95 0
-2990 2685 0
-2990 87 0
2990 -2685 -87 0
-2991 2687 0
-2991 88 0
2991 -2687 -88 0
-2992 2689 0
-2992 92 0
2992 -2689 -92 0
-2993 2691 0
-2993 138 0
2993 -2691 -138 0
-2994 2693 0
-2994 140 0
2994 -2693 -140 0
-2995 2695 0
-2995 135 0
2995 -2695 -135 0
-2996 2697 0
-2996 143 0
2996 -2697 -143 0
-2997 2699 0
-2997 186 0
2997 -2699 -186 0
-2998 2981 2982 0
-2998 -2981 -2982 0
2998 -2981 2982 0
2998 2981 -2982 0
-2999 2998 2983 0
-2999 -2998 -2983 0
2999 -2998 2983 0
2999 2998 -2983 0
-3000 2999 2984 0
-3000 -2999 -2984 0
3000 -2999 2984 0
3000 2999 -2984 0
-3001 3000 2985 0
-3001 -3000 -2985 0
3001 -3000 2985 0
3001 3000 -2985 0
-3002 3001 2986 0
-3002 -3001 -2986 0
3002 -3001 2986 0
3002 3001 -2986 0
-3003 3002 2987 0
-3003 -3002 -2987 0
3003 -3002 2987 0
3003 3002 -2987 0
-3004 3003 2988 0
-3004 -3003 -2988 0
3004 -3003 2988 0
3004 3003 -2988 0
-3005 3004 2989 0
-3005 -3004 -2989 0
3005 -3004 2989 0
3005 3004 -2989 0
-3006 3005 2990 0
-3006 -3005 -2990 0
3006 -3005 2990 0
3006 3005 -2990 0
-3007 3006 2991 0
-3007 -3006 -2991 0
3007 -3006 2991 0
3007 3006 -2991 0
-3008 3007 2992 0
-3008 -3007 -2992 0
3008 -3007 2992 0
3008 3007 -2992 0
-3009 3008 2993 0
-3009 -3008 -2993 0
3009 -3008 2993 0
3009 3008 -2993 0
-3010 3009 2994 0
-3010 -3009 -2994 0
3010 -3009 2994 0
3010 3009 -2994 0
-3011 3010 2995 0
-3011 -3010 -2995 0
3011 -3010 2995 0
3011 3010 -2995 0
-3012 3011 2996 0
-3012 -3011 -2996 0
3012 -3011 2996 0
3012 3011 -2996 0
-3013 3012 2997 0
-3013 -3012 -2997 0
3013 -3012 2997 0
3013 3012 -2997 0
-3013 0
-3014 2667 0
-3014 43 0
3014 -2667 -43 0
-3015 2669 0
-3015 48 0
3015 -2669 -48 0
-3016 2671 0
-3016 48 0
3016 -2671 -48 0
-3017 2673 0
-3017 43 0
3017 -2673 -43 0
-3018 2675 0
-3018 48 0
3018 -2675 -48 0
-3019 2677 0
-3019 48 0
3019 -2677 -48 0
-3020 2679 0
-3020 91 0
3020 -2679 -91 0
-3021 2681 0
-3021 96 0
3021 -2681 -96 0
-3022 2683 0
-3022 96 0
3022 -2683 -96 0
-3023 2685 0
-3023 91 0
3023 -2685 -91 0
-3024 2687 0
-3024 96 0
3024 -2687 -96 0
-3025 2689 0
-3025 96 0
3025 -2689 -96 0
-3026 2691 0
-3026 139 0
3026 -2691 -139 0
-3027 2693 0
-3027 139 0
3027 -2693 -139 0
-3028 2695 0
-3028 139 0
3028 -2695 -139 0
-3029 2697 0
-3029 139 0
3029 -2697 -139 0
-3030 2699 0
-3030 187 0
3030 -2699 -187 0
-3031 3014 3015 0
-3031 -3014 -3015 0
3031 -3014 3015 0
3031 3014 -3015 0
-3032 3031 3016 0
-3032 -3031 -3016 0
3032 -3031 3016 0
3032 3031 -3016 0
-3033 3032 3017 0
-3033 -3032 -3017 0
3033 -3032 3017 0
3033 3032 -3017 0
-3034 3033 3018 0
-3034 -3033 -3018 0
3034 -3033 3018 0
3034 3033 -3018 0
-3035 3034 3019 0
-3035 -3034 -3019 0
3035 -3034 3019 0
3035 3034 -3019 0
-3036 3035 3020 0
-3036 -3035 -3020 0
3036 -3035 3020 0
3036 3035 -3020 0
-3037 3036 3021 0
-3037 -3036 -3021 0
3037 -3036 3021 0
3037 3036 -3021 0
-3038 3037 3022 0
-3038 -3037 -3022 0
3038 -3037 3022 0
3038 3037 -3022 0
-3039 3038 3023 0
-3039 -3038 -3023 0
3039 -3038 3023 0
3039 3038 -3023 0
-3040 3039 3024 0
-3040 -3039 -3024 0
3040 -3039 3024 0
3040 3039 -3024 0
-3041 3040 3025 0
-3041 -3040 -3025 0
3041 -3040 3025 0
3041 3040 -3025 0
-3042 3041 3026 0
-3042 -3041 -3026 0
3042 -3041 3026 0
3042 3041 -3026 0
-3043 3042 3027 0
-3043 -3042 -3027 0
3043 -3042 3027 0
3043 3042 -3027 0
-3044 3043 3028 0
-3044 -3043 -3028 0
3044 -3043 3028 0
3044 3043 -3028 0
-3045 3044 3029 0
-3045 -3044 -3029 0
3045 -3044 3029 0
3045 3044 -3029 0
-3046 3045 3030 0
-3046 -3045 -3030 0
3046 -3045 3030 0
3046 3045 -3030 0
-3046 0
-3047 2667 0
-3047 44 0
3047 -2667 -44 0
-3048 2669 0
-3048 47 0
3048 -2669 -47 0
-3049 2671 0
-3049 46 0
3049 -2671 -46 0
-3050 2673 0
-3050 47 0
3050 -2673 -47 0
-3051 2675 0
-3051 44 0
3051 -2675 -44 0
-3052 2677 0
-3052 40 0
3052 -2677 -40 0
-3053 2679 0
-3053 92 0
3053 -2679 -92 0
-3054 2681 0
-3054 95 0
3054 -2681 -95 0
-3055 2683 0
-3055 94 0
3055 -2683 -94 0
-3056 2685 0
-3056 95 0
3056 -2685 -95 0
-3057 2687 0
-3057 92 0
3057 -2687 -92 0
-3058 2689 0
-3058 88 0
3058 -2689 -88 0
-3059 2691 0
-3059 140 0
3059 -2691 -140 0
-3060 2693 0
-3060 138 0
3060 -2693 -138 0
-3061 2695 0
-3061 143 0
3061 -2695 -143 0
-3062 2697 0
-3062 135 0
3062 -2697 -135 0
-3063 2699 0
-3063 188 0
3063 -2699 -188 0
-3064 3047 3048 0
-3064 -3047 -3048 0
3064 -3047 3048 0
3064 3047 -3048 0
-3065 3064 3049 0
-3065 -3064 -3049 0
3065 -3064 3049 0
3065 3064 -3049 0
-3066 3065 3050 0
-3066 -3065 -3050 0
3066 -3065 3050 0
3066 3065 -3050 0
-3067 3066 3051 0
-3067 -3066 -3051 0
3067 -3066 3051 0
3067 3066 -3051 0
-3068 3067 3052 0
-3068 -3067 -3052 0
3068 -3067 3052 0
3068 3067 -3052 0
-3069 3068 3053 0
-3069 -3068 -3053 0
3069 -3068 3053 0
3069 3068 -3053 0
-3070 3069 3054 0
-3070 -3069 -3054 0
3070 -3069 3054 0
3070 3069 -3054 0
-3071 3070 3055 0
-3071 -3070 -3055 0
3071 -3070 3055 0
3071 3070 -3055 0
-3072 3071 3056 0
-3072 -3071 -3056 0
3072 -3071 3056 0
3072 3071 -3056 0
-3073 3072 3057 0
-3073 -3072 -3057 0
3073 -3072 3057 0
3073 3072 -3057 0
-3074 3073 3058 0
-3074 -3073 -3058 0
3074 -3073 3058 0
3074 3073 -3058 0
-3075 3074 3059 0
-3075 -3074 -3059 0
3075 -3074 3059 0
3075 3074 -3059 0
-3076 3075 3060 0
-3076 -3075 -3060 0
3076 -3075 3060 0
3076 3075 -3060 0
-3077 3076 3061 0
-3077 -3076 -3061 0
3077 -3076 3061 0
3077 3076 -3061 0
-3078 3077 3062 0
-3078 -3077 -3062 0
3078 -3077 3062 0
3078 3077 -3062 0
-3079 3078 3063 0
-3079 -3078 -3063 0
3079 -3078 3063 0
3079 3078 -3063 0
-3079 0
-3080 2667 0
-3080 45 0
3080 -2667 -45 0
-3081 2669 0
-3081 41 0
3081 -2669 -41 0
-3082 2671 0
-3082 37 0
3082 -2671 -37 0
-3083 2673 0
-3083 36 0
3083 -2673 -36 0
-3084 2675 0
-3084 35 0
3084 -2675 -35 0
-3085 2677 0
-3085 34 0
3085 -2677 -34 0
-3086 2679 0
-3086 93 0
3086 -2679 -93 0
-3087 2681 0
-3087 89 0
3087 -2681 -89 0
-3088 2683 0
-3088 85 0
3088 -2683 -85 0
-3089 2685 0
-3089 84 0
3089 -2685 -84 0
-3090 2687 0
-3090 83 0
3090 -2687 -83 0
-3091 2689 0
-3091 82 0
3091 -2689 -82 0
-3092 2691 0
-3092 141 0
3092 -2691 -141 0
-3093 2693 0
-3093 133 0
3093 -2693 -133 0
-3094 2695 0
-3094 132 0
3094 -2695 -132 0
-3095 2697 0
-3095 130 0
3095 -2697 -130 0
-3096 2699 0
-3096 189 0
3096 -2699 -189 0
-3097 3080 3081 0
-3097 -3080 -3081 0
3097 -3080 3081 0
3097 3080 -3081 0
-3098 3097 3082 0
-3098 -3097 -3082 0
3098 -3097 3082 0
3098 3097 -3082 0
-3099 3098 3083 0
-3099 -3098 -3083 0
3099 -3098 3083 0
3099 3098 -3083 0
-3100 3099 3084 0
-3100 -3099 -3084 0
3100 -3099 3084 0
3100 3099 -3084 0
-3101 3100 3085 0
-3101 -3100 -3085 0
3101 -3100 3085 0
3101 3100 -3085 0
-3102 3101 3086 0
-3102 -3101 -3086 0
3102 -3101 3086 0
3102 3101 -3086 0
-3103 3102 3087 0
-3103 -3102 -3087 0
3103 -3102 3087 0
3103 3102 -3087 0
-3104 3103 3088 0
-3104 -3103 -3088 0
3104 -3103 3088 0
3104 3103 -3088 0
-3105 3104 3089 0
-3105 -3104 -3089 0
3105 -3104 3089 0
3105 3104 -3089 0
-3106 3105 3090 0
-3106 -3105 -3090 0
3106 -3105 3090 0
3106 3105 -3090 0
-3107 3106 3091 0
-3107 -3106 -3091 0
3107 -3106 3091 0
3107 3106 -3091 0
-3108 3107 3092 0
-3108 -3107 -3092 0
3108 -3107 3092 0
3108 3107 -3092 0
-3109 3108 3093 0
-3109 -3108 -3093 0
3109 -3108 3093 0
3109 3108 -3093 0
-3110 3109 3094 0
-3110 -3109 -3094 0
3110 -3109 3094 0
3110 3109 -3094 0
-3111 3110 3095 0
-3111 -3110 -3095 0
3111 -3110 3095 0
3111 3110 -3095 0
-3112 3111 3096 0
-3112 -3111 -3096 0
3112 -3111 3096 0
3112 3111 -3096 0
-3112 0
-3113 2667 0
-3113 46 0
3113 -2667 -46 0
-3114 2669 0
-3114 42 0
3114 -2669 -42 0
-3115 2671 0
-3115 39 0
3115 -2671 -39 0
-3116 2673 0
-3116 40 0
3116 -2673 -40 0
-3117 2675 0
-3117 39 0
3117 -2675 -39 0
-3118 2677 0
-3118 42 0
3118 -2677 -42 0
-3119 2679 0
-3119 94 0
3119 -2679 -94 0
-3120 2681 0
-3120 90 0
3120 -2681 -90 0
-3121 2683 0
-3121 87 0
3121 -2683 -87 0
-3122 2685 0
-3122 88 0
3122 -2685 -88 0
-3123 2687 0
-3123 87 0
3123 -2687 -87 0
-3124 2689 0
-3124 90 0
3124 -2689 -90 0
-3125 2691 0
-3125 142 0
3125 -2691 -142 0
-3126 2693 0
-3126 136 0
3126 -2693 -136 0
-3127 2695 0
-3127 136 0
3127 -2695 -136 0
-3128 2697 0
-3128 142 0
3128 -2697 -142 0
-3129 2699 0
-3129 190 0
3129 -2699 -190 0
-3130 3113 3114 0
-3130 -3113 -3114 0
3130 -3113 3114 0
3130 3113 -3114 0
-3131 3130 3115 0
-3131 -3130 -3115 0
3131 -3130 3115 0
3131 3130 -3115 0
-3132 3131 3116 0
-3132 -3131 -3116 0
3132 -3131 3116 0
3132 3131 -3116 0
-3133 3132 3117 0
-3133 -3132 -3117 0
3133 -3132 3117 0
3133 3132 -3117 0
-3134 3133 3118 0
-3134 -3133 -3118 0
3134 -3133 3118 0
3134 3133 -3118 0
-3135 3134 3119 0
-3135 -3134 -3119 0
3135 -3134 3119 0
3135 3134 -3119 0
-3136 3135 3120 0
-3136 -3135 -3120 0
3136 -3135 3120 0
3136 3135 -3120 0
-3137 3136 3121 0
-3137 -3136 -3121 0
3137 -3136 3121 0
3137 3136 -3121 0
-3138 3137 3122 0
-3138 -3137 -3122 0
3138 -3137 3122 0
3138 3137 -3122 0
-3139 3138 3123 0
-3139 -3138 -3123 0
3139 -3138 3123 0
3139 3138 -3123 0
-3140 3139 3124 0
-3140 -3139 -3124 0
3140 -3139 3124 0
3140 3139 -3124 0
-3141 3140 3125 0
-3141 -3140 -3125 0
3141 -3140 3125 0
3141 3140 -3125 0
-3142 3141 3126 0
-3142 -3141 -3126 0
3142 -3141 3126 0
3142 3141 -3126 0
-3143 3142 3127 0
-3143 -3142 -3127 0
3143 -3142 3127 0
3143 3142 -3127 0
-3144 3143 3128 0
-3144 -3143 -3128 0
3144 -3143 3128 0
3144 3143 -3128 0
-3145 3144 3129 0
-3145 -3144 -3129 0
3145 -3144 3129 0
3145 3144 -3129 0
-3145 0
-3146 2667 0
-3146 47 0
3146 -2667 -47 0
-3147 2669 0
-3147 44 0
3147 -2669 -44 0
-3148 2671 0
-3148 40 0
3148 -2671 -40 0
-3149 2673 0
-3149 44 0
3149 -2673 -44 0
-3150 2675 0
-3150 47 0
3150 -2675 -47 0
-3151 2677 0
-3151 46 0
3151 -2677 -46 0
-3152 2679 0
-3152 95 0
3152 -2679 -95 0
-3153 2681 0
-3153 92 0
3153 -2681 -92 0
-3154 2683 0
-3154 88 0
3154 -2683 -88 0
-3155 2685 0
-3155 92 0
3155 -2685 -92 0
-3156 2687 0
-3156 95 0
3156 -2687 -95 0
-3157 2689 0
-3157 94 0
3157 -2689 -94 0
-3158 2691 0
-3158 143 0
3158 -2691 -143 0
-3159 2693 0
-3159 135 0
3159 -2693 -135 0
-3160 2695 0
-3160 140 0
3160 -2695 -140 0
-3161 2697 0
-3161 138 0
3161 -2697 -138 0
-3162 2699 0
-3162 191 0
3162 -2699 -191 0
-3163 3146 3147 0
-3163 -3146 -3147 0
3163 -3146 3147 0
3163 3146 -3147 0
-3164 3163 3148 0
-3164 -3163 -3148 0
3164 -3163 3148 0
3164 3163 -3148 0
-3165 3164 3149 0
-3165 -3164 -3149 0
3165 -3164 3149 0
3165 3164 -3149 0
-3166 3165 3150 0
-3166 -3165 -3150 0
3166 -3165 3150 0
3166 3165 -3150 0
-3167 3166 3151 0
-3167 -3166 -3151 0
3167 -3166 3151 0
3167 3166 -3151 0
-3168 3167 3152 0
-3168 -3167 -3152 0
3168 -3167 3152 0
3168 3167 -3152 0
-3169 3168 3153 0
-3169 -3168 -3153 0
3169 -3168 3153 0
3169 3168 -3153 0
-3170 3169 3154 0
-3170 -3169 -3154 0
3170 -3169 3154 0
3170 3169 -3154 0
-3171 3170 3155 0
-3171 -3170 -3155 0
3171 -3170 3155 0
3171 3170 -3155 0
-3172 3171 3156 0
-3172 -3171 -3156 0
3172 -3171 3156 0
3172 3171 -3156 0
-3173 3172 3157 0
-3173 -3172 -3157 0
3173 -3172 3157 0
3173 3172 -3157 0
-3174 3173 3158 0
-3174 -3173 -3158 0
3174 -3173 3158 0
3174 3173 -3158 0
-3175 3174 3159 0
-3175 -3174 -3159 0
3175 -3174 3159 0
3175 3174 -3159 0
-3176 3175 3160 0
-3176 -3175 -3160 0
3176 -3175 3160 0
3176 3175 -3160 0
-3177 3176 3161 0
-3177 -3176 -3161 0
3177 -3176 3161 0
3177 3176 -3161 0
-3178 3177 3162 0
-3178 -3177 -3162 0
3178 -3177 3162 0
3178 3177 -3162 0
-3178 0
-3179 2667 0
-3179 48 0
3179 -2667 -48 0
-3180 2669 0
-3180 43 0
3180 -2669 -43 0
-3181 2671 0
-3181 38 0
3181 -2671 -38 0
-3182 2673 0
-3182 48 0
3182 -2673 -48 0
-3183 2675 0
-3183 43 0
3183 -2675 -43 0
-3184 2677 0
-3184 38 0
3184 -2677 -38 0
-3185 2679 0
-3185 96 0
3185 -2679 -96 0
-3186 2681 0
-3186 91 0
3186 -2681 -91 0
-3187 2683 0
-3187 86 0
3187 -2683 -86 0
-3188 2685 0
-3188 96 0
3188 -2685 -96 0
-3189 2687 0
-3189 91 0
3189 -2687 -91 0
-3190 2689 0
-3190 86 0
3190 -2689 -86 0
-3191 2691 0
-3191 144 0
3191 -2691 -144 0
-3192 2693 0
-3192 134 0
3192 -2693 -134 0
-3193 2695 0
-3193 144 0
3193 -2695 -144 0
-3194 2697 0
-3194 134 0
3194 -2697 -134 0
-3195 2699 0
-3195 192 0
3195 -2699 -192 0
-3196 3179 3180 0
-3196 -3179 -3180 0
3196 -3179 3180 0
3196 3179 -3180 0
-3197 3196 3181 0
-3197 -3196 -3181 0
3197 -3196 3181 0
3197 3196 -3181 0
-3198 3197 3182 0
-3198 -3197 -3182 0
3198 -3197 3182 0
3198 3197 -3182 0
-3199 3198 3183 0
-3199 -3198 -3183 0
3199 -3198 3183 0
3199 3198 -3183 0
-3200 3199 3184 0
-3200 -3199 -3184 0
3200 -3199 3184 0
3200 3199 -3184 0
-3201 3200 3185 0
-3201 -3200 -3185 0
3201 -3200 3185 0
3201 3200 -3185 0
-3202 3201 3186 0
-3202 -3201 -3186 0
3202 -3201 3186 0
3202 3201 -3186 0
-3203 3202 3187 0
-3203 -3202 -3187 0
3203 -3202 3187 0
3203 3202 -3187 0
-3204 3203 3188 0
-3204 -3203 -3188 0
3204 -3203 3188 0
3204 3203 -3188 0
-3205 3204 3189 0
-3205 -3204 -3189 0
3205 -3204 3189 0
3205 3204 -3189 0
-3206 3205 3190 0
-3206 -3205 -3190 0
3206 -3205 3190 0
3206 3205 -3190 0
-3207 3206 3191 0
-3207 -3206 -3191 0
3207 -3206 3191 0
3207 3206 -3191 0
-3208 3207 3192 0
-3208 -3207 -3192 0
3208 -3207 3192 0
3208 3207 -3192 0
-3209 3208 3193 0
-3209 -3208 -3193 0
3209 -3208 3193 0
3209 3208 -3193 0
-3210 3209 3194 0
-3210 -3209 -3194 0
3210 -3209 3194 0
3210 3209 -3194 0
-3211 3210 3195 0
-3211 -3210 -3195 0
3211 -3210 3195 0
3211 3210 -3195 0
-3211 0
-3212 1 0
-3212 29 0
3212 -1 -29 0
-3213 3212 0
-3213 33 0
3213 -3212 -33 0
-3214 2 0
-3214 29 0
3214 -2 -29 0
-3215 3214 0
-3215 33 0
3215 -3214 -33 0
-3216 17 0
-3216 4 0
3216 -17 -4 0
-3217 3216 0
-3217 33 0
3217 -3216 -33 0
-3218 21 0
-3218 4 0
3218 -21 -4 0
-3219 3218 0
-3219 33 0
3219 -3218 -33 0
-3220 49 0
-3220 77 0
3220 -49 -77 0
-3221 3220 0
-3221 81 0
3221 -3220 -81 0
-3222 50 0
-3222 77 0
3222 -50 -77 0
-3223 3222 0
-3223 81 0
3223 -3222 -81 0
-3224 65 0
-3224 52 0
3224 -65 -52 0
-3225 3224 0
-3225 81 0
3225 -3224 -81 0
-3226 69 0
-3226 52 0
3226 -69 -52 0
-3227 3226 0
-3227 81 0
3227 -3226 -81 0
-3228 97 0
-3228 125 0
3228 -97 -125 0
-3229 3228 0
-3229 129 0
3229 -3228 -129 0
-3230 113 0
-3230 100 0
3230 -113 -100 0
-3231 3230 0
-3231 129 0
3231 -3230 -129 0
-3232 145 0
-3232 173 0
3232 -145 -173 0
-3233 3232 0
-3233 177 0
3233 -3232 -177 0
-3234 3213 3215 0
-3234 -3213 -3215 0
3234 -3213 3215 0
3234 3213 -3215 0
-3235 3234 3215 0
-3235 -3234 -3215 0
3235 -3234 3215 0
3235 3234 -3215 0
-3236 3235 3217 0
-3236 -3235 -3217 0
3236 -3235 3217 0
3236 3235 -3217 0
-3237 3236 3219 0
-3237 -3236 -3219 0
3237 -3236 3219 0
3237 3236 -3219 0
-3238 3237 3219 0
-3238 -3237 -3219 0
3238 -3237 3219 0
3238 3237 -3219 0
-3239 3238 3221 0
-3239 -3238 -3221 0
3239 -3238 3221 0
3239 3238 -3221 0
-3240 3239 3223 0
-3240 -3239 -3223 0
3240 -3239 3223 0
3240 3239 -3223 0
-3241 3240 3223 0
-3241 -3240 -3223 0
3241 -3240 3223 0
3241 3240 -3223 0
-3242 3241 3225 0
-3242 -3241 -3225 0
3242 -3241 3225 0
3242 3241 -3225 0
-3243 3242 3227 0
-3243 -3242 -3227 0
3243 -3242 3227 0
3243 3242 -3227 0
-3244 3243 3227 0
-3244 -3243 -3227 0
3244 -3243 3227 0
3244 3243 -3227 0
-3245 3244 3229 0
-3245 -3244 -3229 0
3245 -3244 3229 0
3245 3244 -3229 0
-3246 3245 3229 0
-3246 -3245 -3229 0
3246 -3245 3229 0
3246 3245 -3229 0
-3247 3246 3231 0
-3247 -3246 -3231 0
3247 -3246 3231 0
3247 3246 -3231 0
-3248 3247 3231 0
-3248 -3247 -3231 0
3248 -3247 3231 0
3248 3247 -3231 0
-3249 3248 3233 0
-3249 -3248 -3233 0
3249 -3248 3233 0
3249 3248 -3233 0
-3249 0
-3250 3212 0
-3250 34 0
3250 -3212 -34 0
-3251 3214 0
-3251 34 0
3251 -3214 -34 0
-3252 3214 0
-3252 35 0
3252 -3214 -35 0
-3253 3216 0
-3253 37 0
3253 -3216 -37 0
-3254 3218 0
-3254 37 0
3254 -3218 -37 0
-3255 3218 0
-3255 41 0
3255 -3218 -41 0
-3256 3220 0
-3256 82 0
3256 -3220 -82 0
-3257 3222 0
-3257 82 0
3257 -3222 -82 0
-3258 3222 0
-3258 83 0
3258 -3222 -83 0
-3259 3224 0
-3259 85 0
3259 -3224 -85 0
-3260 3226 0
-3260 85 0
3260 -3226 -85 0
-3261 3226 0
-3261 89 0
3261 -3226 -89 0
-3262 3228 0
-3262 130 0
3262 -3228 -130 0
-3263 3228 0
-3263 132 0
3263 -3228 -132 0
-3264 3230 0
-3264 133 0
3264 -3230 -133 0
-3265 3230 0
-3265 141 0
3265 -3230 -141 0
-3266 3232 0
-3266 178 0
3266 -3232 -178 0
-3267 3250 3251 0
-3267 -3250 -3251 0
3267 -3250 3251 0
3267 3250 -3251 0
-3268 3267 3252 0
-3268 -3267 -3252 0
3268 -3267 3252 0
3268 3267 -3252 0
-3269 3268 3253 0
-3269 -3268 -3253 0
3269 -3268 3253 0
3269 3268 -3253 0
-3270 3269 3254 0
-3270 -3269 -3254 0
3270 -3269 3254 0
3270 3269 -3254 0
-3271 3270 3255 0
-3271 -3270 -3255 0
3271 -3270 3255 0
3271 3270 -3255 0
-3272 3271 3256 0
-3272 -3271 -3256 0
3272 -3271 3256 0
3272 3271 -3256 0
-3273 3272 3257 0
-3273 -3272 -3257 0
3273 -3272 3257 0
3273 3272 -3257 0
-3274 3273 3258 0
-3274 -3273 -3258 0
3274 -3273 3258 0
3274 3273 -3258 0
-3275 3274 3259 0
-3275 -3274 -3259 0
3275 -3274 3259 0
3275 3274 -3259 0
-3276 3275 3260 0
-3276 -3275 -3260 0
3276 -3275 3260 0
3276 3275 -3260 0
-3277 3276 3261 0
-3277 -3276 -3261 0
3277 -3276 3261 0
3277 3276 -3261 0
-3278 3277 3262 0
-3278 -3277 -3262 0
3278 -3277 3262 0
3278 3277 -3262 0
-3279 3278 3263 0
-3279 -3278 -3263 0
3279 -3278 3263 0
3279 3278 -3263 0
-3280 3279 3264 0
-3280 -3279 -3264 0
3280 -3279 3264 0
3280 3279 -3264 0
-3281 3280 3265 0
-3281 -3280 -3265 0
3281 -3280 3265 0
3281 3280 -3265 0
-3282 3281 3266 0
-3282 -3281 -3266 0
3282 -3281 3266 0
3282 3281 -3266 0
-3282 0
-3283 3212 0
-3283 35 0
3283 -3212 -35 0
-3284 3214 0
-3284 36 0
3284 -3214 -36 0
-3285 3216 0
-3285 41 0
3285 -3216 -41 0
-3286 3218 0
-3286 45 0
3286 -3218 -45 0
-3287 3220 0
-3287 83 0
3287 -3220 -83 0
-3288 3222 0
-3288 84 0
3288 -3222 -84 0
-3289 3224 0
-3289 89 0
3289 -3224 -89 0
-3290 3226 0
-3290 93 0
3290 -3226 -93 0
-3291 3228 0
-3291 131 0
3291 -3228 -131 0
-3292 3230 0
-3292 137 0
3292 -3230 -137 0
-3293 3232 0
-3293 179 0
3293 -3232 -179 0
-3294 3283 3284 0
-3294 -3283 -3284 0
3294 -3283 3284 0
3294 3283 -3284 0
-3295 3294 3284 0
-3295 -3294 -3284 0
3295 -3294 3284 0
3295 3294 -3284 0
-3296 3295 3285 0
-3296 -3295 -3285 0
3296 -3295 3285 0
3296 3295 -3285 0
-3297 3296 3286 0
-3297 -3296 -3286 0
3297 -3296 3286 0
3297 3296 -3286 0
-3298 3297 3286 0
-3298 -3297 -3286 0
3298 -3297 3286 0
3298 3297 -3286 0
-3299 3298 3287 0
-3299 -3298 -3287 0
3299 -3298 3287 0
3299 3298 -3287 0
-3300 3299 3288 0
-3300 -3299 -3288 0
3300 -3299 3288 0
3300 3299 -3288 0
-3301 3300 3288 0
-3301 -3300 -3288 0
3301 -3300 3288 0
3301 3300 -3288 0
-3302 3301 3289 0
-3302 -3301 -3289 0
3302 -3301 3289 0
3302 3301 -3289 0
-3303 3302 3290 0
-3303 -3302 -3290 0
3303 -3302 3290 0
3303 3302 -3290 0
-3304 3303 3290 0
-3304 -3303 -3290 0
3304 -3303 3290 0
3304 3303 -3290 0
-3305 3304 3291 0
-3305 -3304 -3291 0
3305 -3304 3291 0
3305 3304 -3291 0
-3306 3305 3291 0
-3306 -3305 -3291 0
3306 -3305 3291 0
3306 3305 -3291 0
-3307 3306 3292 0
-3307 -3306 -3292 0
3307 -3306 3292 0
3307 3306 -3292 0
-3308 3307 3292 0
-3308 -3307 -3292 0
3308 -3307 3292 0
3308 3307 -3292 0
-3309 3308 3293 0
-3309 -3308 -3293 0
3309 -3308 3293 0
3309 3308 -3293 0
-3309 0
-3310 3212 0
-3310 37 0
3310 -3212 -37 0
-3311 3214 0
-3311 37 0
3311 -3214 -37 0
-3312 3214 0
-3312 41 0
3312 -3214 -41 0
-3313 3216 0
-3313 34 0
3313 -3216 -34 0
-3314 3218 0
-3314 34 0
3314 -3218 -34 0
-3315 3218 0
-3315 35 0
3315 -3218 -35 0
-3316 3220 0
-3316 85 0
3316 -3220 -85 0
-3317 3222 0
-3317 85 0
3317 -3222 -85 0
-3318 3222 0
-3318 89 0
3318 -3222 -89 0
-3319 3224 0
-3319 82 0
3319 -3224 -82 0
-3320 3226 0
-3320 82 0
3320 -3226 -82 0
-3321 3226 0
-3321 83 0
3321 -3226 -83 0
-3322 3228 0
-3322 133 0
3322 -3228 -133 0
-3323 3228 0
-3323 141 0
3323 -3228 -141 0
-3324 3230 0
-3324 130 0
3324 -3230 -130 0
-3325 3230 0
-3325 132 0
3325 -3230 -132 0
-3326 3232 0
-3326 181 0
3326 -3232 -181 0
-3327 3310 3311 0
-3327 -3310 -3311 0
3327 -3310 3311 0
3327 3310 -3311 0
-3328 3327 3312 0
-3328 -3327 -3312 0
3328 -3327 3312 0
3328 3327 -3312 0
-3329 3328 3313 0
-3329 -3328 -3313 0
3329 -3328 3313 0
3329 3328 -3313 0
-3330 3329 3314 0
-3330 -3329 -3314 0
3330 -3329 3314 0
3330 3329 -3314 0
-3331 3330 3315 0
-3331 -3330 -3315 0
3331 -3330 3315 0
3331 3330 -3315 0
-3332 3331 3316 0
-3332 -3331 -3316 0
3332 -3331 3316 0
3332 3331 -3316 0
-3333 3332 3317 0
-3333 -3332 -3317 0
3333 -3332 3317 0
3333 3332 -3317 0
-3334 3333 3318 0
-3334 -3333 -3318 0
3334 -3333 3318 0
3334 3333 -3318 0
-3335 3334 3319 0
-3335 -3334 -3319 0
3335 -3334 3319 0
3335 3334 -3319 0
-3336 3335 3320 0
-3336 -3335 -3320 0
3336 -3335 3320 0
3336 3335 -3320 0
-3337 3336 3321 0
-3337 -3336 -3321 0
3337 -3336 3321 0
3337 3336 -3321 0
-3338 3337 3322 0
-3338 -3337 -3322 0
3338 -3337 3322 0
3338 3337 -3322 0
-3339 3338 3323 0
-3339 -3338 -3323 0
3339 -3338 3323 0
3339 3338 -3323 0
-3340 3339 3324 0
-3340 -3339 -3324 0
3340 -3339 3324 0
3340 3339 -3324 0
-3341 3340 3325 0
-3341 -3340 -3325 0
3341 -3340 3325 0
3341 3340 -3325 0
-3342 3341 3326 0
-3342 -3341 -3326 0
3342 -3341 3326 0
3342 3341 -3326 0
-3342 0
-3343 3212 0
-3343 38 0
3343 -3212 -38 0
-3344 3214 0
-3344 38 0
3344 -3214 -38 0
-3345 3214 0
-3345 43 0
3345 -3214 -43 0
-3346 3216 0
-3346 38 0
3346 -3216 -38 0
-3347 3218 0
-3347 38 0
3347 -3218 -38 0
-3348 3218 0
-3348 43 0
3348 -3218 -43 0
-3349 3220 0
-3349 86 0
3349 -3220 -86 0
-3350 3222 0
-3350 86 0
3350 -3222 -86 0
-3351 3222 0
-3351 91 0
3351 -3222 -91 0
-3352 3224 0
-3352 86 0
3352 -3224 -86 0
-3353 3226 0
-3353 86 0
3353 -3226 -86 0
-3354 3226 0
-3354 91 0
3354 -3226 -91 0
-3355 3228 0
-3355 134 0
3355 -3228 -134 0
-3356 3228 0
-3356 144 0
3356 -3228 -144 0
-3357 3230 0
-3357 134 0
3357 -3230 -134 0
-3358 3230 0
-3358 144 0
3358 -3230 -144 0
-3359 3232 0
-3359 182 0
3359 -3232 -182 0
-3360 3343 3344 0
-3360 -3343 -3344 0
3360 -3343 3344 0
3360 3343 -3344 0
-3361 3360 3345 0
-3361 -3360 -3345 0
3361 -3360 3345 0
3361 3360 -3345 0
-3362 3361 3346 0
-3362 -3361 -3346 0
3362 -3361 3346 0
3362 3361 -3346 0
-3363 3362 3347 0
-3363 -3362 -3347 0
3363 -3362 3347 0
3363 3362 -3347 0
-3364 3363 3348 0
-3364 -3363 -3348 0
3364 -3363 3348 0
3364 3363 -3348 0
-3365 3364 3349 0
-3365 -3364 -3349 0
3365 -3364 3349 0
3365 3364 -3349 0
-3366 3365 3350 0
-3366 -3365 -3350 0
3366 -3365 3350 0
3366 3365 -3350 0
-3367 3366 3351 0
-3367 -3366 -3351 0
3367 -3366 3351 0
3367 3366 -3351 0
-3368 3367 3352 0
-3368 -3367 -3352 0
3368 -3367 3352 0
3368 3367 -3352 0
-3369 3368 3353 0
-3369 -3368 -3353 0
3369 -3368 3353 0
3369 3368 -3353 0
-3370 3369 3354 0
-3370 -3369 -3354 0
3370 -3369 3354 0
3370 3369 -3354 0
-3371 3370 3355 0
-3371 -3370 -3355 0
3371 -3370 3355 0
3371 3370 -3355 0
-3372 3371 3356 0
-3372 -3371 -3356 0
3372 -3371 3356 0
3372 3371 -3356 0
-3373 3372 3357 0
-3373 -3372 -3357 0
3373 -3372 3357 0
3373 3372 -3357 0
-3374 3373 3358 0
-3374 -3373 -3358 0
3374 -3373 3358 0
3374 3373 -3358 0
-3375 3374 3359 0
-3375 -3374 -3359 0
3375 -3374 3359 0
3375 3374 -3359 0
-3375 0
-3376 3212 0
-3376 39 0
3376 -3212 -39 0
-3377 3214 0
-3377 40 0
3377 -3214 -40 0
-3378 3214 0
-3378 44 0
3378 -3214 -44 0
-3379 3216 0
-3379 42 0
3379 -3216 -42 0
-3380 3218 0
-3380 46 0
3380 -3218 -46 0
-3381 3218 0
-3381 47 0
3381 -3218 -47 0
-3382 3220 0
-3382 87 0
3382 -3220 -87 0
-3383 3222 0
-3383 88 0
3383 -3222 -88 0
-3384 3222 0
-3384 92 0
3384 -3222 -92 0
-3385 3224 0
-3385 90 0
3385 -3224 -90 0
-3386 3226 0
-3386 94 0
3386 -3226 -94 0
-3387 3226 0
-3387 95 0
3387 -3226 -95 0
-3388 3228 0
-3388 135 0
3388 -3228 -135 0
-3389 3228 0
-3389 143 0
3389 -3228 -143 0
-3390 3230 0
-3390 138 0
3390 -3230 -138 0
-3391 3230 0
-3391 140 0
3391 -3230 -140 0
-3392 3232 0
-3392 183 0
3392 -3232 -183 0
-3393 3376 3377 0
-3393 -3376 -3377 0
3393 -3376 3377 0
3393 3376 -3377 0
-3394 3393 3378 0
-3394 -3393 -3378 0
3394 -3393 3378 0
3394 3393 -3378 0
-3395 3394 3379 0
-3395 -3394 -3379 0
3395 -3394 3379 0
3395 3394 -3379 0
-3396 3395 3380 0
-3396 -3395 -3380 0
3396 -3395 3380 0
3396 3395 -3380 0
-3397 3396 3381 0
-3397 -3396 -3381 0
3397 -3396 3381 0
3397 3396 -3381 0
-3398 3397 3382 0
-3398 -3397 -3382 0
3398 -3397 3382 0
3398 3397 -3382 0
-3399 3398 3383 0
-3399 -3398 -3383 0
3399 -3398 3383 0
3399 3398 -3383 0
-3400 3399 3384 0
-3400 -3399 -3384 0
3400 -3399 3384 0
3400 3399 -3384 0
-3401 3400 3385 0
-3401 -3400 -3385 0
3401 -3400 3385 0
3401 3400 -3385 0
-3402 3401 3386 0
-3402 -3401 -3386 0
3402 -3401 3386 0
3402 3401 -3386 0
-3403 3402 3387 0
-3403 -3402 -3387 0
3403 -3402 3387 0
3403 3402 -3387 0
-3404 3403 3388 0
-3404 -3403 -3388 0
3404 -3403 3388 0
3404 3403 -3388 0
-3405 3404 3389 0
-3405 -3404 -3389 0
3405 -3404 3389 0
3405 3404 -3389 0
-3406 3405 3390 0
-3406 -3405 -3390 0
3406 -3405 3390 0
3406 3405 -3390 0
-3407 3406 3391 0
-3407 -3406 -3391 0
3407 -3406 3391 0
3407 3406 -3391 0
-3408 3407 3392 0
-3408 -3407 -3392 0
3408 -3407 3392 0
3408 3407 -3392 0
-3408 0
-3409 3212 0
-3409 40 0
3409 -3212 -40 0
-3410 3214 0
-3410 39 0
3410 -3214 -39 0
-3411 3214 0
-3411 42 0
3411 -3214 -42 0
-3412 3216 0
-3412 46 0
3412 -3216 -46 0
-3413 3218 0
-3413 42 0
3413 -3218 -42 0
-3414 3218 0
-3414 39 0
3414 -3218 -39 0
-3415 3220 0
-3415 88 0
3415 -3220 -88 0
-3416 3222 0
-3416 87 0
3416 -3222 -87 0
-3417 3222 0
-3417 90 0
3417 -3222 -90 0
-3418 3224 0
-3418 94 0
3418 -3224 -94 0
-3419 3226 0
-3419 90 0
3419 -3226 -90 0
-3420 3226 0
-3420 87 0
3420 -3226 -87 0
-3421 3228 0
-3421 136 0
3421 -3228 -136 0
-3422 3228 0
-3422 142 0
3422 -3228 -142 0
-3423 3230 0
-3423 142 0
3423 -3230 -142 0
-3424 3230 0
-3424 136 0
3424 -3230 -136 0
-3425 3232 0
-3425 184 0
3425 -3232 -184 0
-3426 3409 3410 0
-3426 -3409 -3410 0
3426 -3409 3410 0
3426 3409 -3410 0
-3427 3426 3411 0
-3427 -3426 -3411 0
3427 -3426 3411 0
3427 3426 -3411 0
-3428 3427 3412 0
-3428 -3427 -3412 0
3428 -3427 3412 0
3428 3427 -3412 0
-3429 3428 3413 0
-3429 -3428 -3413 0
3429 -3428 3413 0
3429 3428 -3413 0
-3430 3429 3414 0
-3430 -3429 -3414 0
3430 -3429 3414 0
3430 3429 -3414 0
-3431 3430 3415 0
-3431 -3430 -3415 0
3431 -3430 3415 0
3431 3430 -3415 0
-3432 3431 3416 0
-3432 -3431 -3416 0
3432 -3431 3416 0
3432 3431 -3416 0
-3433 3432 3417 0
-3433 -3432 -3417 0
3433 -3432 3417 0
3433 3432 -3417 0
-3434 3433 3418 0
-3434 -3433 -3418 0
3434 -3433 3418 0
3434 3433 -3418 0
-3435 3434 3419 0
-3435 -3434 -3419 0
3435 -3434 3419 0
3435 3434 -3419 0
-3436 3435 3420 0
-3436 -3435 -3420 0
3436 -3435 3420 0
3436 3435 -3420 0
-3437 3436 3421 0
-3437 -3436 -3421 0
3437 -3436 3421 0
3437 3436 -3421 0
-3438 3437 3422 0
-3438 -3437 -3422 0
3438 -3437 3422 0
3438 3437 -3422 0
-3439 3438 3423 0
-3439 -3438 -3423 0
3439 -3438 3423 0
3439 3438 -3423 0
-3440 3439 3424 0
-3440 -3439 -3424 0
3440 -3439 3424 0
3440 3439 -3424 0
-3441 3440 3425 0
-3441 -3440 -3425 0
3441 -3440 3425 0
3441 3440 -3425 0
-3441 0
-3442 3212 0
-3442 41 0
3442 -3212 -41 0
-3443 3214 0
-3443 45 0
3443 -3214 -45 0
-3444 3216 0
-3444 35 0
3444 -3216 -35 0
-3445 3218 0
-3445 36 0
3445 -3218 -36 0
-3446 3220 0
-3446 89 0
3446 -3220 -89 0
-3447 3222 0
-3447 93 0
3447 -3222 -93 0
-3448 3224 0
-3448 83 0
3448 -3224 -83 0
-3449 3226 0
-3449 84 0
3449 -3226 -84 0
-3450 3228 0
-3450 137 0
3450 -3228 -137 0
-3451 3230 0
-3451 131 0
3451 -3230 -131 0
-3452 3232 0
-3452 185 0
3452 -3232 -185 0
-3453 3442 3443 0
-3453 -3442 -3443 0
3453 -3442 3443 0
3453 3442 -3443 0
-3454 3453 3443 0
-3454 -3453 -3443 0
3454 -3453 3443 0
3454 3453 -3443 0
-3455 3454 3444 0
-3455 -3454 -3444 0
3455 -3454 3444 0
3455 3454 -3444 0
-3456 3455 3445 0
-3456 -3455 -3445 0
3456 -3455 3445 0
3456 3455 -3445 0
-3457 3456 3445 0
-3457 -3456 -3445 0
3457 -3456 3445 0
3457 3456 -3445 0
-3458 3457 3446 0
-3458 -3457 -3446 0
3458 -3457 3446 0
3458 3457 -3446 0
-3459 3458 3447 0
-3459 -3458 -3447 0
3459 -3458 3447 0
3459 3458 -3447 0
-3460 3459 3447 0
-3460 -3459 -3447 0
3460 -3459 3447 0
3460 3459 -3447 0
-3461 3460 3448 0
-3461 -3460 -3448 0
3461 -3460 3448 0
3461 3460 -3448 0
-3462 3461 3449 0
-3462 -3461 -3449 0
3462 -3461 3449 0
3462 3461 -3449 0
-3463 3462 3449 0
-3463 -3462 -3449 0
3463 -3462 3449 0
3463 3462 -3449 0
-3464 3463 3450 0
-3464 -3463 -3450 0
3464 -3463 3450 0
3464 3463 -3450 0
-3465 3464 3450 0
-3465 -3464 -3450 0
3465 -3464 3450 0
3465 3464 -3450 0
-3466 3465 3451 0
-3466 -3465 -3451 0
3466 -3465 3451 0
3466 3465 -3451 0
-3467 3466 3451 0
-3467 -3466 -3451 0
3467 -3466 3451 0
3467 3466 -3451 0
-3468 3467 3452 0
-3468 -3467 -3452 0
3468 -3467 3452 0
3468 3467 -3452 0
-3468 0
-3469 3212 0
-3469 42 0
3469 -3212 -42 0
-3470 3214 0
-3470 46 0
3470 -3214 -46 0
-3471 3214 0
-3471 47 0
3471 -3214 -47 0
-3472 3216 0
-3472 39 0
3472 -3216 -39 0
-3473 3218 0
-3473 40 0
3473 -3218 -40 0
-3474 3218 0
-3474 44 0
3474 -3218 -44 0
-3475 3220 0
-3475 90 0
3475 -3220 -90 0
-3476 3222 0
-3476 94 0
3476 -3222 -94 0
-3477 3222 0
-3477 95 0
3477 -3222 -95 0
-3478 3224 0
-3478 87 0
3478 -3224 -87 0
-3479 3226 0
-3479 88 0
3479 -3226 -88 0
-3480 3226 0
-3480 92 0
3480 -3226 -92 0
-3481 3228 0
-3481 138 0
3481 -3228 -138 0
-3482 3228 0
-3482 140 0
3482 -3228 -140 0
-3483 3230 0
-3483 135 0
3483 -3230 -135 0
-3484 3230 0
-3484 143 0
3484 -3230 -143 0
-3485 3232 0
-3485 186 0
3485 -3232 -186 0
-3486 3469 3470 0
-3486 -3469 -3470 0
3486 -3469 3470 0
3486 3469 -3470 0
-3487 3486 3471 0
-3487 -3486 -3471 0
3487 -3486 3471 0
3487 3486 -3471 0
-3488 3487 3472 0
-3488 -3487 -3472 0
3488 -3487 3472 0
3488 3487 -3472 0
-3489 3488 3473 0
-3489 -3488 -3473 0
3489 -3488 3473 0
3489 3488 -3473 0
-3490 3489 3474 0
-3490 -3489 -3474 0
3490 -3489 3474 0
3490 3489 -3474 0
-3491 3490 3475 0
-3491 -3490 -3475 0
3491 -3490 3475 0
3491 3490 -3475 0
-3492 3491 3476 0
-3492 -3491 -3476 0
3492 -3491 3476 0
3492 3491 -3476 0
-3493 3492 3477 0
-3493 -3492 -3477 0
3493 -3492 3477 0
3493 3492 -3477 0
-3494 3493 3478 0
-3494 -3493 -3478 0
3494 -3493 3478 0
3494 3493 -3478 0
-3495 3494 3479 0
-3495 -3494 -3479 0
3495 -3494 3479 0
3495 3494 -3479 0
-3496 3495 3480 0
-3496 -3495 -3480 0
3496 -3495 3480 0
3496 3495 -3480 0
-3497 3496 3481 0
-3497 -3496 -3481 0
3497 -3496 3481 0
3497 3496 -3481 0
-3498 3497 3482 0
-3498 -3497 -3482 0
3498 -3497 3482 0
3498 3497 -3482 0
-3499 3498 3483 0
-3499 -3498 -3483 0
3499 -3498 3483 0
3499 3498 -3483 0
-3500 3499 3484 0
-3500 -3499 -3484 0
3500 -3499 3484 0
3500 3499 -3484 0
-3501 3500 3485 0
-3501 -3500 -3485 0
3501 -3500 3485 0
3501 3500 -3485 0
-3501 0
-3502 3212 0
-3502 43 0
3502 -3212 -43 0
-3503 3214 0
-3503 48 0
3503 -3214 -48 0
-3504 3216 0
-3504 43 0
3504 -3216 -43 0
-3505 3218 0
-3505 48 0
3505 -3218 -48 0
-3506 3220 0
-3506 91 0
3506 -3220 -91 0
-3507 3222 0
-3507 96 0
3507 -3222 -96 0
-3508 3224 0
-3508 91 0
3508 -3224 -91 0
-3509 3226 0
-3509 96 0
3509 -3226 -96 0
-3510 3228 0
-3510 139 0
3510 -3228 -139 0
-3511 3230 0
-3511 139 0
3511 -3230 -139 0
-3512 3232 0
-3512 187 0
3512 -3232 -187 0
-3513 3502 3503 0
-3513 -3502 -3503 0
3513 -3502 3503 0
3513 3502 -3503 0
-3514 3513 3503 0
-3514 -3513 -3503 0
3514 -3513 3503 0
3514 3513 -3503 0
-3515 3514 3504 0
-3515 -3514 -3504 0
3515 -3514 3504 0
3515 3514 -3504 0
-3516 3515 3505 0
-3516 -3515 -3505 0
3516 -3515 3505 0
3516 3515 -3505 0
-3517 3516 3505 0
-3517 -3516 -3505 0
3517 -3516 3505 0
3517 3516 -3505 0
-3518 3517 3506 0
-3518 -3517 -3506 0
3518 -3517 3506 0
3518 3517 -3506 0
-3519 3518 3507 0
-3519 -3518 -3507 0
3519 -3518 3507 0
3519 3518 -3507 0
-3520 3519 3507 0
-3520 -3519 -3507 0
3520 -3519 3507 0
3520 3519 -3507 0
-3521 3520 3508 0
-3521 -3520 -3508 0
3521 -3520 3508 0
3521 3520 -3508 0
-3522 3521 3509 0
-3522 -3521 -3509 0
3522 -3521 3509 0
3522 3521 -3509 0
-3523 3522 3509 0
-3523 -3522 -3509 0
3523 -3522 3509 0
3523 3522 -3509 0
-3524 3523 3510 0
-3524 -3523 -3510 0
3524 -3523 3510 0
3524 3523 -3510 0
-3525 3524 3510 0
-3525 -3524 -3510 0
3525 -3524 3510 0
3525 3524 -3510 0
-3526 3525 3511 0
-3526 -3525 -3511 0
3526 -3525 3511 0
3526 3525 -3511 0
-3527 3526 3511 0
-3527 -3526 -3511 0
3527 -3526 3511 0
3527 3526 -3511 0
-3528 3527 3512 0
-3528 -3527 -3512 0
3528 -3527 3512 0
3528 3527 -3512 0
-3528 0
-3529 1 0
-3529 30 0
3529 -1 -30 0
-3530 3529 0
-3530 33 0
3530 -3529 -33 0
-3531 2 0
-3531 30 0
3531 -2 -30 0
-3532 3531 0
-3532 33 0
3532 -3531 -33 0
-3533 2 0
-3533 31 0
3533 -2 -31 0
-3534 3533 0
-3534 33 0
3534 -3533 -33 0
-3535 17 0
-3535 8 0
3535 -17 -8 0
-3536 3535 0
-3536 33 0
3536 -3535 -33 0
-3537 21 0
-3537 8 0
3537 -21 -8 0
-3538 3537 0
-3538 33 0
3538 -3537 -33 0
-3539 21 0
-3539 12 0
3539 -21 -12 0
-3540 3539 0
-3540 33 0
3540 -3539 -33 0
-3541 49 0
-3541 78 0
3541 -49 -78 0
-3542 3541 0
-3542 81 0
3542 -3541 -81 0
-3543 50 0
-3543 78 0
3543 -50 -78 0
-3544 3543 0
-3544 81 0
3544 -3543 -81 0
-3545 50 0
-3545 79 0
3545 -50 -79 0
-3546 3545 0
-3546 81 0
3546 -3545 -81 0
-3547 65 0
-3547 56 0
3547 -65 -56 0
-3548 3547 0
-3548 81 0
3548 -3547 -81 0
-3549 69 0
-3549 56 0
3549 -69 -56 0
-3550 3549 0
-3550 81 0
3550 -3549 -81 0
-3551 69 0
-3551 60 0
3551 -69 -60 0
-3552 3551 0
-3552 81 0
3552 -3551 -81 0
-3553 97 0
-3553 126 0
3553 -97 -126 0
-3554 3553 0
-3554 129 0
3554 -3553 -129 0
-3555 97 0
-3555 128 0
3555 -97 -128 0
-3556 3555 0
-3556 129 0
3556 -3555 -129 0
-3557 113 0
-3557 104 0
3557 -113 -104 0
-3558 3557 0
-3558 129 0
3558 -3557 -129 0
-3559 113 0
-3559 112 0
3559 -113 -112 0
-3560 3559 0
-3560 129 0
3560 -3559 -129 0
-3561 145 0
-3561 174 0
3561 -145 -174 0
-3562 3561 0
-3562 177 0
3562 -3561 -177 0
-3563 3530 3532 0
-3563 -3530 -3532 0
3563 -3530 3532 0
3563 3530 -3532 0
-3564 3563 3534 0
-3564 -3563 -3534 0
3564 -3563 3534 0
3564 3563 -3534 0
-3565 3564 3536 0
-3565 -3564 -3536 0
3565 -3564 3536 0
3565 3564 -3536 0
-3566 3565 3538 0
-3566 -3565 -3538 0
3566 -3565 3538 0
3566 3565 -3538 0
-3567 3566 3540 0
-3567 -3566 -3540 0
3567 -3566 3540 0
3567 3566 -3540 0
-3568 3567 3542 0
-3568 -3567 -3542 0
3568 -3567 3542 0
3568 3567 -3542 0
-3569 3568 3544 0
-3569 -3568 -3544 0
3569 -3568 3544 0
3569 3568 -3544 0
-3570 3569 3546 0
-3570 -3569 -3546 0
3570 -3569 3546 0
3570 3569 -3546 0
-3571 3570 3548 0
-3571 -3570 -3548 0
3571 -3570 3548 0
3571 3570 -3548 0
-3572 3571 3550 0
-3572 -3571 -3550 0
3572 -3571 3550 0
3572 3571 -3550 0
-3573 3572 3552 0
-3573 -3572 -3552 0
3573 -3572 3552 0
3573 3572 -3552 0
-3574 3573 3554 0
-3574 -3573 -3554 0
3574 -3573 3554 0
3574 3573 -3554 0
-3575 3574 3556 0
-3575 -3574 -3556 0
3575 -3574 3556 0
3575 3574 -3556 0
-3576 3575 3558 0
-3576 -3575 -3558 0
3576 -3575 3558 0
3576 3575 -3558 0
-3577 3576 3560 0
-3577 -3576 -3560 0
3577 -3576 3560 0
3577 3576 -3560 0
-3578 3577 3562 0
-3578 -3577 -3562 0
3578 -3577 3562 0
3578 3577 -3562 0
-3578 0
-3579 3529 0
-3579 34 0
3579 -3529 -34 0
-3580 3531 0
-3580 34 0
3580 -3531 -34 0
-3581 3533 0
-3581 35 0
3581 -3533 -35 0
-3582 3535 0
-3582 37 0
3582 -3535 -37 0
-3583 3537 0
-3583 37 0
3583 -3537 -37 0
-3584 3539 0
-3584 41 0
3584 -3539 -41 0
-3585 3541 0
-3585 82 0
3585 -3541 -82 0
-3586 3543 0
-3586 82 0
3586 -3543 -82 0
-3587 3545 0
-3587 83 0
3587 -3545 -83 0
-3588 3547 0
-3588 85 0
3588 -3547 -85 0
-3589 3549 0
-3589 85 0
3589 -3549 -85 0
-3590 3551 0
-3590 89 0
3590 -3551 -89 0
-3591 3553 0
-3591 130 0
3591 -3553 -130 0
-3592 3555 0
-3592 132 0
3592 -3555 -132 0
-3593 3557 0
-3593 133 0
3593 -3557 -133 0
-3594 3559 0
-3594 141 0
3594 -3559 -141 0
-3595 3561 0
-3595 178 0
3595 -3561 -178 0
-3596 3579 3580 0
-3596 -3579 -3580 0
3596 -3579 3580 0
3596 3579 -3580 0
-3597 3596 3581 0
-3597 -3596 -3581 0
3597 -3596 3581 0
3597 3596 -3581 0
-3598 3597 3582 0
-3598 -3597 -3582 0
3598 -3597 3582 0
3598 3597 -3582 0
-3599 3598 3583 0
-3599 -3598 -3583 0
3599 -3598 3583 0
3599 3598 -3583 0
-3600 3599 3584 0
-3600 -3599 -3584 0
3600 -3599 3584 0
3600 3599 -3584 0
-3601 3600 3585 0
-3601 -3600 -3585 0
3601 -3600 3585 0
3601 3600 -3585 0
-3602 3601 3586 0
-3602 -3601 -3586 0
3602 -3601 3586 0
3602 3601 -3586 0
-3603 3602 3587 0
-3603 -3602 -3587 0
3603 -3602 3587 0
3603 3602 -3587 0
-3604 3603 3588 0
-3604 -3603 -3588 0
3604 -3603 3588 0
3604 3603 -3588 0
-3605 3604 3589 0
-3605 -3604 -3589 0
3605 -3604 3589 0
3605 3604 -3589 0
-3606 3605 3590 0
-3606 -3605 -3590 0
3606 -3605 3590 0
3606 3605 -3590 0
-3607 3606 3591 0
-3607 -3606 -3591 0
3607 -3606 3591 0
3607 3606 -3591 0
-3608 3607 3592 0
-3608 -3607 -3592 0
3608 -3607 3592 0
3608 3607 -3592 0
-3609 3608 3593 0
-3609 -3608 -3593 0
3609 -3608 3593 0
3609 3608 -3593 0
-3610 3609 3594 0
-3610 -3609 -3594 0
3610 -3609 3594 0
3610 3609 -3594 0
-3611 3610 3595 0
-3611 -3610 -3595 0
3611 -3610 3595 0
3611 3610 -3595 0
-3611 0
-3612 3529 0
-3612 35 0
3612 -3529 -35 0
-3613 3531 0
-3613 36 0
3613 -3531 -36 0
-3614 3533 0
-3614 36 0
3614 -3533 -36 0
-3615 3535 0
-3615 41 0
3615 -3535 -41 0
-3616 3537 0
-3616 45 0
3616 -3537 -45 0
-3617 3539 0
-3617 45 0
3617 -3539 -45 0
-3618 3541 0
-3618 83 0
3618 -3541 -83 0
-3619 3543 0
-3619 84 0
3619 -3543 -84 0
-3620 3545 0
-3620 84 0
3620 -3545 -84 0
-3621 3547 0
-3621 89 0
3621 -3547 -89 0
-3622 3549 0
-3622 93 0
3622 -3549 -93 0
-3623 3551 0
-3623 93 0
3623 -3551 -93 0
-3624 3553 0
-3624 131 0
3624 -3553 -131 0
-3625 3555 0
-3625 131 0
3625 -3555 -131 0
-3626 3557 0
-3626 137 0
3626 -3557 -137 0
-3627 3559 0
-3627 137 0
3627 -3559 -137 0
-3628 3561 0
-3628 179 0
3628 -3561 -179 0
-3629 3612 3613 0
-3629 -3612 -3613 0
3629 -3612 3613 0
3629 3612 -3613 0
-3630 3629 3614 0
-3630 -3629 -3614 0
3630 -3629 3614 0
3630 3629 -3614 0
-3631 3630 3615 0
-3631 -3630 -3615 0
3631 -3630 3615 0
3631 3630 -3615 0
-3632 3631 3616 0
-3632 -3631 -3616 0
3632 -3631 3616 0
3632 3631 -3616 0
-3633 3632 3617 0
-3633 -3632 -3617 0
3633 -3632 3617 0
3633 3632 -3617 0
-3634 3633 3618 0
-3634 -3633 -3618 0
3634 -3633 3618 0
3634 3633 -3618 0
-3635 3634 3619 0
-3635 -3634 -3619 0
3635 -3634 3619 0
3635 3634 -3619 0
-3636 3635 3620 0
-3636 -3635 -3620 0
3636 -3635 3620 0
3636 3635 -3620 0
-3637 3636 3621 0
-3637 -3636 -3621 0
3637 -3636 3621 0
3637 3636 -3621 0
-3638 3637 3622 0
-3638 -3637 -3622 0
3638 -3637 3622 0
3638 3637 -3622 0
-3639 3638 3623 0
-3639 -3638 -3623 0
3639 -3638 3623 0
3639 3638 -3623 0
-3640 3639 3624 0
-3640 -3639 -3624 0
3640 -3639 3624 0
3640 3639 -3624 0
-3641 3640 3625 0
-3641 -3640 -3625 0
3641 -3640 3625 0
3641 3640 -3625 0
-3642 3641 3626 0
-3642 -3641 -3626 0
3642 -3641 3626 0
3642 3641 -3626 0
-3643 3642 3627 0
-3643 -3642 -3627 0
3643 -3642 3627 0
3643 3642 -3627 0
-3644 3643 3628 0
-3644 -3643 -3628 0
3644 -3643 3628 0
3644 3643 -3628 0
-3644 0
-3645 3529 0
-3645 36 0
3645 -3529 -36 0
-3646 3531 0
-3646 35 0
3646 -3531 -35 0
-3647 3533 0
-3647 34 0
3647 -3533 -34 0
-3648 3535 0
-3648 45 0
3648 -3535 -45 0
-3649 3537 0
-3649 41 0
3649 -3537 -41 0
-3650 3539 0
-3650 37 0
3650 -3539 -37 0
-3651 3541 0
-3651 84 0
3651 -3541 -84 0
-3652 3543 0
-3652 83 0
3652 -3543 -83 0
-3653 3545 0
-3653 82 0
3653 -3545 -82 0
-3654 3547 0
-3654 93 0
3654 -3547 -93 0
-3655 3549 0
-3655 89 0
3655 -3549 -89 0
-3656 3551 0
-3656 85 0
3656 -3551 -85 0
-3657 3553 0
-3657 132 0
3657 -3553 -132 0
-3658 3555 0
-3658 130 0
3658 -3555 -130 0
-3659 3557 0
-3659 141 0
3659 -3557 -141 0
-3660 3559 0
-3660 133 0
3660 -3559 -133 0
-3661 3561 0
-3661 180 0
3661 -3561 -180 0
-3662 3645 3646 0
-3662 -3645 -3646 0
3662 -3645 3646 0
3662 3645 -3646 0
-3663 3662 3647 0
-3663 -3662 -3647 0
3663 -3662 3647 0
3663 3662 -3647 0
-3664 3663 3648 0
-3664 -3663 -3648 0
3664 -3663 3648 0
3664 3663 -3648 0
-3665 3664 3649 0
-3665 -3664 -3649 0
3665 -3664 3649 0
3665 3664 -3649 0
-3666 3665 3650 0
-3666 -3665 -3650 0
3666 -3665 3650 0
3666 3665 -3650 0
-3667 3666 3651 0
-3667 -3666 -3651 0
3667 -3666 3651 0
3667 3666 -3651 0
-3668 3667 3652 0
-3668 -3667 -3652 0
3668 -3667 3652 0
3668 3667 -3652 0
-3669 3668 3653 0
-3669 -3668 -3653 0
3669 -3668 3653 0
3669 3668 -3653 0
-3670 3669 3654 0
-3670 -3669 -3654 0
3670 -3669 3654 0
3670 3669 -3654 0
-3671 3670 3655 0
-3671 -3670 -3655 0
3671 -3670 3655 0
3671 3670 -3655 0
-3672 3671 3656 0
-3672 -3671 -3656 0
3672 -3671 3656 0
3672 3671 -3656 0
-3673 3672 3657 0
-3673 -3672 -3657 0
3673 -3672 3657 0
3673 3672 -3657 0
-3674 3673 3658 0
-3674 -3673 -3658 0
3674 -3673 3658 0
3674 3673 -3658 0
-3675 3674 3659 0
-3675 -3674 -3659 0
3675 -3674 3659 0
3675 3674 -3659 0
-3676 3675 3660 0
-3676 -3675 -3660 0
3676 -3675 3660 0
3676 3675 -3660 0
-3677 3676 3661 0
-3677 -3676 -3661 0
3677 -3676 3661 0
3677 3676 -3661 0
-3677 0
-3678 3529 0
-3678 37 0
3678 -3529 -37 0
-3679 3531 0
-3679 37 0
3679 -3531 -37 0
-3680 3533 0
-3680 41 0
3680 -3533 -41 0
-3681 3535 0
-3681 34 0
3681 -3535 -34 0
-3682 3537 0
-3682 34 0
3682 -3537 -34 0
-3683 3539 0
-3683 35 0
3683 -3539 -35 0
-3684 3541 0
-3684 85 0
3684 -3541 -85 0
-3685 3543 0
-3685 85 0
3685 -3543 -85 0
-3686 3545 0
-3686 89 0
3686 -3545 -89 0
-3687 3547 0
-3687 82 0
3687 -3547 -82 0
-3688 3549 0
-3688 82 0
3688 -3549 -82 0
-3689 3551 0
-3689 83 0
3689 -3551 -83 0
-3690 3553 0
-3690 133 0
3690 -3553 -133 0
-3691 3555 0
-3691 141 0
3691 -3555 -141 0
-3692 3557 0
-3692 130 0
3692 -3557 -130 0
-3693 3559 0
-3693 132 0
3693 -3559 -132 0
-3694 3561 0
-3694 181 0
3694 -3561 -181 0
-3695 3678 3679 0
-3695 -3678 -3679 0
3695 -3678 3679 0
3695 3678 -3679 0
-3696 3695 3680 0
-3696 -3695 -3680 0
3696 -3695 3680 0
3696 3695 -3680 0
-3697 3696 3681 0
-3697 -3696 -3681 0
3697 -3696 3681 0
3697 3696 -3681 0
-3698 3697 3682 0
-3698 -3697 -3682 0
3698 -3697 3682 0
3698 3697 -3682 0
-3699 3698 3683 0
-3699 -3698 -3683 0
3699 -3698 3683 0
3699 3698 -3683 0
-3700 3699 3684 0
-3700 -3699 -3684 0
3700 -3699 3684 0
3700 3699 -3684 0
-3701 3700 3685 0
-3701 -3700 -3685 0
3701 -3700 3685 0
3701 3700 -3685 0
-3702 3701 3686 0
-3702 -3701 -3686 0
3702 -3701 3686 0
3702 3701 -3686 0
-3703 3702 3687 0
-3703 -3702 -3687 0
3703 -3702 3687 0
3703 3702 -3687 0
-3704 3703 3688 0
-3704 -3703 -3688 0
3704 -3703 3688 0
3704 3703 -3688 0
-3705 3704 3689 0
-3705 -3704 -3689 0
3705 -3704 3689 0
3705 3704 -3689 0
-3706 3705 3690 0
-3706 -3705 -3690 0
3706 -3705 3690 0
3706 3705 -3690 0
-3707 3706 3691 0
-3707 -3706 -3691 0
3707 -3706 3691 0
3707 3706 -3691 0
-3708 3707 3692 0
-3708 -3707 -3692 0
3708 -3707 3692 0
3708 3707 -3692 0
-3709 3708 3693 0
-3709 -3708 -3693 0
3709 -3708 3693 0
3709 3708 -3693 0
-3710 3709 3694 0
-3710 -3709 -3694 0
3710 -3709 3694 0
3710 3709 -3694 0
-3710 0
-3711 3529 0
-3711 38 0
3711 -3529 -38 0
-3712 3531 0
-3712 38 0
3712 -3531 -38 0
-3713 3533 0
-3713 43 0
3713 -3533 -43 0
-3714 3535 0
-3714 38 0
3714 -3535 -38 0
-3715 3537 0
-3715 38 0
3715 -3537 -38 0
-3716 3539 0
-3716 43 0
3716 -3539 -43 0
-3717 3541 0
-3717 86 0
3717 -3541 -86 0
-3718 3543 0
-3718 86 0
3718 -3543 -86 0
-3719 3545 0
-3719 91 0
3719 -3545 -91 0
-3720 3547 0
-3720 86 0
3720 -3547 -86 0
-3721 3549 0
-3721 86 0
3721 -3549 -86 0
-3722 3551 0
-3722 91 0
3722 -3551 -91 0
-3723 3553 0
-3723 134 0
3723 -3553 -134 0
-3724 3555 0
-3724 144 0
3724 -3555 -144 0
-3725 3557 0
-3725 134 0
3725 -3557 -134 0
-3726 3559 0
-3726 144 0
3726 -3559 -144 0
-3727 3561 0
-3727 182 0
3727 -3561 -182 0
-3728 3711 3712 0
-3728 -3711 -3712 0
3728 -3711 3712 0
3728 3711 -3712 0
-3729 3728 3713 0
-3729 -3728 -3713 0
3729 -3728 3713 0
3729 3728 -3713 0
-3730 3729 3714 0
-3730 -3729 -3714 0
3730 -3729 3714 0
3730 3729 -3714 0
-3731 3730 3715 0
-3731 -3730 -3715 0
3731 -3730 3715 0
3731 3730 -3715 0
-3732 3731 3716 0
-3732 -3731 -3716 0
3732 -3731 3716 0
3732 3731 -3716 0
-3733 3732 3717 0
-3733 -3732 -3717 0
3733 -3732 3717 0
3733 3732 -3717 0
-3734 3733 3718 0
-3734 -3733 -3718 0
3734 -3733 3718 0
3734 3733 -3718 0
-3735 3734 3719 0
-3735 -3734 -3719 0
3735 -3734 3719 0
3735 3734 -3719 0
-3736 3735 3720 0
-3736 -3735 -3720 0
3736 -3735 3720 0
3736 3735 -3720 0
-3737 3736 3721 0
-3737 -3736 -3721 0
3737 -3736 3721 0
3737 3736 -3721 0
-3738 3737 3722 0
-3738 -3737 -3722 0
3738 -3737 3722 0
3738 3737 -3722 0
-3739 3738 3723 0
-3739 -3738 -3723 0
3739 -3738 3723 0
3739 3738 -3723 0
-3740 3739 3724 0
-3740 -3739 -3724 0
3740 -3739 3724 0
3740 3739 -3724 0
-3741 3740 3725 0
-3741 -3740 -3725 0
3741 -3740 3725 0
3741 3740 -3725 0
-3742 3741 3726 0
-3742 -3741 -3726 0
3742 -3741 3726 0
3742 3741 -3726 0
-3743 3742 3727 0
-3743 -3742 -3727 0
3743 -3742 3727 0
3743 3742 -3727 0
-3743 0
-3744 3529 0
-3744 39 0
3744 -3529 -39 0
-3745 3531 0
-3745 40 0
3745 -3531 -40 0
-3746 3533 0
-3746 44 0
3746 -3533 -44 0
-3747 3535 0
-3747 42 0
3747 -3535 -42 0
-3748 3537 0
-3748 46 0
3748 -3537 -46 0
-3749 3539 0
-3749 47 0
3749 -3539 -47 0
-3750 3541 0
-3750 87 0
3750 -3541 -87 0
-3751 3543 0
-3751 88 0
3751 -3543 -88 0
-3752 3545 0
-3752 92 0
3752 -3545 -92 0
-3753 3547 0
-3753 90 0
3753 -3547 -90 0
-3754 3549 0
-3754 94 0
3754 -3549 -94 0
-3755 3551 0
-3755 95 0
3755 -3551 -95 0
-3756 3553 0
-3756 135 0
3756 -3553 -135 0
-3757 3555 0
-3757 143 0
3757 -3555 -143 0
-3758 3557 0
-3758 138 0
3758 -3557 -138 0
-3759 3559 0
-3759 140 0
3759 -3559 -140 0
-3760 3561 0
-3760 183 0
3760 -3561 -183 0
-3761 3744 3745 0
-3761 -3744 -3745 0
3761 -3744 3745 0
3761 3744 -3745 0
-3762 3761 3746 0
-3762 -3761 -3746 0
3762 -3761 3746 0
3762 3761 -3746 0
-3763 3762 3747 0
-3763 -3762 -3747 0
3763 -3762 3747 0
3763 3762 -3747 0
-3764 3763 3748 0
-3764 -3763 -3748 0
3764 -3763 3748 0
3764 3763 -3748 0
-3765 3764 3749 0
-3765 -3764 -3749 0
3765 -3764 3749 0
3765 3764 -3749 0
-3766 3765 3750 0
-3766 -3765 -3750 0
3766 -3765 3750 0
3766 3765 -3750 0
-3767 3766 3751 0
-3767 -3766 -3751 0
3767 -3766 3751 0
3767 3766 -3751 0
-3768 3767 3752 0
-3768 -3767 -3752 0
3768 -3767 3752 0
3768 3767 -3752 0
-3769 3768 3753 0
-3769 -3768 -3753 0
3769 -3768 3753 0
3769 3768 -3753 0
-3770 3769 3754 0
-3770 -3769 -3754 0
3770 -3769 3754 0
3770 3769 -3754 0
-3771 3770 3755 0
-3771 -3770 -3755 0
3771 -3770 3755 0
3771 3770 -3755 0
-3772 3771 3756 0
-3772 -3771 -3756 0
3772 -3771 3756 0
3772 3771 -3756 0
-3773 3772 3757 0
-3773 -3772 -3757 0
3773 -3772 3757 0
3773 3772 -3757 0
-3774 3773 3758 0
-3774 -3773 -3758 0
3774 -3773 3758 0
3774 3773 -3758 0
-3775 3774 3759 0
-3775 -3774 -3759 0
3775 -3774 3759 0
3775 3774 -3759 0
-3776 3775 3760 0
-3776 -3775 -3760 0
3776 -3775 3760 0
3776 3775 -3760 0
-3776 0
-3777 3529 0
-3777 40 0
3777 -3529 -40 0
-3778 3531 0
-3778 39 0
3778 -3531 -39 0
-3779 3533 0
-3779 42 0
3779 -3533 -42 0
-3780 3535 0
-3780 46 0
3780 -3535 -46 0
-3781 3537 0
-3781 42 0
3781 -3537 -42 0
-3782 3539 0
-3782 39 0
3782 -3539 -39 0
-3783 3541 0
-3783 88 0
3783 -3541 -88 0
-3784 3543 0
-3784 87 0
3784 -3543 -87 0
-3785 3545 0
-3785 90 0
3785 -3545 -90 0
-3786 3547 0
-3786 94 0
3786 -3547 -94 0
-3787 3549 0
-3787 90 0
3787 -3549 -90 0
-3788 3551 0
-3788 87 0
3788 -3551 -87 0
-3789 3553 0
-3789 136 0
3789 -3553 -136 0
-3790 3555 0
-3790 142 0
3790 -3555 -142 0
-3791 3557 0
-3791 142 0
3791 -3557 -142 0
-3792 3559 0
-3792 136 0
3792 -3559 -136 0
-3793 3561 0
-3793 184 0
3793 -3561 -184 0
-3794 3777 3778 0
-3794 -3777 -3778 0
3794 -3777 3778 0
3794 3777 -3778 0
-3795 3794 3779 0
-3795 -3794 -3779 0
3795 -3794 3779 0
3795 3794 -3779 0
-3796 3795 3780 0
-3796 -3795 -3780 0
3796 -3795 3780 0
3796 3795 -3780 0
-3797 3796 3781 0
-3797 -3796 -3781 0
3797 -3796 3781 0
3797 3796 -3781 0
-3798 3797 3782 0
-3798 -3797 -3782 0
3798 -3797 3782 0
3798 3797 -3782 0
-3799 3798 3783 0
-3799 -3798 -3783 0
3799 -3798 3783 0
3799 3798 -3783 0
-3800 3799 3784 0
-3800 -3799 -3784 0
3800 -3799 3784 0
3800 3799 -3784 0
-3801 3800 3785 0
-3801 -3800 -3785 0
3801 -3800 3785 0
3801 3800 -3785 0
-3802 3801 3786 0
-3802 -3801 -3786 0
3802 -3801 3786 0
3802 3801 -3786 0
-3803 3802 3787 0
-3803 -3802 -3787 0
3803 -3802 3787 0
3803 3802 -3787 0
-3804 3803 3788 0
-3804 -3803 -3788 0
3804 -3803 3788 0
3804 3803 -3788 0
-3805 3804 3789 0
-3805 -3804 -3789 0
3805 -3804 3789 0
3805 3804 -3789 0
-3806 3805 3790 0
-3806 -3805 -3790 0
3806 -3805 3790 0
3806 3805 -3790 0
-3807 3806 3791 0
-3807 -3806 -3791 0
3807 -3806 3791 0
3807 3806 -3791 0
-3808 3807 3792 0
-3808 -3807 -3792 0
3808 -3807 3792 0
3808 3807 -3792 0
-3809 3808 3793 0
-3809 -3808 -3793 0
3809 -3808 3793 0
3809 3808 -3793 0
-3809 0
-3810 3529 0
-3810 41 0
3810 -3529 -41 0
-3811 3531 0
-3811 45 0
3811 -3531 -45 0
-3812 3533 0
-3812 45 0
3812 -3533 -45 0
-3813 3535 0
-3813 35 0
3813 -3535 -35 0
-3814 3537 0
-3814 36 0
3814 -3537 -36 0
-3815 3539 0
-3815 36 0
3815 -3539 -36 0
-3816 3541 0
-3816 89 0
3816 -3541 -89 0
-3817 3543 0
-3817 93 0
3817 -3543 -93 0
-3818 3545 0
-3818 93 0
3818 -3545 -93 0
-3819 3547 0
-3819 83 0
3819 -3547 -83 0
-3820 3549 0
-3820 84 0
3820 -3549 -84 0
-3821 3551 0
-3821 84 0
3821 -3551 -84 0
-3822 3553 0
-3822 137 0
3822 -3553 -137 0
-3823 3555 0
-3823 137 0
3823 -3555 -137 0
-3824 3557 0
-3824 131 0
3824 -3557 -131 0
-3825 3559 0
-3825 131 0
3825 -3559 -131 0
-3826 3561 0
-3826 185 0
3826 -3561 -185 0
-3827 3810 3811 0
-3827 -3810 -3811 0
3827 -3810 3811 0
3827 3810 -3811 0
-3828 3827 3812 0
-3828 -3827 -3812 0
3828 -3827 3812 0
3828 3827 -3812 0
-3829 3828 3813 0
-3829 -3828 -3813 0
3829 -3828 3813 0
3829 3828 -3813 0
-3830 3829 3814 0
-3830 -3829 -3814 0
3830 -3829 3814 0
3830 3829 -3814 0
-3831 3830 3815 0
-3831 -3830 -3815 0
3831 -3830 3815 0
3831 3830 -3815 0
-3832 3831 3816 0
-3832 -3831 -3816 0
3832 -3831 3816 0
3832 3831 -3816 0
-3833 3832 3817 0
-3833 -3832 -3817 0
3833 -3832 3817 0
3833 3832 -3817 0
-3834 3833 3818 0
-3834 -3833 -3818 0
3834 -3833 3818 0
3834 3833 -3818 0
-3835 3834 3819 0
-3835 -3834 -3819 0
3835 -3834 3819 0
3835 3834 -3819 0
-3836 3835 3820 0
-3836 -3835 -3820 0
3836 -3835 3820 0
3836 3835 -3820 0
-3837 3836 3821 0
-3837 -3836 -3821 0
3837 -3836 3821 0
3837 3836 -3821 0
-3838 3837 3822 0
-3838 -3837 -3822 0
3838 -3837 3822 0
3838 3837 -3822 0
-3839 3838 3823 0
-3839 -3838 -3823 0
3839 -3838 3823 0
3839 3838 -3823 0
-3840 3839 3824 0
-3840 -3839 -3824 0
3840 -3839 3824 0
3840 3839 -3824 0
-3841 3840 3825 0
-3841 -3840 -3825 0
3841 -3840 3825 0
3841 3840 -3825 0
-3842 3841 3826 0
-3842 -3841 -3826 0
3842 -3841 3826 0
3842 3841 -3826 0
-3842 0
-3843 3529 0
-3843 42 0
3843 -3529 -42 0
-3844 3531 0
-3844 46 0
3844 -3531 -46 0
-3845 3533 0
-3845 47 0
3845 -3533 -47 0
-3846 3535 0
-3846 39 0
3846 -3535 -39 0
-3847 3537 0
-3847 40 0
3847 -3537 -40 0
-3848 3539 0
-3848 44 0
3848 -3539 -44 0
-3849 3541 0
-3849 90 0
3849 -3541 -90 0
-3850 3543 0
-3850 94 0
3850 -3543 -94 0
-3851 3545 0
-3851 95 0
3851 -3545 -95 0
-3852 3547 0
-3852 87 0
3852 -3547 -87 0
-3853 3549 0
-3853 88 0
3853 -3549 -88 0
-3854 3551 0
-3854 92 0
3854 -3551 -92 0
-3855 3553 0
-3855 138 0
3855 -3553 -138 0
-3856 3555 0
-3856 140 0
3856 -3555 -140 0
-3857 3557 0
-3857 135 0
3857 -3557 -135 0
-3858 3559 0
-3858 143 0
3858 -3559 -143 0
-3859 3561 0
-3859 186 0
3859 -3561 -186 0
-3860 3843 3844 0
-3860 -3843 -3844 0
3860 -3843 3844 0
3860 3843 -3844 0
-3861 3860 3845 0
-3861 -3860 -3845 0
3861 -3860 3845 0
3861 3860 -3845 0
-3862 3861 3846 0
-3862 -3861 -3846 0
3862 -3861 3846 0
3862 3861 -3846 0
-3863 3862 3847 0
-3863 -3862 -3847 0
3863 -3862 3847 0
3863 3862 -3847 0
-3864 3863 3848 0
-3864 -3863 -3848 0
3864 -3863 3848 0
3864 3863 -3848 0
-3865 3864 3849 0
-3865 -3864 -3849 0
3865 -3864 3849 0
3865 3864 -3849 0
-3866 3865 3850 0
-3866 -3865 -3850 0
3866 -3865 3850 0
3866 3865 -3850 0
-3867 3866 3851 0
-3867 -3866 -3851 0
3867 -3866 3851 0
3867 3866 -3851 0
-3868 3867 3852 0
-3868 -3867 -3852 0
3868 -3867 3852 0
3868 3867 -3852 0
-3869 3868 3853 0
-3869 -3868 -3853 0
3869 -3868 3853 0
3869 3868 -3853 0
-3870 3869 3854 0
-3870 -3869 -3854 0
3870 -3869 3854 0
3870 3869 -3854 0
-3871 3870 3855 0
-3871 -3870 -3855 0
3871 -3870 3855 0
3871 3870 -3855 0
-3872 3871 3856 0
-3872 -3871 -3856 0
3872 -3871 3856 0
3872 3871 -3856 0
-3873 3872 3857 0
-3873 -3872 -3857 0
3873 -3872 3857 0
3873 3872 -3857 0
-3874 3873 3858 0
-3874 -3873 -3858 0
3874 -3873 3858 0
3874 3873 -3858 0
-3875 3874 3859 0
-3875 -3874 -3859 0
3875 -3874 3859 0
3875 3874 -3859 0
-3875 0
-3876 3529 0
-3876 43 0
3876 -3529 -43 0
-3877 3531 0
-3877 48 0
3877 -3531 -48 0
-3878 3533 0
-3878 48 0
3878 -3533 -48 0
-3879 3535 0
-3879 43 0
3879 -3535 -43 0
-3880 3537 0
-3880 48 0
3880 -3537 -48 0
-3881 3539 0
-3881 48 0
3881 -3539 -48 0
-3882 3541 0
-3882 91 0
3882 -3541 -91 0
-3883 3543 0
-3883 96 0
3883 -3543 -96 0
-3884 3545 0
-3884 96 0
3884 -3545 -96 0
-3885 3547 0
-3885 91 0
3885 -3547 -91 0
-3886 3549 0
-3886 96 0
3886 -3549 -96 0
-3887 3551 0
-3887 96 0
3887 -3551 -96 0
-3888 3553 0
-3888 139 0
3888 -3553 -139 0
-3889 3555 0
-3889 139 0
3889 -3555 -139 0
-3890 3557 0
-3890 139 0
3890 -3557 -139 0
-3891 3559 0
-3891 139 0
3891 -3559 -139 0
-3892 3561 0
-3892 187 0
3892 -3561 -187 0
-3893 3876 3877 0
-3893 -3876 -3877 0
3893 -3876 3877 0
3893 3876 -3877 0
-3894 3893 3878 0
-3894 -3893 -3878 0
3894 -3893 3878 0
3894 3893 -3878 0
-3895 3894 3879 0
-3895 -3894 -3879 0
3895 -3894 3879 0
3895 3894 -3879 0
-3896 3895 3880 0
-3896 -3895 -3880 0
3896 -3895 3880 0
3896 3895 -3880 0
-3897 3896 3881 0
-3897 -3896 -3881 0
3897 -3896 3881 0
3897 3896 -3881 0
-3898 3897 3882 0
-3898 -3897 -3882 0
3898 -3897 3882 0
3898 3897 -3882 0
-3899 3898 3883 0
-3899 -3898 -3883 0
3899 -3898 3883 0
3899 3898 -3883 0
-3900 3899 3884 0
-3900 -3899 -3884 0
3900 -3899 3884 0
3900 3899 -3884 0
-3901 3900 3885 0
-3901 -3900 -3885 0
3901 -3900 3885 0
3901 3900 -3885 0
-3902 3901 3886 0
-3902 -3901 -3886 0
3902 -3901 3886 0
3902 3901 -3886 0
-3903 3902 3887 0
-3903 -3902 -3887 0
3903 -3902 3887 0
3903 3902 -3887 0
-3904 3903 3888 0
-3904 -3903 -3888 0
3904 -3903 3888 0
3904 3903 -3888 0
-3905 3904 3889 0
-3905 -3904 -3889 0
3905 -3904 3889 0
3905 3904 -3889 0
-3906 3905 3890 0
-3906 -3905 -3890 0
3906 -3905 3890 0
3906 3905 -3890 0
-3907 3906 3891 0
-3907 -3906 -3891 0
3907 -3906 3891 0
3907 3906 -3891 0
-3908 3907 3892 0
-3908 -3907 -3892 0
3908 -3907 3892 0
3908 3907 -3892 0
-3908 0
-3909 3529 0
-3909 44 0
3909 -3529 -44 0
-3910 3531 0
-3910 47 0
3910 -3531 -47 0
-3911 3533 0
-3911 46 0
3911 -3533 -46 0
-3912 3535 0
-3912 47 0
3912 -3535 -47 0
-3913 3537 0
-3913 44 0
3913 -3537 -44 0
-3914 3539 0
-3914 40 0
3914 -3539 -40 0
-3915 3541 0
-3915 92 0
3915 -3541 -92 0
-3916 3543 0
-3916 95 0
3916 -3543 -95 0
-3917 3545 0
-3917 94 0
3917 -3545 -94 0
-3918 3547 0
-3918 95 0
3918 -3547 -95 0
-3919 3549 0
-3919 92 0
3919 -3549 -92 0
-3920 3551 0
-3920 88 0
3920 -3551 -88 0
-3921 3553 0
-3921 140 0
3921 -3553 -140 0
-3922 3555 0
-3922 138 0
3922 -3555 -138 0
-3923 3557 0
-3923 143 0
3923 -3557 -143 0
-3924 3559 0
-3924 135 0
3924 -3559 -135 0
-3925 3561 0
-3925 188 0
3925 -3561 -188 0
-3926 3909 3910 0
-3926 -3909 -3910 0
3926 -3909 3910 0
3926 3909 -3910 0
-3927 3926 3911 0
-3927 -3926 -3911 0
3927 -3926 3911 0
3927 3926 -3911 0
-3928 3927 3912 0
-3928 -3927 -3912 0
3928 -3927 3912 0
3928 3927 -3912 0
-3929 3928 3913 0
-3929 -3928 -3913 0
3929 -3928 3913 0
3929 3928 -3913 0
-3930 3929 3914 0
-3930 -3929 -3914 0
3930 -3929 3914 0
3930 3929 -3914 0
-3931 3930 3915 0
-3931 -3930 -3915 0
3931 -3930 3915 0
3931 3930 -3915 0
-3932 3931 3916 0
-3932 -3931 -3916 0
3932 -3931 3916 0
3932 3931 -3916 0
-3933 3932 3917 0
-3933 -3932 -3917 0
3933 -3932 3917 0
3933 3932 -3917 0
-3934 3933 3918 0
-3934 -3933 -3918 0
3934 -3933 3918 0
3934 3933 -3918 0
-3935 3934 3919 0
-3935 -3934 -3919 0
3935 -3934 3919 0
3935 3934 -3919 0
-3936 3935 3920 0
-3936 -3935 -3920 0
3936 -3935 3920 0
3936 3935 -3920 0
-3937 3936 3921 0
-3937 -3936 -3921 0
3937 -3936 3921 0
3937 3936 -3921 0
-3938 3937 3922 0
-3938 -3937 -3922 0
3938 -3937 3922 0
3938 3937 -3922 0
-3939 3938 3923 0
-3939 -3938 -3923 0
3939 -3938 3923 0
3939 3938 -3923 0
-3940 3939 3924 0
-3940 -3939 -3924 0
3940 -3939 3924 0
3940 3939 -3924 0
-3941 3940 3925 0
-3941 -3940 -3925 0
3941 -3940 3925 0
3941 3940 -3925 0
-3941 0
-3942 3529 0
-3942 45 0
3942 -3529 -45 0
-3943 3531 0
-3943 41 0
3943 -3531 -41 0
-3944 3533 0
-3944 37 0
3944 -3533 -37 0
-3945 3535 0
-3945 36 0
3945 -3535 -36 0
-3946 3537 0
-3946 35 0
3946 -3537 -35 0
-3947 3539 0
-3947 34 0
3947 -3539 -34 0
-3948 3541 0
-3948 93 0
3948 -3541 -93 0
-3949 3543 0
-3949 89 0
3949 -3543 -89 0
-3950 3545 0
-3950 85 0
3950 -3545 -85 0
-3951 3547 0
-3951 84 0
3951 -3547 -84 0
-3952 3549 0
-3952 83 0
3952 -3549 -83 0
-3953 3551 0
-3953 82 0
3953 -3551 -82 0
-3954 3553 0
-3954 141 0
3954 -3553 -141 0
-3955 3555 0
-3955 133 0
3955 -3555 -133 0
-3956 3557 0
-3956 132 0
3956 -3557 -132 0
-3957 3559 0
-3957 130 0
3957 -3559 -130 0
-3958 3561 0
-3958 189 0
3958 -3561 -189 0
-3959 3942 3943 0
-3959 -3942 -3943 0
3959 -3942 3943 0
3959 3942 -3943 0
-3960 3959 3944 0
-3960 -3959 -3944 0
3960 -3959 3944 0
3960 3959 -3944 0
-3961 3960 3945 0
-3961 -3960 -3945 0
3961 -3960 3945 0
3961 3960 -3945 0
-3962 3961 3946 0
-3962 -3961 -3946 0
3962 -3961 3946 0
3962 3961 -3946 0
-3963 3962 3947 0
-3963 -3962 -3947 0
3963 -3962 3947 0
3963 3962 -3947 0
-3964 3963 3948 0
-3964 -3963 -3948 0
3964 -3963 3948 0
3964 3963 -3948 0
-3965 3964 3949 0
-3965 -3964 -3949 0
3965 -3964 3949 0
3965 3964 -3949 0
-3966 3965 3950 0
-3966 -3965 -3950 0
3966 -3965 3950 0
3966 3965 -3950 0
-3967 3966 3951 0
-3967 -3966 -3951 0
3967 -3966 3951 0
3967 3966 -3951 0
-3968 3967 3952 0
-3968 -3967 -3952 0
3968 -3967 3952 0
3968 3967 -3952 0
-3969 3968 3953 0
-3969 -3968 -3953 0
3969 -3968 3953 0
3969 3968 -3953 0
-3970 3969 3954 0
-3970 -3969 -3954 0
3970 -3969 3954 0
3970 3969 -3954 0
-3971 3970 3955 0
-3971 -3970 -3955 0
3971 -3970 3955 0
3971 3970 -3955 0
-3972 3971 3956 0
-3972 -3971 -3956 0
3972 -3971 3956 0
3972 3971 -3956 0
-3973 3972 3957 0
-3973 -3972 -3957 0
3973 -3972 3957 0
3973 3972 -3957 0
-3974 3973 3958 0
-3974 -3973 -3958 0
3974 -3973 3958 0
3974 3973 -3958 0
-3974 0
-3975 3529 0
-3975 46 0
3975 -3529 -46 0
-3976 3531 0
-3976 42 0
3976 -3531 -42 0
-3977 3533 0
-3977 39 0
3977 -3533 -39 0
-3978 3535 0
-3978 40 0
3978 -3535 -40 0
-3979 3537 0
-3979 39 0
3979 -3537 -39 0
-3980 3539 0
-3980 42 0
3980 -3539 -42 0
-3981 3541 0
-3981 94 0
3981 -3541 -94 0
-3982 3543 0
-3982 90 0
3982 -3543 -90 0
-3983 3545 0
-3983 87 0
3983 -3545 -87 0
-3984 3547 0
-3984 88 0
3984 -3547 -88 0
-3985 3549 0
-3985 87 0
3985 -3549 -87 0
-3986 3551 0
-3986 90 0
3986 -3551 -90 0
-3987 3553 0
-3987 142 0
3987 -3553 -142 0
-3988 3555 0
-3988 136 0
3988 -3555 -136 0
-3989 3557 0
-3989 136 0
3989 -3557 -136 0
-3990 3559 0
-3990 142 0
3990 -3559 -142 0
-3991 3561 0
-3991 190 0
3991 -3561 -190 0
-3992 3975 3976 0
-3992 -3975 -3976 0
3992 -3975 3976 0
3992 3975 -3976 0
-3993 3992 3977 0
-3993 -3992 -3977 0
3993 -3992 3977 0
3993 3992 -3977 0
-3994 3993 3978 0
-3994 -3993 -3978 0
3994 -3993 3978 0
3994 3993 -3978 0
-3995 3994 3979 0
-3995 -3994 -3979 0
3995 -3994 3979 0
3995 3994 -3979 0
-3996 3995 3980 0
-3996 -3995 -3980 0
3996 -3995 3980 0
3996 3995 -3980 0
-3997 3996 3981 0
-3997 -3996 -3981 0
3997 -3996 3981 0
3997 3996 -3981 0
-3998 3997 3982 0
-3998 -3997 -3982 0
3998 -3997 3982 0
3998 3997 -3982 0
-3999 3998 3983 0
-3999 -3998 -3983 0
3999 -3998 3983 0
3999 3998 -3983 0
-4000 3999 3984 0
-4000 -3999 -3984 0
4000 -3999 3984 0
4000 3999 -3984 0
-4001 4000 3985 0
-4001 -4000 -3985 0
4001 -4000 3985 0
4001 4000 -3985 0
-4002 4001 3986 0
-4002 -4001 -3986 0
4002 -4001 3986 0
4002 4001 -3986 0
-4003 4002 3987 0
-4003 -4002 -3987 0
4003 -4002 3987 0
4003 4002 -3987 0
-4004 4003 3988 0
-4004 -4003 -3988 0
4004 -4003 3988 0
4004 4003 -3988 0
-4005 4004 3989 0
-4005 -4004 -3989 0
4005 -4004 3989 0
4005 4004 -3989 0
-4006 4005 3990 0
-4006 -4005 -3990 0
4006 -4005 3990 0
4006 4005 -3990 0
-4007 4006 3991 0
-4007 -4006 -3991 0
4007 -4006 3991 0
4007 4006 -3991 0
-4007 0
-4008 3529 0
-4008 47 0
4008 -3529 -47 0
-4009 3531 0
-4009 44 0
4009 -3531 -44 0
-4010 3533 0
-4010 40 0
4010 -3533 -40 0
-4011 3535 0
-4011 44 0
4011 -3535 -44 0
-4012 3537 0
-4012 47 0
4012 -3537 -47 0
-4013 3539 0
-4013 46 0
4013 -3539 -46 0
-4014 3541 0
-4014 95 0
4014 -3541 -95 0
-4015 3543 0
-4015 92 0
4015 -3543 -92 0
-4016 3545 0
-4016 88 0
4016 -3545 -88 0
-4017 3547 0
-4017 92 0
4017 -3547 -92 0
-4018 3549 0
-4018 95 0
4018 -3549 -95 0
-4019 3551 0
-4019 94 0
4019 -3551 -94 0
-4020 3553 0
-4020 143 0
4020 -3553 -143 0
-4021 3555 0
-4021 135 0
4021 -3555 -135 0
-4022 3557 0
-4022 140 0
4022 -3557 -140 0
-4023 3559 0
-4023 138 0
4023 -3559 -138 0
-4024 3561 0
-4024 191 0
4024 -3561 -191 0
-4025 4008 4009 0
-4025 -4008 -4009 0
4025 -4008 4009 0
4025 4008 -4009 0
-4026 4025 4010 0
-4026 -4025 -4010 0
4026 -4025 4010 0
4026 4025 -4010 0
-4027 4026 4011 0
-4027 -4026 -4011 0
4027 -4026 4011 0
4027 4026 -4011 0
-4028 4027 4012 0
-4028 -4027 -4012 0
4028 -4027 4012 0
4028 4027 -4012 0
-4029 4028 4013 0
-4029 -4028 -4013 0
4029 -4028 4013 0
4029 4028 -4013 0
-4030 4029 4014 0
-4030 -4029 -4014 0
4030 -4029 4014 0
4030 4029 -4014 0
-4031 4030 4015 0
-4031 -4030 -4015 0
4031 -4030 4015 0
4031 4030 -4015 0
-4032 4031 4016 0
-4032 -4031 -4016 0
4032 -4031 4016 0
4032 4031 -4016 0
-4033 4032 4017 0
-4033 -4032 -4017 0
4033 -4032 4017 0
4033 4032 -4017 0
-4034 4033 4018 0
-4034 -4033 -4018 0
4034 -4033 4018 0
4034 4033 -4018 0
-4035 4034 4019 0
-4035 -4034 -4019 0
4035 -4034 4019 0
4035 4034 -4019 0
-4036 4035 4020 0
-4036 -4035 -4020 0
4036 -4035 4020 0
4036 4035 -4020 0
-4037 4036 4021 0
-4037 -4036 -4021 0
4037 -4036 4021 0
4037 4036 -4021 0
-4038 4037 4022 0
-4038 -4037 -4022 0
4038 -4037 4022 0
4038 4037 -4022 0
-4039 4038 4023 0
-4039 -4038 -4023 0
4039 -4038 4023 0
4039 4038 -4023 0
-4040 4039 4024 0
-4040 -4039 -4024 0
4040 -4039 4024 0
4040 4039 -4024 0
-4040 0
-4041 3529 0
-4041 48 0
4041 -3529 -48 0
-4042 3531 0
-4042 43 0
4042 -3531 -43 0
-4043 3533 0
-4043 38 0
4043 -3533 -38 0
-4044 3535 0
-4044 48 0
4044 -3535 -48 0
-4045 3537 0
-4045 43 0
4045 -3537 -43 0
-4046 3539 0
-4046 38 0
4046 -3539 -38 0
-4047 3541 0
-4047 96 0
4047 -3541 -96 0
-4048 3543 0
-4048 91 0
4048 -3543 -91 0
-4049 3545 0
-4049 86 0
4049 -3545 -86 0
-4050 3547 0
-4050 96 0
4050 -3547 -96 0
-4051 3549 0
-4051 91 0
4051 -3549 -91 0
-4052 3551 0
-4052 86 0
4052 -3551 -86 0
-4053 3553 0
-4053 144 0
4053 -3553 -144 0
-4054 3555 0
-4054 134 0
4054 -3555 -134 0
-4055 3557 0
-4055 144 0
4055 -3557 -144 0
-4056 3559 0
-4056 134 0
4056 -3559 -134 0
-4057 3561 0
-4057 192 0
4057 -3561 -192 0
-4058 4041 4042 0
-4058 -4041 -4042 0
4058 -4041 4042 0
4058 4041 -4042 0
-4059 4058 4043 0
-4059 -4058 -4043 0
4059 -4058 4043 0
4059 4058 -4043 0
-4060 4059 4044 0
-4060 -4059 -4044 0
4060 -4059 4044 0
4060 4059 -4044 0
-4061 4060 4045 0
-4061 -4060 -4045 0
4061 -4060 4045 0
4061 4060 -4045 0
-4062 4061 4046 0
-4062 -4061 -4046 0
4062 -4061 4046 0
4062 4061 -4046 0
-4063 4062 4047 0
-4063 -4062 -4047 0
4063 -4062 4047 0
4063 4062 -4047 0
-4064 4063 4048 0
-4064 -4063 -4048 0
4064 -4063 4048 0
4064 4063 -4048 0
-4065 4064 4049 0
-4065 -4064 -4049 0
4065 -4064 4049 0
4065 4064 -4049 0
-4066 4065 4050 0
-4066 -4065 -4050 0
4066 -4065 4050 0
4066 4065 -4050 0
-4067 4066 4051 0
-4067 -4066 -4051 0
4067 -4066 4051 0
4067 4066 -4051 0
-4068 4067 4052 0
-4068 -4067 -4052 0
4068 -4067 4052 0
4068 4067 -4052 0
-4069 4068 4053 0
-4069 -4068 -4053 0
4069 -4068 4053 0
4069 4068 -4053 0
-4070 4069 4054 0
-4070 -4069 -4054 0
4070 -4069 4054 0
4070 4069 -4054 0
-4071 4070 4055 0
-4071 -4070 -4055 0
4071 -4070 4055 0
4071 4070 -4055 0
-4072 4071 4056 0
-4072 -4071 -4056 0
4072 -4071 4056 0
4072 4071 -4056 0
-4073 4072 4057 0
-4073 -4072 -4057 0
4073 -4072 4057 0
4073 4072 -4057 0
-4073 0
-4074 1 0
-4074 31 0
4074 -1 -31 0
-4075 4074 0
-4075 33 0
4075 -4074 -33 0
-4076 2 0
-4076 32 0
4076 -2 -32 0
-4077 4076 0
-4077 33 0
4077 -4076 -33 0
-4078 17 0
-4078 12 0
4078 -17 -12 0
-4079 4078 0
-4079 33 0
4079 -4078 -33 0
-4080 21 0
-4080 16 0
4080 -21 -16 0
-4081 4080 0
-4081 33 0
4081 -4080 -33 0
-4082 49 0
-4082 79 0
4082 -49 -79 0
-4083 4082 0
-4083 81 0
4083 -4082 -81 0
-4084 50 0
-4084 80 0
4084 -50 -80 0
-4085 4084 0
-4085 81 0
4085 -4084 -81 0
-4086 65 0
-4086 60 0
4086 -65 -60 0
-4087 4086 0
-4087 81 0
4087 -4086 -81 0
-4088 69 0
-4088 64 0
4088 -69 -64 0
-4089 4088 0
-4089 81 0
4089 -4088 -81 0
-4090 97 0
-4090 127 0
4090 -97 -127 0
-4091 4090 0
-4091 129 0
4091 -4090 -129 0
-4092 113 0
-4092 108 0
4092 -113 -108 0
-4093 4092 0
-4093 129 0
4093 -4092 -129 0
-4094 145 0
-4094 175 0
4094 -145 -175 0
-4095 4094 0
-4095 177 0
4095 -4094 -177 0
-4096 4075 4077 0
-4096 -4075 -4077 0
4096 -4075 4077 0
4096 4075 -4077 0
-4097 4096 4077 0
-4097 -4096 -4077 0
4097 -4096 4077 0
4097 4096 -4077 0
-4098 4097 4079 0
-4098 -4097 -4079 0
4098 -4097 4079 0
4098 4097 -4079 0
-4099 4098 4081 0
-4099 -4098 -4081 0
4099 -4098 4081 0
4099 4098 -4081 0
-4100 4099 4081 0
-4100 -4099 -4081 0
4100 -4099 4081 0
4100 4099 -4081 0
-4101 4100 4083 0
-4101 -4100 -4083 0
4101 -4100 4083 0
4101 4100 -4083 0
-4102 4101 4085 0
-4102 -4101 -4085 0
4102 -4101 4085 0
4102 4101 -4085 0
-4103 4102 4085 0
-4103 -4102 -4085 0
4103 -4102 4085 0
4103 4102 -4085 0
-4104 4103 4087 0
-4104 -4103 -4087 0
4104 -4103 4087 0
4104 4103 -4087 0
-4105 4104 4089 0
-4105 -4104 -4089 0
4105 -4104 4089 0
4105 4104 -4089 0
-4106 4105 4089 0
-4106 -4105 -4089 0
4106 -4105 4089 0
4106 4105 -4089 0
-4107 4106 4091 0
-4107 -4106 -4091 0
4107 -4106 4091 0
4107 4106 -4091 0
-4108 4107 4091 0
-4108 -4107 -4091 0
4108 -4107 4091 0
4108 4107 -4091 0
-4109 4108 4093 0
-4109 -4108 -4093 0
4109 -4108 4093 0
4109 4108 -4093 0
-4110 4109 4093 0
-4110 -4109 -4093 0
4110 -4109 4093 0
4110 4109 -4093 0
-4111 4110 4095 0
-4111 -4110 -4095 0
4111 -4110 4095 0
4111 4110 -4095 0
-4111 0
-4112 4074 0
-4112 34 0
4112 -4074 -34 0
-4113 4076 0
-4113 34 0
4113 -4076 -34 0
-4114 4076 0
-4114 35 0
4114 -4076 -35 0
-4115 4078 0
-4115 37 0
4115 -4078 -37 0
-4116 4080 0
-4116 37 0
4116 -4080 -37 0
-4117 4080 0
-4117 41 0
4117 -4080 -41 0
-4118 4082 0
-4118 82 0
4118 -4082 -82 0
-4119 4084 0
-4119 82 0
4119 -4084 -82 0
-4120 4084 0
-4120 83 0
4120 -4084 -83 0
-4121 4086 0
-4121 85 0
4121 -4086 -85 0
-4122 4088 0
-4122 85 0
4122 -4088 -85 0
-4123 4088 0
-4123 89 0
4123 -4088 -89 0
-4124 4090 0
-4124 130 0
4124 -4090 -130 0
-4125 4090 0
-4125 132 0
4125 -4090 -132 0
-4126 4092 0
-4126 133 0
4126 -4092 -133 0
-4127 4092 0
-4127 141 0
4127 -4092 -141 0
-4128 4094 0
-4128 178 0
4128 -4094 -178 0
-4129 4112 4113 0
-4129 -4112 -4113 0
4129 -4112 4113 0
4129 4112 -4113 0
-4130 4129 4114 0
-4130 -4129 -4114 0
4130 -4129 4114 0
4130 4129 -4114 0
-4131 4130 4115 0
-4131 -4130 -4115 0
4131 -4130 4115 0
4131 4130 -4115 0
-4132 4131 4116 0
-4132 -4131 -4116 0
4132 -4131 4116 0
4132 4131 -4116 0
-4133 4132 4117 0
-4133 -4132 -4117 0
4133 -4132 4117 0
4133 4132 -4117 0
-4134 4133 4118 0
-4134 -4133 -4118 0
4134 -4133 4118 0
4134 4133 -4118 0
-4135 4134 4119 0
-4135 -4134 -4119 0
4135 -4134 4119 0
4135 4134 -4119 0
-4136 4135 4120 0
-4136 -4135 -4120 0
4136 -4135 4120 0
4136 4135 -4120 0
-4137 4136 4121 0
-4137 -4136 -4121 0
4137 -4136 4121 0
4137 4136 -4121 0
-4138 4137 4122 0
-4138 -4137 -4122 0
4138 -4137 4122 0
4138 4137 -4122 0
-4139 4138 4123 0
-4139 -4138 -4123 0
4139 -4138 4123 0
4139 4138 -4123 0
-4140 4139 4124 0
-4140 -4139 -4124 0
4140 -4139 4124 0
4140 4139 -4124 0
-4141 4140 4125 0
-4141 -4140 -4125 0
4141 -4140 4125 0
4141 4140 -4125 0
-4142 4141 4126 0
-4142 -4141 -4126 0
4142 -4141 4126 0
4142 4141 -4126 0
-4143 4142 4127 0
-4143 -4142 -4127 0
4143 -4142 4127 0
4143 4142 -4127 0
-4144 4143 4128 0
-4144 -4143 -4128 0
4144 -4143 4128 0
4144 4143 -4128 0
-4144 0
-4145 4074 0
-4145 35 0
4145 -4074 -35 0
-4146 4076 0
-4146 36 0
4146 -4076 -36 0
-4147 4078 0
-4147 41 0
4147 -4078 -41 0
-4148 4080 0
-4148 45 0
4148 -4080 -45 0
-4149 4082 0
-4149 83 0
4149 -4082 -83 0
-4150 4084 0
-4150 84 0
4150 -4084 -84 0
-4151 4086 0
-4151 89 0
4151 -4086 -89 0
-4152 4088 0
-4152 93 0
4152 -4088 -93 0
-4153 4090 0
-4153 131 0
4153 -4090 -131 0
-4154 4092 0
-4154 137 0
4154 -4092 -137 0
-4155 4094 0
-4155 179 0
4155 -4094 -179 0
-4156 4145 4146 0
-4156 -4145 -4146 0
4156 -4145 4146 0
4156 4145 -4146 0
-4157 4156 4146 0
-4157 -4156 -4146 0
4157 -4156 4146 0
4157 4156 -4146 0
-4158 4157 4147 0
-4158 -4157 -4147 0
4158 -4157 4147 0
4158 4157 -4147 0
-4159 4158 4148 0
-4159 -4158 -4148 0
4159 -4158 4148 0
4159 4158 -4148 0
-4160 4159 4148 0
-4160 -4159 -4148 0
4160 -4159 4148 0
4160 4159 -4148 0
-4161 4160 4149 0
-4161 -4160 -4149 0
4161 -4160 4149 0
4161 4160 -4149 0
-4162 4161 4150 0
-4162 -4161 -4150 0
4162 -4161 4150 0
4162 4161 -4150 0
-4163 4162 4150 0
-4163 -4162 -4150 0
4163 -4162 4150 0
4163 4162 -4150 0
-4164 4163 4151 0
-4164 -4163 -4151 0
4164 -4163 4151 0
4164 4163 -4151 0
-4165 4164 4152 0
-4165 -4164 -4152 0
4165 -4164 4152 0
4165 4164 -4152 0
-4166 4165 4152 0
-4166 -4165 -4152 0
4166 -4165 4152 0
4166 4165 -4152 0
-4167 4166 4153 0
-4167 -4166 -4153 0
4167 -4166 4153 0
4167 4166 -4153 0
-4168 4167 4153 0
-4168 -4167 -4153 0
4168 -4167 4153 0
4168 4167 -4153 0
-4169 4168 4154 0
-4169 -4168 -4154 0
4169 -4168 4154 0
4169 4168 -4154 0
-4170 4169 4154 0
-4170 -4169 -4154 0
4170 -4169 4154 0
4170 4169 -4154 0
-4171 4170 4155 0
-4171 -4170 -4155 0
4171 -4170 4155 0
4171 4170 -4155 0
-4171 0
-4172 4074 0
-4172 37 0
4172 -4074 -37 0
-4173 4076 0
-4173 37 0
4173 -4076 -37 0
-4174 4076 0
-4174 41 0
4174 -4076 -41 0
-4175 4078 0
-4175 34 0
4175 -4078 -34 0
-4176 4080 0
-4176 34 0
4176 -4080 -34 0
-4177 4080 0
-4177 35 0
4177 -4080 -35 0
-4178 4082 0
-4178 85 0
4178 -4082 -85 0
-4179 4084 0
-4179 85 0
4179 -4084 -85 0
-4180 4084 0
-4180 89 0
4180 -4084 -89 0
-4181 4086 0
-4181 82 0
4181 -4086 -82 0
-4182 4088 0
-4182 82 0
4182 -4088 -82 0
-4183 4088 0
-4183 83 0
4183 -4088 -83 0
-4184 4090 0
-4184 133 0
4184 -4090 -133 0
-4185 4090 0
-4185 141 0
4185 -4090 -141 0
-4186 4092 0
-4186 130 0
4186 -4092 -130 0
-4187 4092 0
-4187 132 0
4187 -4092 -132 0
-4188 4094 0
-4188 181 0
4188 -4094 -181 0
-4189 4172 4173 0
-4189 -4172 -4173 0
4189 -4172 4173 0
4189 4172 -4173 0
-4190 4189 4174 0
-4190 -4189 -4174 0
4190 -4189 4174 0
4190 4189 -4174 0
-4191 4190 4175 0
-4191 -4190 -4175 0
4191 -4190 4175 0
4191 4190 -4175 0
-4192 4191 4176 0
-4192 -4191 -4176 0
4192 -4191 4176 0
4192 4191 -4176 0
-4193 4192 4177 0
-4193 -4192 -4177 0
4193 -4192 4177 0
4193 4192 -4177 0
-4194 4193 4178 0
-4194 -4193 -4178 0
4194 -4193 4178 0
4194 4193 -4178 0
-4195 4194 4179 0
-4195 -4194 -4179 0
4195 -4194 4179 0
4195 4194 -4179 0
-4196 4195 4180 0
-4196 -4195 -4180 0
4196 -4195 4180 0
4196 4195 -4180 0
-4197 4196 4181 0
-4197 -4196 -4181 0
4197 -4196 4181 0
4197 4196 -4181 0
-4198 4197 4182 0
-4198 -4197 -4182 0
4198 -4197 4182 0
4198 4197 -4182 0
-4199 4198 4183 0
-4199 -4198 -4183 0
4199 -4198 4183 0
4199 4198 -4183 0
-4200 4199 4184 0
-4200 -4199 -4184 0
4200 -4199 4184 0
4200 4199 -4184 0
-4201 4200 4185 0
-4201 -4200 -4185 0
4201 -4200 4185 0
4201 4200 -4185 0
-4202 4201 4186 0
-4202 -4201 -4186 0
4202 -4201 4186 0
4202 4201 -4186 0
-4203 4202 4187 0
-4203 -4202 -4187 0
4203 -4202 4187 0
4203 4202 -4187 0
-4204 4203 4188 0
-4204 -4203 -4188 0
4204 -4203 4188 0
4204 4203 -4188 0
-4204 0
-4205 4074 0
-4205 38 0
4205 -4074 -38 0
-4206 4076 0
-4206 38 0
4206 -4076 -38 0
-4207 4076 0
-4207 43 0
4207 -4076 -43 0
-4208 4078 0
-4208 38 0
4208 -4078 -38 0
-4209 4080 0
-4209 38 0
4209 -4080 -38 0
-4210 4080 0
-4210 43 0
4210 -4080 -43 0
-4211 4082 0
-4211 86 0
4211 -4082 -86 0
-4212 4084 0
-4212 86 0
4212 -4084 -86 0
-4213 4084 0
-4213 91 0
4213 -4084 -91 0
-4214 4086 0
-4214 86 0
4214 -4086 -86 0
-4215 4088 0
-4215 86 0
4215 -4088 -86 0
-4216 4088 0
-4216 91 0
4216 -4088 -91 0
-4217 4090 0
-4217 134 0
4217 -4090 -134 0
-4218 4090 0
-4218 144 0
4218 -4090 -144 0
-4219 4092 0
-4219 134 0
4219 -4092 -134 0
-4220 4092 0
-4220 144 0
4220 -4092 -144 0
-4221 4094 0
-4221 182 0
4221 -4094 -182 0
-4222 4205 4206 0
-4222 -4205 -4206 0
4222 -4205 4206 0
4222 4205 -4206 0
-4223 4222 4207 0
-4223 -4222 -4207 0
4223 -4222 4207 0
4223 4222 -4207 0
-4224 4223 4208 0
-4224 -4223 -4208 0
4224 -4223 4208 0
4224 4223 -4208 0
-4225 4224 4209 0
-4225 -4224 -4209 0
4225 -4224 4209 0
4225 4224 -4209 0
-4226 4225 4210 0
-4226 -4225 -4210 0
4226 -4225 4210 0
4226 4225 -4210 0
-4227 4226 4211 0
-4227 -4226 -4211 0
4227 -4226 4211 0
4227 4226 -4211 0
-4228 4227 4212 0
-4228 -4227 -4212 0
4228 -4227 4212 0
4228 4227 -4212 0
-4229 4228 4213 0
-4229 -4228 -4213 0
4229 -4228 4213 0
4229 4228 -4213 0
-4230 4229 4214 0
-4230 -4229 -4214 0
4230 -4229 4214 0
4230 4229 -4214 0
-4231 4230 4215 0
-4231 -4230 -4215 0
4231 -4230 4215 0
4231 4230 -4215 0
-4232 4231 4216 0
-4232 -4231 -4216 0
4232 -4231 4216 0
4232 4231 -4216 0
-4233 4232 4217 0
-4233 -4232 -4217 0
4233 -4232 4217 0
4233 4232 -4217 0
-4234 4233 4218 0
-4234 -4233 -4218 0
4234 -4233 4218 0
4234 4233 -4218 0
-4235 4234 4219 0
-4235 -4234 -4219 0
4235 -4234 4219 0
4235 4234 -4219 0
-4236 4235 4220 0
-4236 -4235 -4220 0
4236 -4235 4220 0
4236 4235 -4220 0
-4237 4236 4221 0
-4237 -4236 -4221 0
4237 -4236 4221 0
4237 4236 -4221 0
-4237 0
-4238 4074 0
-4238 39 0
4238 -4074 -39 0
-4239 4076 0
-4239 40 0
4239 -4076 -40 0
-4240 4076 0
-4240 44 0
4240 -4076 -44 0
-4241 4078 0
-4241 42 0
4241 -4078 -42 0
-4242 4080 0
-4242 46 0
4242 -4080 -46 0
-4243 4080 0
-4243 47 0
4243 -4080 -47 0
-4244 4082 0
-4244 87 0
4244 -4082 -87 0
-4245 4084 0
-4245 88 0
4245 -4084 -88 0
-4246 4084 0
-4246 92 0
4246 -4084 -92 0
-4247 4086 0
-4247 90 0
4247 -4086 -90 0
-4248 4088 0
-4248 94 0
4248 -4088 -94 0
-4249 4088 0
-4249 95 0
4249 -4088 -95 0
-4250 4090 0
-4250 135 0
4250 -4090 -135 0
-4251 4090 0
-4251 143 0
4251 -4090 -143 0
-4252 4092 0
-4252 138 0
4252 -4092 -138 0
-4253 4092 0
-4253 140 0
4253 -4092 -140 0
-4254 4094 0
-4254 183 0
4254 -4094 -183 0
-4255 4238 4239 0
-4255 -4238 -4239 0
4255 -4238 4239 0
4255 4238 -4239 0
-4256 4255 4240 0
-4256 -4255 -4240 0
4256 -4255 4240 0
4256 4255 -4240 0
-4257 4256 4241 0
-4257 -4256 -4241 0
4257 -4256 4241 0
4257 4256 -4241 0
-4258 4257 4242 0
-4258 -4257 -4242 0
4258 -4257 4242 0
4258 4257 -4242 0
-4259 4258 4243 0
-4259 -4258 -4243 0
4259 -4258 4243 0
4259 4258 -4243 0
-4260 4259 4244 0
-4260 -4259 -4244 0
4260 -4259 4244 0
4260 4259 -4244 0
-4261 4260 4245 0
-4261 -4260 -4245 0
4261 -4260 4245 0
4261 4260 -4245 0
-4262 4261 4246 0
-4262 -4261 -4246 0
4262 -4261 4246 0
4262 4261 -4246 0
-4263 4262 4247 0
-4263 -4262 -4247 0
4263 -4262 4247 0
4263 4262 -4247 0
-4264 4263 4248 0
-4264 -4263 -4248 0
4264 -4263 4248 0
4264 4263 -4248 0
-4265 4264 4249 0
-4265 -4264 -4249 0
4265 -4264 4249 0
4265 4264 -4249 0
-4266 4265 4250 0
-4266 -4265 -4250 0
4266 -4265 4250 0
4266 4265 -4250 0
-4267 4266 4251 0
-4267 -4266 -4251 0
4267 -4266 4251 0
4267 4266 -4251 0
-4268 4267 4252 0
-4268 -4267 -4252 0
4268 -4267 4252 0
4268 4267 -4252 0
-4269 4268 4253 0
-4269 -4268 -4253 0
4269 -4268 4253 0
4269 4268 -4253 0
-4270 4269 4254 0
-4270 -4269 -4254 0
4270 -4269 4254 0
4270 4269 -4254 0
-4270 0
-4271 4074 0
-4271 40 0
4271 -4074 -40 0
-4272 4076 0
-4272 39 0
4272 -4076 -39 0
-4273 4076 0
-4273 42 0
4273 -4076 -42 0
-4274 4078 0
-4274 46 0
4274 -4078 -46 0
-4275 4080 0
-4275 42 0
4275 -4080 -42 0
-4276 4080 0
-4276 39 0
4276 -4080 -39 0
-4277 4082 0
-4277 88 0
4277 -4082 -88 0
-4278 4084 0
-4278 87 0
4278 -4084 -87 0
-4279 4084 0
-4279 90 0
4279 -4084 -90 0
-4280 4086 0
-4280 94 0
4280 -4086 -94 0
-4281 4088 0
-4281 90 0
4281 -4088 -90 0
-4282 4088 0
-4282 87 0
4282 -4088 -87 0
-4283 4090 0
-4283 136 0
4283 -4090 -136 0
-4284 4090 0
-4284 142 0
4284 -4090 -142 0
-4285 4092 0
-4285 142 0
4285 -4092 -142 0
-4286 4092 0
-4286 136 0
4286 -4092 -136 0
-4287 4094 0
-4287 184 0
4287 -4094 -184 0
-4288 4271 4272 0
-4288 -4271 -4272 0
4288 -4271 4272 0
4288 4271 -4272 0
-4289 4288 4273 0
-4289 -4288 -4273 0
4289 -4288 4273 0
4289 4288 -4273 0
-4290 4289 4274 0
-4290 -4289 -4274 0
4290 -4289 4274 0
4290 4289 -4274 0
-4291 4290 4275 0
-4291 -4290 -4275 0
4291 -4290 4275 0
4291 4290 -4275 0
-4292 4291 4276 0
-4292 -4291 -4276 0
4292 -4291 4276 0
4292 4291 -4276 0
-4293 4292 4277 0
-4293 -4292 -4277 0
4293 -4292 4277 0
4293 4292 -4277 0
-4294 4293 4278 0
-4294 -4293 -4278 0
4294 -4293 4278 0
4294 4293 -4278 0
-4295 4294 4279 0
-4295 -4294 -4279 0
4295 -4294 4279 0
4295 4294 -4279 0
-4296 4295 4280 0
-4296 -4295 -4280 0
4296 -4295 4280 0
4296 4295 -4280 0
-4297 4296 4281 0
-4297 -4296 -4281 0
4297 -4296 4281 0
4297 4296 -4281 0
-4298 4297 4282 0
-4298 -4297 -4282 0
4298 -4297 4282 0
4298 4297 -4282 0
-4299 4298 4283 0
-4299 -4298 -4283 0
4299 -4298 4283 0
4299 4298 -4283 0
-4300 4299 4284 0
-4300 -4299 -4284 0
4300 -4299 4284 0
4300 4299 -4284 0
-4301 4300 4285 0
-4301 -4300 -4285 0
4301 -4300 4285 0
4301 4300 -4285 0
-4302 4301 4286 0
-4302 -4301 -4286 0
4302 -4301 4286 0
4302 4301 -4286 0
-4303 4302 4287 0
-4303 -4302 -4287 0
4303 -4302 4287 0
4303 4302 -4287 0
-4303 0
-4304 4074 0
-4304 41 0
4304 -4074 -41 0
-4305 4076 0
-4305 45 0
4305 -4076 -45 0
-4306 4078 0
-4306 35 0
4306 -4078 -35 0
-4307 4080 0
-4307 36 0
4307 -4080 -36 0
-4308 4082 0
-4308 89 0
4308 -4082 -89 0
-4309 4084 0
-4309 93 0
4309 -4084 -93 0
-4310 4086 0
-4310 83 0
4310 -4086 -83 0
-4311 4088 0
-4311 84 0
4311 -4088 -84 0
-4312 4090 0
-4312 137 0
4312 -4090 -137 0
-4313 4092 0
-4313 131 0
4313 -4092 -131 0
-4314 4094 0
-4314 185 0
4314 -4094 -185 0
-4315 4304 4305 0
-4315 -4304 -4305 0
4315 -4304 4305 0
4315 4304 -4305 0
-4316 4315 4305 0
-4316 -4315 -4305 0
4316 -4315 4305 0
4316 4315 -4305 0
-4317 4316 4306 0
-4317 -4316 -4306 0
4317 -4316 4306 0
4317 4316 -4306 0
-4318 4317 4307 0
-4318 -4317 -4307 0
4318 -4317 4307 0
4318 4317 -4307 0
-4319 4318 4307 0
-4319 -4318 -4307 0
4319 -4318 4307 0
4319 4318 -4307 0
-4320 4319 4308 0
-4320 -4319 -4308 0
4320 -4319 4308 0
4320 4319 -4308 0
-4321 4320 4309 0
-4321 -4320 -4309 0
4321 -4320 4309 0
4321 4320 -4309 0
-4322 4321 4309 0
-4322 -4321 -4309 0
4322 -4321 4309 0
4322 4321 -4309 0
-4323 4322 4310 0
-4323 -4322 -4310 0
4323 -4322 4310 0
4323 4322 -4310 0
-4324 4323 4311 0
-4324 -4323 -4311 0
4324 -4323 4311 0
4324 4323 -4311 0
-4325 4324 4311 0
-4325 -4324 -4311 0
4325 -4324 4311 0
4325 4324 -4311 0
-4326 4325 4312 0
-4326 -4325 -4312 0
4326 -4325 4312 0
4326 4325 -4312 0
-4327 4326 4312 0
-4327 -4326 -4312 0
4327 -4326 4312 0
4327 4326 -4312 0
-4328 4327 4313 0
-4328 -4327 -4313 0
4328 -4327 4313 0
4328 4327 -4313 0
-4329 4328 4313 0
-4329 -4328 -4313 0
4329 -4328 4313 0
4329 4328 -4313 0
-4330 4329 4314 0
-4330 -4329 -4314 0
4330 -4329 4314 0
4330 4329 -4314 0
-4330 0
-4331 4074 0
-4331 42 0
4331 -4074 -42 0
-4332 4076 0
-4332 46 0
4332 -4076 -46 0
-4333 4076 0
-4333 47 0
4333 -4076 -47 0
-4334 4078 0
-4334 39 0
4334 -4078 -39 0
-4335 4080 0
-4335 40 0
4335 -4080 -40 0
-4336 4080 0
-4336 44 0
4336 -4080 -44 0
-4337 4082 0
-4337 90 0
4337 -4082 -90 0
-4338 4084 0
-4338 94 0
4338 -4084 -94 0
-4339 4084 0
-4339 95 0
4339 -4084 -95 0
-4340 4086 0
-4340 87 0
4340 -4086 -87 0
-4341 4088 0
-4341 88 0
4341 -4088 -88 0
-4342 4088 0
-4342 92 0
4342 -4088 -92 0
-4343 4090 0
-4343 138 0
4343 -4090 -138 0
-4344 4090 0
-4344 140 0
4344 -4090 -140 0
-4345 4092 0
-4345 135 0
4345 -4092 -135 0
-4346 4092 0
-4346 143 0
4346 -4092 -143 0
-4347 4094 0
-4347 186 0
4347 -4094 -186 0
-4348 4331 4332 0
-4348 -4331 -4332 0
4348 -4331 4332 0
4348 4331 -4332 0
-4349 4348 4333 0
-4349 -4348 -4333 0
4349 -4348 4333 0
4349 4348 -4333 0
-4350 4349 4334 0
-4350 -4349 -4334 0
4350 -4349 4334 0
4350 4349 -4334 0
-4351 4350 4335 0
-4351 -4350 -4335 0
4351 -4350 4335 0
4351 4350 -4335 0
-4352 4351 4336 0
-4352 -4351 -4336 0
4352 -4351 4336 0
4352 4351 -4336 0
-4353 4352 4337 0
-4353 -4352 -4337 0
4353 -4352 4337 0
4353 4352 -4337 0
-4354 4353 4338 0
-4354 -4353 -4338 0
4354 -4353 4338 0
4354 4353 -4338 0
-4355 4354 4339 0
-4355 -4354 -4339 0
4355 -4354 4339 0
4355 4354 -4339 0
-4356 4355 4340 0
-4356 -4355 -4340 0
4356 -4355 4340 0
4356 4355 -4340 0
-4357 4356 4341 0
-4357 -4356 -4341 0
4357 -4356 4341 0
4357 4356 -4341 0
-4358 4357 4342 0
-4358 -4357 -4342 0
4358 -4357 4342 0
4358 4357 -4342 0
-4359 4358 4343 0
-4359 -4358 -4343 0
4359 -4358 4343 0
4359 4358 -4343 0
-4360 4359 4344 0
-4360 -4359 -4344 0
4360 -4359 4344 0
4360 4359 -4344 0
-4361 4360 4345 0
-4361 -4360 -4345 0
4361 -4360 4345 0
4361 4360 -4345 0
-4362 4361 4346 0
-4362 -4361 -4346 0
4362 -4361 4346 0
4362 4361 -4346 0
-4363 4362 4347 0
-4363 -4362 -4347 0
4363 -4362 4347 0
4363 4362 -4347 0
-4363 0
-4364 4074 0
-4364 43 0
4364 -4074 -43 0
-4365 4076 0
-4365 48 0
4365 -4076 -48 0
-4366 4078 0
-4366 43 0
4366 -4078 -43 0
-4367 4080 0
-4367 48 0
4367 -4080 -48 0
-4368 4082 0
-4368 91 0
4368 -4082 -91 0
-4369 4084 0
-4369 96 0
4369 -4084 -96 0
-4370 4086 0
-4370 91 0
4370 -4086 -91 0
-4371 4088 0
-4371 96 0
4371 -4088 -96 0
-4372 4090 0
-4372 139 0
4372 -4090 -139 0
-4373 4092 0
-4373 139 0
4373 -4092 -139 0
-4374 4094 0
-4374 187 0
4374 -4094 -187 0
-4375 4364 4365 0
-4375 -4364 -4365 0
4375 -4364 4365 0
4375 4364 -4365 0
-4376 4375 4365 0
-4376 -4375 -4365 0
4376 -4375 4365 0
4376 4375 -4365 0
-4377 4376 4366 0
-4377 -4376 -4366 0
4377 -4376 4366 0
4377 4376 -4366 0
-4378 4377 4367 0
-4378 -4377 -4367 0
4378 -4377 4367 0
4378 4377 -4367 0
-4379 4378 4367 0
-4379 -4378 -4367 0
4379 -4378 4367 0
4379 4378 -4367 0
-4380 4379 4368 0
-4380 -4379 -4368 0
4380 -4379 4368 0
4380 4379 -4368 0
-4381 4380 4369 0
-4381 -4380 -4369 0
4381 -4380 4369 0
4381 4380 -4369 0
-4382 4381 4369 0
-4382 -4381 -4369 0
4382 -4381 4369 0
4382 4381 -4369 0
-4383 4382 4370 0
-4383 -4382 -4370 0
4383 -4382 4370 0
4383 4382 -4370 0
-4384 4383 4371 0
-4384 -4383 -4371 0
4384 -4383 4371 0
4384 4383 -4371 0
-4385 4384 4371 0
-4385 -4384 -4371 0
4385 -4384 4371 0
4385 4384 -4371 0
-4386 4385 4372 0
-4386 -4385 -4372 0
4386 -4385 4372 0
4386 4385 -4372 0
-4387 4386 4372 0
-4387 -4386 -4372 0
4387 -4386 4372 0
4387 4386 -4372 0
-4388 4387 4373 0
-4388 -4387 -4373 0
4388 -4387 4373 0
4388 4387 -4373 0
-4389 4388 4373 0
-4389 -4388 -4373 0
4389 -4388 4373 0
4389 4388 -4373 0
-4390 4389 4374 0
-4390 -4389 -4374 0
4390 -4389 4374 0
4390 4389 -4374 0
-4390 0
-4391 4 0
-4391 18 0
4391 -4 -18 0
-4392 4391 0
-4392 33 0
4392 -4391 -33 0
-4393 4 0
-4393 22 0
4393 -4 -22 0
-4394 4393 0
-4394 33 0
4394 -4393 -33 0
-4395 4 0
-4395 23 0
4395 -4 -23 0
-4396 4395 0
-4396 33 0
4396 -4395 -33 0
-4397 29 0
-4397 5 0
4397 -29 -5 0
-4398 4397 0
-4398 33 0
4398 -4397 -33 0
-4399 29 0
-4399 6 0
4399 -29 -6 0
-4400 4399 0
-4400 33 0
4400 -4399 -33 0
-4401 29 0
-4401 10 0
4401 -29 -10 0
-4402 4401 0
-4402 33 0
4402 -4401 -33 0
-4403 52 0
-4403 66 0
4403 -52 -66 0
-4404 4403 0
-4404 81 0
4404 -4403 -81 0
-4405 52 0
-4405 70 0
4405 -52 -70 0
-4406 4405 0
-4406 81 0
4406 -4405 -81 0
-4407 52 0
-4407 71 0
4407 -52 -71 0
-4408 4407 0
-4408 81 0
4408 -4407 -81 0
-4409 77 0
-4409 53 0
4409 -77 -53 0
-4410 4409 0
-4410 81 0
4410 -4409 -81 0
-4411 77 0
-4411 54 0
4411 -77 -54 0
-4412 4411 0
-4412 81 0
4412 -4411 -81 0
-4413 77 0
-4413 58 0
4413 -77 -58 0
-4414 4413 0
-4414 81 0
4414 -4413 -81 0
-4415 100 0
-4415 114 0
4415 -100 -114 0
-4416 4415 0
-4416 129 0
4416 -4415 -129 0
-4417 100 0
-4417 116 0
4417 -100 -116 0
-4418 4417 0
-4418 129 0
4418 -4417 -129 0
-4419 125 0
-4419 101 0
4419 -125 -101 0
-4420 4419 0
-4420 129 0
4420 -4419 -129 0
-4421 125 0
-4421 109 0
4421 -125 -109 0
-4422 4421 0
-4422 129 0
4422 -4421 -129 0
-4423 148 0
-4423 162 0
4423 -148 -162 0
-4424 4423 0
-4424 177 0
4424 -4423 -177 0
-4425 4392 4394 0
-4425 -4392 -4394 0
4425 -4392 4394 0
4425 4392 -4394 0
-4426 4425 4396 0
-4426 -4425 -4396 0
4426 -4425 4396 0
4426 4425 -4396 0
-4427 4426 4398 0
-4427 -4426 -4398 0
4427 -4426 4398 0
4427 4426 -4398 0
-4428 4427 4400 0
-4428 -4427 -4400 0
4428 -4427 4400 0
4428 4427 -4400 0
-4429 4428 4402 0
-4429 -4428 -4402 0
4429 -4428 4402 0
4429 4428 -4402 0
-4430 4429 4404 0
-4430 -4429 -4404 0
4430 -4429 4404 0
4430 4429 -4404 0
-4431 4430 4406 0
-4431 -4430 -4406 0
4431 -4430 4406 0
4431 4430 -4406 0
-4432 4431 4408 0
-4432 -4431 -4408 0
4432 -4431 4408 0
4432 4431 -4408 0
-4433 4432 4410 0
-4433 -4432 -4410 0
4433 -4432 4410 0
4433 4432 -4410 0
-4434 4433 4412 0
-4434 -4433 -4412 0
4434 -4433 4412 0
4434 4433 -4412 0
-4435 4434 4414 0
-4435 -4434 -4414 0
4435 -4434 4414 0
4435 4434 -4414 0
-4436 4435 4416 0
-4436 -4435 -4416 0
4436 -4435 4416 0
4436 4435 -4416 0
-4437 4436 4418 0
-4437 -4436 -4418 0
4437 -4436 4418 0
4437 4436 -4418 0
-4438 4437 4420 0
-4438 -4437 -4420 0
4438 -4437 4420 0
4438 4437 -4420 0
-4439 4438 4422 0
-4439 -4438 -4422 0
4439 -4438 4422 0
4439 4438 -4422 0
-4440 4439 4424 0
-4440 -4439 -4424 0
4440 -4439 4424 0
4440 4439 -4424 0
-4440 0
-4441 4391 0
-4441 34 0
4441 -4391 -34 0
-4442 4393 0
-4442 34 0
4442 -4393 -34 0
-4443 4395 0
-4443 35 0
4443 -4395 -35 0
-4444 4397 0
-4444 37 0
4444 -4397 -37 0
-4445 4399 0
-4445 37 0
4445 -4399 -37 0
-4446 4401 0
-4446 41 0
4446 -4401 -41 0
-4447 4403 0
-4447 82 0
4447 -4403 -82 0
-4448 4405 0
-4448 82 0
4448 -4405 -82 0
-4449 4407 0
-4449 83 0
4449 -4407 -83 0
-4450 4409 0
-4450 85 0
4450 -4409 -85 0
-4451 4411 0
-4451 85 0
4451 -4411 -85 0
-4452 4413 0
-4452 89 0
4452 -4413 -89 0
-4453 4415 0
-4453 130 0
4453 -4415 -130 0
-4454 4417 0
-4454 132 0
4454 -4417 -132 0
-4455 4419 0
-4455 133 0
4455 -4419 -133 0
-4456 4421 0
-4456 141 0
4456 -4421 -141 0
-4457 4423 0
-4457 178 0
4457 -4423 -178 0
-4458 4441 4442 0
-4458 -4441 -4442 0
4458 -4441 4442 0
4458 4441 -4442 0
-4459 4458 4443 0
-4459 -4458 -4443 0
4459 -4458 4443 0
4459 4458 -4443 0
-4460 4459 4444 0
-4460 -4459 -4444 0
4460 -4459 4444 0
4460 4459 -4444 0
-4461 4460 4445 0
-4461 -4460 -4445 0
4461 -4460 4445 0
4461 4460 -4445 0
-4462 4461 4446 0
-4462 -4461 -4446 0
4462 -4461 4446 0
4462 4461 -4446 0
-4463 4462 4447 0
-4463 -4462 -4447 0
4463 -4462 4447 0
4463 4462 -4447 0
-4464 4463 4448 0
-4464 -4463 -4448 0
4464 -4463 4448 0
4464 4463 -4448 0
-4465 4464 4449 0
-4465 -4464 -4449 0
4465 -4464 4449 0
4465 4464 -4449 0
-4466 4465 4450 0
-4466 -4465 -4450 0
4466 -4465 4450 0
4466 4465 -4450 0
-4467 4466 4451 0
-4467 -4466 -4451 0
4467 -4466 4451 0
4467 4466 -4451 0
-4468 4467 4452 0
-4468 -4467 -4452 0
4468 -4467 4452 0
4468 4467 -4452 0
-4469 4468 4453 0
-4469 -4468 -4453 0
4469 -4468 4453 0
4469 4468 -4453 0
-4470 4469 4454 0
-4470 -4469 -4454 0
4470 -4469 4454 0
4470 4469 -4454 0
-4471 4470 4455 0
-4471 -4470 -4455 0
4471 -4470 4455 0
4471 4470 -4455 0
-4472 4471 4456 0
-4472 -4471 -4456 0
4472 -4471 4456 0
4472 4471 -4456 0
-4473 4472 4457 0
-4473 -4472 -4457 0
4473 -4472 4457 0
4473 4472 -4457 0
-4473 0
-4474 4391 0
-4474 35 0
4474 -4391 -35 0
-4475 4393 0
-4475 36 0
4475 -4393 -36 0
-4476 4395 0
-4476 36 0
4476 -4395 -36 0
-4477 4397 0
-4477 41 0
4477 -4397 -41 0
-4478 4399 0
-4478 45 0
4478 -4399 -45 0
-4479 4401 0
-4479 45 0
4479 -4401 -45 0
-4480 4403 0
-4480 83 0
4480 -4403 -83 0
-4481 4405 0
-4481 84 0
4481 -4405 -84 0
-4482 4407 0
-4482 84 0
4482 -4407 -84 0
-4483 4409 0
-4483 89 0
4483 -4409 -89 0
-4484 4411 0
-4484 93 0
4484 -4411 -93 0
-4485 4413 0
-4485 93 0
4485 -4413 -93 0
-4486 4415 0
-4486 131 0
4486 -4415 -131 0
-4487 4417 0
-4487 131 0
4487 -4417 -131 0
-4488 4419 0
-4488 137 0
4488 -4419 -137 0
-4489 4421 0
-4489 137 0
4489 -4421 -137 0
-4490 4423 0
-4490 179 0
4490 -4423 -179 0
-4491 4474 4475 0
-4491 -4474 -4475 0
4491 -4474 4475 0
4491 4474 -4475 0
-4492 4491 4476 0
-4492 -4491 -4476 0
4492 -4491 4476 0
4492 4491 -4476 0
-4493 4492 4477 0
-4493 -4492 -4477 0
4493 -4492 4477 0
4493 4492 -4477 0
-4494 4493 4478 0
-4494 -4493 -4478 0
4494 -4493 4478 0
4494 4493 -4478 0
-4495 4494 4479 0
-4495 -4494 -4479 0
4495 -4494 4479 0
4495 4494 -4479 0
-4496 4495 4480 0
-4496 -4495 -4480 0
4496 -4495 4480 0
4496 4495 -4480 0
-4497 4496 4481 0
-4497 -4496 -4481 0
4497 -4496 4481 0
4497 4496 -4481 0
-4498 4497 4482 0
-4498 -4497 -4482 0
4498 -4497 4482 0
4498 4497 -4482 0
-4499 4498 4483 0
-4499 -4498 -4483 0
4499 -4498 4483 0
4499 4498 -4483 0
-4500 4499 4484 0
-4500 -4499 -4484 0
4500 -4499 4484 0
4500 4499 -4484 0
-4501 4500 4485 0
-4501 -4500 -4485 0
4501 -4500 4485 0
4501 4500 -4485 0
-4502 4501 4486 0
-4502 -4501 -4486 0
4502 -4501 4486 0
4502 4501 -4486 0
-4503 4502 4487 0
-4503 -4502 -4487 0
4503 -4502 4487 0
4503 4502 -4487 0
-4504 4503 4488 0
-4504 -4503 -4488 0
4504 -4503 4488 0
4504 4503 -4488 0
-4505 4504 4489 0
-4505 -4504 -4489 0
4505 -4504 4489 0
4505 4504 -4489 0
-4506 4505 4490 0
-4506 -4505 -4490 0
4506 -4505 4490 0
4506 4505 -4490 0
-4506 0
-4507 4391 0
-4507 36 0
4507 -4391 -36 0
-4508 4393 0
-4508 35 0
4508 -4393 -35 0
-4509 4395 0
-4509 34 0
4509 -4395 -34 0
-4510 4397 0
-4510 45 0
4510 -4397 -45 0
-4511 4399 0
-4511 41 0
4511 -4399 -41 0
-4512 4401 0
-4512 37 0
4512 -4401 -37 0
-4513 4403 0
-4513 84 0
4513 -4403 -84 0
-4514 4405 0
-4514 83 0
4514 -4405 -83 0
-4515 4407 0
-4515 82 0
4515 -4407 -82 0
-4516 4409 0
-4516 93 0
4516 -4409 -93 0
-4517 4411 0
-4517 89 0
4517 -4411 -89 0
-4518 4413 0
-4518 85 0
4518 -4413 -85 0
-4519 4415 0
-4519 132 0
4519 -4415 -132 0
-4520 4417 0
-4520 130 0
4520 -4417 -130 0
-4521 4419 0
-4521 141 0
4521 -4419 -141 0
-4522 4421 0
-4522 133 0
4522 -4421 -133 0
-4523 4423 0
-4523 180 0
4523 -4423 -180 0
-4524 4507 4508 0
-4524 -4507 -4508 0
4524 -4507 4508 0
4524 4507 -4508 0
-4525 4524 4509 0
-4525 -4524 -4509 0
4525 -4524 4509 0
4525 4524 -4509 0
-4526 4525 4510 0
-4526 -4525 -4510 0
4526 -4525 4510 0
4526 4525 -4510 0
-4527 4526 4511 0
-4527 -4526 -4511 0
4527 -4526 4511 0
4527 4526 -4511 0
-4528 4527 4512 0
-4528 -4527 -4512 0
4528 -4527 4512 0
4528 4527 -4512 0
-4529 4528 4513 0
-4529 -4528 -4513 0
4529 -4528 4513 0
4529 4528 -4513 0
-4530 4529 4514 0
-4530 -4529 -4514 0
4530 -4529 4514 0
4530 4529 -4514 0
-4531 4530 4515 0
-4531 -4530 -4515 0
4531 -4530 4515 0
4531 4530 -4515 0
-4532 4531 4516 0
-4532 -4531 -4516 0
4532 -4531 4516 0
4532 4531 -4516 0
-4533 4532 4517 0
-4533 -4532 -4517 0
4533 -4532 4517 0
4533 4532 -4517 0
-4534 4533 4518 0
-4534 -4533 -4518 0
4534 -4533 4518 0
4534 4533 -4518 0
-4535 4534 4519 0
-4535 -4534 -4519 0
4535 -4534 4519 0
4535 4534 -4519 0
-4536 4535 4520 0
-4536 -4535 -4520 0
4536 -4535 4520 0
4536 4535 -4520 0
-4537 4536 4521 0
-4537 -4536 -4521 0
4537 -4536 4521 0
4537 4536 -4521 0
-4538 4537 4522 0
-4538 -4537 -4522 0
4538 -4537 4522 0
4538 4537 -4522 0
-4539 4538 4523 0
-4539 -4538 -4523 0
4539 -4538 4523 0
4539 4538 -4523 0
4539 0
-4540 4391 0
-4540 37 0
4540 -4391 -37 0
-4541 4393 0
-4541 37 0
4541 -4393 -37 0
-4542 4395 0
-4542 41 0
4542 -4395 -41 0
-4543 4397 0
-4543 34 0
4543 -4397 -34 0
-4544 4399 0
-4544 34 0
4544 -4399 -34 0
-4545 4401 0
-4545 35 0
4545 -4401 -35 0
-4546 4403 0
-4546 85 0
4546 -4403 -85 0
-4547 4405 0
-4547 85 0
4547 -4405 -85 0
-4548 4407 0
-4548 89 0
4548 -4407 -89 0
-4549 4409 0
-4549 82 0
4549 -4409 -82 0
-4550 4411 0
-4550 82 0
4550 -4411 -82 0
-4551 4413 0
-4551 83 0
4551 -4413 -83 0
-4552 4415 0
-4552 133 0
4552 -4415 -133 0
-4553 4417 0
-4553 141 0
4553 -4417 -141 0
-4554 4419 0
-4554 130 0
4554 -4419 -130 0
-4555 4421 0
-4555 132 0
4555 -4421 -132 0
-4556 4423 0
-4556 181 0
4556 -4423 -181 0
-4557 4540 4541 0
-4557 -4540 -4541 0
4557 -4540 4541 0
4557 4540 -4541 0
-4558 4557 4542 0
-4558 -4557 -4542 0
4558 -4557 4542 0
4558 4557 -4542 0
-4559 4558 4543 0
-4559 -4558 -4543 0
4559 -4558 4543 0
4559 4558 -4543 0
-4560 4559 4544 0
-4560 -4559 -4544 0
4560 -4559 4544 0
4560 4559 -4544 0
-4561 4560 4545 0
-4561 -4560 -4545 0
4561 -4560 4545 0
4561 4560 -4545 0
-4562 4561 4546 0
-4562 -4561 -4546 0
4562 -4561 4546 0
4562 4561 -4546 0
-4563 4562 4547 0
-4563 -4562 -4547 0
4563 -4562 4547 0
4563 4562 -4547 0
-4564 4563 4548 0
-4564 -4563 -4548 0
4564 -4563 4548 0
4564 4563 -4548 0
-4565 4564 4549 0
-4565 -4564 -4549 0
4565 -4564 4549 0
4565 4564 -4549 0
-4566 4565 4550 0
-4566 -4565 -4550 0
4566 -4565 4550 0
4566 4565 -4550 0
-4567 4566 4551 0
-4567 -4566 -4551 0
4567 -4566 4551 0
4567 4566 -4551 0
-4568 4567 4552 0
-4568 -4567 -4552 0
4568 -4567 4552 0
4568 4567 -4552 0
-4569 4568 4553 0
-4569 -4568 -4553 0
4569 -4568 4553 0
4569 4568 -4553 0
-4570 4569 4554 0
-4570 -4569 -4554 0
4570 -4569 4554 0
4570 4569 -4554 0
-4571 4570 4555 0
-4571 -4570 -4555 0
4571 -4570 4555 0
4571 4570 -4555 0
-4572 4571 4556 0
-4572 -4571 -4556 0
4572 -4571 4556 0
4572 4571 -4556 0
4572 0
-4573 4391 0
-4573 38 0
4573 -4391 -38 0
-4574 4393 0
-4574 38 0
4574 -4393 -38 0
-4575 4395 0
-4575 43 0
4575 -4395 -43 0
-4576 4397 0
-4576 38 0
4576 -4397 -38 0
-4577 4399 0
-4577 38 0
4577 -4399 -38 0
-4578 4401 0
-4578 43 0
4578 -4401 -43 0
-4579 4403 0
-4579 86 0
4579 -4403 -86 0
-4580 4405 0
-4580 86 0
4580 -4405 -86 0
-4581 4407 0
-4581 91 0
4581 -4407 -91 0
-4582 4409 0
-4582 86 0
4582 -4409 -86 0
-4583 4411 0
-4583 86 0
4583 -4411 -86 0
-4584 4413 0
-4584 91 0
4584 -4413 -91 0
-4585 4415 0
-4585 134 0
4585 -4415 -134 0
-4586 4417 0
-4586 144 0
4586 -4417 -144 0
-4587 4419 0
-4587 134 0
4587 -4419 -134 0
-4588 4421 0
-4588 144 0
4588 -4421 -144 0
-4589 4423 0
-4589 182 0
4589 -4423 -182 0
-4590 4573 4574 0
-4590 -4573 -4574 0
4590 -4573 4574 0
4590 4573 -4574 0
-4591 4590 4575 0
-4591 -4590 -4575 0
4591 -4590 4575 0
4591 4590 -4575 0
-4592 4591 4576 0
-4592 -4591 -4576 0
4592 -4591 4576 0
4592 4591 -4576 0
-4593 4592 4577 0
-4593 -4592 -4577 0
4593 -4592 4577 0
4593 4592 -4577 0
-4594 4593 4578 0
-4594 -4593 -4578 0
4594 -4593 4578 0
4594 4593 -4578 0
-4595 4594 4579 0
-4595 -4594 -4579 0
4595 -4594 4579 0
4595 4594 -4579 0
-4596 4595 4580 0
-4596 -4595 -4580 0
4596 -4595 4580 0
4596 4595 -4580 0
-4597 4596 4581 0
-4597 -4596 -4581 0
4597 -4596 4581 0
4597 4596 -4581 0
-4598 4597 4582 0
-4598 -4597 -4582 0
4598 -4597 4582 0
4598 4597 -4582 0
-4599 4598 4583 0
-4599 -4598 -4583 0
4599 -4598 4583 0
4599 4598 -4583 0
-4600 4599 4584 0
-4600 -4599 -4584 0
4600 -4599 4584 0
4600 4599 -4584 0
-4601 4600 4585 0
-4601 -4600 -4585 0
4601 -4600 4585 0
4601 4600 -4585 0
-4602 4601 4586 0
-4602 -4601 -4586 0
4602 -4601 4586 0
4602 4601 -4586 0
-4603 4602 4587 0
-4603 -4602 -4587 0
4603 -4602 4587 0
4603 4602 -4587 0
-4604 4603 4588 0
-4604 -4603 -4588 0
4604 -4603 4588 0
4604 4603 -4588 0
-4605 4604 4589 0
-4605 -4604 -4589 0
4605 -4604 4589 0
4605 4604 -4589 0
4605 0
-4606 4391 0
-4606 39 0
4606 -4391 -39 0
-4607 4393 0
-4607 40 0
4607 -4393 -40 0
-4608 4395 0
-4608 44 0
4608 -4395 -44 0
-4609 4397 0
-4609 42 0
4609 -4397 -42 0
-4610 4399 0
-4610 46 0
4610 -4399 -46 0
-4611 4401 0
-4611 47 0
4611 -4401 -47 0
-4612 4403 0
-4612 87 0
4612 -4403 -87 0
-4613 4405 0
-4613 88 0
4613 -4405 -88 0
-4614 4407 0
-4614 92 0
4614 -4407 -92 0
-4615 4409 0
-4615 90 0
4615 -4409 -90 0
-4616 4411 0
-4616 94 0
4616 -4411 -94 0
-4617 4413 0
-4617 95 0
4617 -4413 -95 0
-4618 4415 0
-4618 135 0
4618 -4415 -135 0
-4619 4417 0
-4619 143 0
4619 -4417 -143 0
-4620 4419 0
-4620 138 0
4620 -4419 -138 0
-4621 4421 0
-4621 140 0
4621 -4421 -140 0
-4622 4423 0
-4622 183 0
4622 -4423 -183 0
-4623 4606 4607 0
-4623 -4606 -4607 0
4623 -4606 4607 0
4623 4606 -4607 0
-4624 4623 4608 0
-4624 -4623 -4608 0
4624 -4623 4608 0
4624 4623 -4608 0
-4625 4624 4609 0
-4625 -4624 -4609 0
4625 -4624 4609 0
4625 4624 -4609 0
-4626 4625 4610 0
-4626 -4625 -4610 0
4626 -4625 4610 0
4626 4625 -4610 0
-4627 4626 4611 0
-4627 -4626 -4611 0
4627 -4626 4611 0
4627 4626 -4611 0
-4628 4627 4612 0
-4628 -4627 -4612 0
4628 -4627 4612 0
4628 4627 -4612 0
-4629 4628 4613 0
-4629 -4628 -4613 0
4629 -4628 4613 0
4629 4628 -4613 0
-4630 4629 4614 0
-4630 -4629 -4614 0
4630 -4629 4614 0
4630 4629 -4614 0
-4631 4630 4615 0
-4631 -4630 -4615 0
4631 -4630 4615 0
4631 4630 -4615 0
-4632 4631 4616 0
-4632 -4631 -4616 0
4632 -4631 4616 0
4632 4631 -4616 0
-4633 4632 4617 0
-4633 -4632 -4617 0
4633 -4632 4617 0
4633 4632 -4617 0
-4634 4633 4618 0
-4634 -4633 -4618 0
4634 -4633 4618 0
4634 4633 -4618 0
-4635 4634 4619 0
-4635 -4634 -4619 0
4635 -4634 4619 0
4635 4634 -4619 0
-4636 4635 4620 0
-4636 -4635 -4620 0
4636 -4635 4620 0
4636 4635 -4620 0
-4637 4636 4621 0
-4637 -4636 -4621 0
4637 -4636 4621 0
4637 4636 -4621 0
-4638 4637 4622 0
-4638 -4637 -4622 0
4638 -4637 4622 0
4638 4637 -4622 0
4638 0
-4639 4391 0
-4639 40 0
4639 -4391 -40 0
-4640 4393 0
-4640 39 0
4640 -4393 -39 0
-4641 4395 0
-4641 42 0
4641 -4395 -42 0
-4642 4397 0
-4642 46 0
4642 -4397 -46 0
-4643 4399 0
-4643 42 0
4643 -4399 -42 0
-4644 4401 0
-4644 39 0
4644 -4401 -39 0
-4645 4403 0
-4645 88 0
4645 -4403 -88 0
-4646 4405 0
-4646 87 0
4646 -4405 -87 0
-4647 4407 0
-4647 90 0
4647 -4407 -90 0
-4648 4409 0
-4648 94 0
4648 -4409 -94 0
-4649 4411 0
-4649 90 0
4649 -4411 -90 0
-4650 4413 0
-4650 87 0
4650 -4413 -87 0
-4651 4415 0
-4651 136 0
4651 -4415 -136 0
-4652 4417 0
-4652 142 0
4652 -4417 -142 0
-4653 4419 0
-4653 142 0
4653 -4419 -142 0
-4654 4421 0
-4654 136 0
4654 -4421 -136 0
-4655 4423 0
-4655 184 0
4655 -4423 -184 0
-4656 4639 4640 0
-4656 -4639 -4640 0
4656 -4639 4640 0
4656 4639 -4640 0
-4657 4656 4641 0
-4657 -4656 -4641 0
4657 -4656 4641 0
4657 4656 -4641 0
-4658 4657 4642 0
-4658 -4657 -4642 0
4658 -4657 4642 0
4658 4657 -4642 0
-4659 4658 4643 0
-4659 -4658 -4643 0
4659 -4658 4643 0
4659 4658 -4643 0
-4660 4659 4644 0
-4660 -4659 -4644 0
4660 -4659 4644 0
4660 4659 -4644 0
-4661 4660 4645 0
-4661 -4660 -4645 0
4661 -4660 4645 0
4661 4660 -4645 0
-4662 4661 4646 0
-4662 -4661 -4646 0
4662 -4661 4646 0
4662 4661 -4646 0
-4663 4662 4647 0
-4663 -4662 -4647 0
4663 -4662 4647 0
4663 4662 -4647 0
-4664 4663 4648 0
-4664 -4663 -4648 0
4664 -4663 4648 0
4664 4663 -4648 0
-4665 4664 4649 0
-4665 -4664 -4649 0
4665 -4664 4649 0
4665 4664 -4649 0
-4666 4665 4650 0
-4666 -4665 -4650 0
4666 -4665 4650 0
4666 4665 -4650 0
-4667 4666 4651 0
-4667 -4666 -4651 0
4667 -4666 4651 0
4667 4666 -4651 0
-4668 4667 4652 0
-4668 -4667 -4652 0
4668 -4667 4652 0
4668 4667 -4652 0
-4669 4668 4653 0
-4669 -4668 -4653 0
4669 -4668 4653 0
4669 4668 -4653 0
-4670 4669 4654 0
-4670 -4669 -4654 0
4670 -4669 4654 0
4670 4669 -4654 0
-4671 4670 4655 0
-4671 -4670 -4655 0
4671 -4670 4655 0
4671 4670 -4655 0
4671 0
-4672 4391 0
-4672 41 0
4672 -4391 -41 0
-4673 4393 0
-4673 45 0
4673 -4393 -45 0
-4674 4395 0
-4674 45 0
4674 -4395 -45 0
-4675 4397 0
-4675 35 0
4675 -4397 -35 0
-4676 4399 0
-4676 36 0
4676 -4399 -36 0
-4677 4401 0
-4677 36 0
4677 -4401 -36 0
-4678 4403 0
-4678 89 0
4678 -4403 -89 0
-4679 4405 0
-4679 93 0
4679 -4405 -93 0
-4680 4407 0
-4680 93 0
4680 -4407 -93 0
-4681 4409 0
-4681 83 0
4681 -4409 -83 0
-4682 4411 0
-4682 84 0
4682 -4411 -84 0
-4683 4413 0
-4683 84 0
4683 -4413 -84 0
-4684 4415 0
-4684 137 0
4684 -4415 -137 0
-4685 4417 0
-4685 137 0
4685 -4417 -137 0
-4686 4419 0
-4686 131 0
4686 -4419 -131 0
-4687 4421 0
-4687 131 0
4687 -4421 -131 0
-4688 4423 0
-4688 185 0
4688 -4423 -185 0
-4689 4672 4673 0
-4689 -4672 -4673 0
4689 -4672 4673 0
4689 4672 -4673 0
-4690 4689 4674 0
-4690 -4689 -4674 0
4690 -4689 4674 0
4690 4689 -4674 0
-4691 4690 4675 0
-4691 -4690 -4675 0
4691 -4690 4675 0
4691 4690 -4675 0
-4692 4691 4676 0
-4692 -4691 -4676 0
4692 -4691 4676 0
4692 4691 -4676 0
-4693 4692 4677 0
-4693 -4692 -4677 0
4693 -4692 4677 0
4693 4692 -4677 0
-4694 4693 4678 0
-4694 -4693 -4678 0
4694 -4693 4678 0
4694 4693 -4678 0
-4695 4694 4679 0
-4695 -4694 -4679 0
4695 -4694 4679 0
4695 4694 -4679 0
-4696 4695 4680 0
-4696 -4695 -4680 0
4696 -4695 4680 0
4696 4695 -4680 0
-4697 4696 4681 0
-4697 -4696 -4681 0
4697 -4696 4681 0
4697 4696 -4681 0
-4698 4697 4682 0
-4698 -4697 -4682 0
4698 -4697 4682 0
4698 4697 -4682 0
-4699 4698 4683 0
-4699 -4698 -4683 0
4699 -4698 4683 0
4699 4698 -4683 0
-4700 4699 4684 0
-4700 -4699 -4684 0
4700 -4699 4684 0
4700 4699 -4684 0
-4701 4700 4685 0
-4701 -4700 -4685 0
4701 -4700 4685 0
4701 4700 -4685 0
-4702 4701 4686 0
-4702 -4701 -4686 0
4702 -4701 4686 0
4702 4701 -4686 0
-4703 4702 4687 0
-4703 -4702 -4687 0
4703 -4702 4687 0
4703 4702 -4687 0
-4704 4703 4688 0
-4704 -4703 -4688 0
4704 -4703 4688 0
4704 4703 -4688 0
-4704 0
-4705 4391 0
-4705 42 0
4705 -4391 -42 0
-4706 4393 0
-4706 46 0
4706 -4393 -46 0
-4707 4395 0
-4707 47 0
4707 -4395 -47 0
-4708 4397 0
-4708 39 0
4708 -4397 -39 0
-4709 4399 0
-4709 40 0
4709 -4399 -40 0
-4710 4401 0
-4710 44 0
4710 -4401 -44 0
-4711 4403 0
-4711 90 0
4711 -4403 -90 0
-4712 4405 0
-4712 94 0
4712 -4405 -94 0
-4713 4407 0
-4713 95 0
4713 -4407 -95 0
-4714 4409 0
-4714 87 0
4714 -4409 -87 0
-4715 4411 0
-4715 88 0
4715 -4411 -88 0
-4716 4413 0
-4716 92 0
4716 -4413 -92 0
-4717 4415 0
-4717 138 0
4717 -4415 -138 0
-4718 4417 0
-4718 140 0
4718 -4417 -140 0
-4719 4419 0
-4719 135 0
4719 -4419 -135 0
-4720 4421 0
-4720 143 0
4720 -4421 -143 0
-4721 4423 0
-4721 186 0
4721 -4423 -186 0
-4722 4705 4706 0
-4722 -4705 -4706 0
4722 -4705 4706 0
4722 4705 -4706 0
-4723 4722 4707 0
-4723 -4722 -4707 0
4723 -4722 4707 0
4723 4722 -4707 0
-4724 4723 4708 0
-4724 -4723 -4708 0
4724 -4723 4708 0
4724 4723 -4708 0
-4725 4724 4709 0
-4725 -4724 -4709 0
4725 -4724 4709 0
4725 4724 -4709 0
-4726 4725 4710 0
-4726 -4725 -4710 0
4726 -4725 4710 0
4726 4725 -4710 0
-4727 4726 4711 0
-4727 -4726 -4711 0
4727 -4726 4711 0
4727 4726 -4711 0
-4728 4727 4712 0
-4728 -4727 -4712 0
4728 -4727 4712 0
4728 4727 -4712 0
-4729 4728 4713 0
-4729 -4728 -4713 0
4729 -4728 4713 0
4729 4728 -4713 0
-4730 4729 4714 0
-4730 -4729 -4714 0
4730 -4729 4714 0
4730 4729 -4714 0
-4731 4730 4715 0
-4731 -4730 -4715 0
4731 -4730 4715 0
4731 4730 -4715 0
-4732 4731 4716 0
-4732 -4731 -4716 0
4732 -4731 4716 0
4732 4731 -4716 0
-4733 4732 4717 0
-4733 -4732 -4717 0
4733 -4732 4717 0
4733 4732 -4717 0
-4734 4733 4718 0
-4734 -4733 -4718 0
4734 -4733 4718 0
4734 4733 -4718 0
-4735 4734 4719 0
-4735 -4734 -4719 0
4735 -4734 4719 0
4735 4734 -4719 0
-4736 4735 4720 0
-4736 -4735 -4720 0
4736 -4735 4720 0
4736 4735 -4720 0
-4737 4736 4721 0
-4737 -4736 -4721 0
4737 -4736 4721 0
4737 4736 -4721 0
-4737 0
-4738 4391 0
-4738 43 0
4738 -4391 -43 0
-4739 4393 0
-4739 48 0
4739 -4393 -48 0
-4740 4395 0
-4740 48 0
4740 -4395 -48 0
-4741 4397 0
-4741 43 0
4741 -4397 -43 0
-4742 4399 0
-4742 48 0
4742 -4399 -48 0
-4743 4401 0
-4743 48 0
4743 -4401 -48 0
-4744 4403 0
-4744 91 0
4744 -4403 -91 0
-4745 4405 0
-4745 96 0
4745 -4405 -96 0
-4746 4407 0
-4746 96 0
4746 -4407 -96 0
-4747 4409 0
-4747 91 0
4747 -4409 -91 0
-4748 4411 0
-4748 96 0
4748 -4411 -96 0
-4749 4413 0
-4749 96 0
4749 -4413 -96 0
-4750 4415 0
-4750 139 0
4750 -4415 -139 0
-4751 4417 0
-4751 139 0
4751 -4417 -139 0
-4752 4419 0
-4752 139 0
4752 -4419 -139 0
-4753 4421 0
-4753 139 0
4753 -4421 -139 0
-4754 4423 0
-4754 187 0
4754 -4423 -187 0
-4755 4738 4739 0
-4755 -4738 -4739 0
4755 -4738 4739 0
4755 4738 -4739 0
-4756 4755 4740 0
-4756 -4755 -4740 0
4756 -4755 4740 0
4756 4755 -4740 0
-4757 4756 4741 0
-4757 -4756 -4741 0
4757 -4756 4741 0
4757 4756 -4741 0
-4758 4757 4742 0
-4758 -4757 -4742 0
4758 -4757 4742 0
4758 4757 -4742 0
-4759 4758 4743 0
-4759 -4758 -4743 0
4759 -4758 4743 0
4759 4758 -4743 0
-4760 4759 4744 0
-4760 -4759 -4744 0
4760 -4759 4744 0
4760 4759 -4744 0
-4761 4760 4745 0
-4761 -4760 -4745 0
4761 -4760 4745 0
4761 4760 -4745 0
-4762 4761 4746 0
-4762 -4761 -4746 0
4762 -4761 4746 0
4762 4761 -4746 0
-4763 4762 4747 0
-4763 -4762 -4747 0
4763 -4762 4747 0
4763 4762 -4747 0
-4764 4763 4748 0
-4764 -4763 -4748 0
4764 -4763 4748 0
4764 4763 -4748 0
-4765 4764 4749 0
-4765 -4764 -4749 0
4765 -4764 4749 0
4765 4764 -4749 0
-4766 4765 4750 0
-4766 -4765 -4750 0
4766 -4765 4750 0
4766 4765 -4750 0
-4767 4766 4751 0
-4767 -4766 -4751 0
4767 -4766 4751 0
4767 4766 -4751 0
-4768 4767 4752 0
-4768 -4767 -4752 0
4768 -4767 4752 0
4768 4767 -4752 0
-4769 4768 4753 0
-4769 -4768 -4753 0
4769 -4768 4753 0
4769 4768 -4753 0
-4770 4769 4754 0
-4770 -4769 -4754 0
4770 -4769 4754 0
4770 4769 -4754 0
-4770 0
-4771 4391 0
-4771 44 0
4771 -4391 -44 0
-4772 4393 0
-4772 47 0
4772 -4393 -47 0
-4773 4395 0
-4773 46 0
4773 -4395 -46 0
-4774 4397 0
-4774 47 0
4774 -4397 -47 0
-4775 4399 0
-4775 44 0
4775 -4399 -44 0
-4776 4401 0
-4776 40 0
4776 -4401 -40 0
-4777 4403 0
-4777 92 0
4777 -4403 -92 0
-4778 4405 0
-4778 95 0
4778 -4405 -95 0
-4779 4407 0
-4779 94 0
4779 -4407 -94 0
-4780 4409 0
-4780 95 0
4780 -4409 -95 0
-4781 4411 0
-4781 92 0
4781 -4411 -92 0
-4782 4413 0
-4782 88 0
4782 -4413 -88 0
-4783 4415 0
-4783 140 0
4783 -4415 -140 0
-4784 4417 0
-4784 138 0
4784 -4417 -138 0
-4785 4419 0
-4785 143 0
4785 -4419 -143 0
-4786 4421 0
-4786 135 0
4786 -4421 -135 0
-4787 4423 0
-4787 188 0
4787 -4423 -188 0
-4788 4771 4772 0
-4788 -4771 -4772 0
4788 -4771 4772 0
4788 4771 -4772 0
-4789 4788 4773 0
-4789 -4788 -4773 0
4789 -4788 4773 0
4789 4788 -4773 0
-4790 4789 4774 0
-4790 -4789 -4774 0
4790 -4789 4774 0
4790 4789 -4774 0
-4791 4790 4775 0
-4791 -4790 -4775 0
4791 -4790 4775 0
4791 4790 -4775 0
-4792 4791 4776 0
-4792 -4791 -4776 0
4792 -4791 4776 0
4792 4791 -4776 0
-4793 4792 4777 0
-4793 -4792 -4777 0
4793 -4792 4777 0
4793 4792 -4777 0
-4794 4793 4778 0
-4794 -4793 -4778 0
4794 -4793 4778 0
4794 4793 -4778 0
-4795 4794 4779 0
-4795 -4794 -4779 0
4795 -4794 4779 0
4795 4794 -4779 0
-4796 4795 4780 0
-4796 -4795 -4780 0
4796 -4795 4780 0
4796 4795 -4780 0
-4797 4796 4781 0
-4797 -4796 -4781 0
4797 -4796 4781 0
4797 4796 -4781 0
-4798 4797 4782 0
-4798 -4797 -4782 0
4798 -4797 4782 0
4798 4797 -4782 0
-4799 4798 4783 0
-4799 -4798 -4783 0
4799 -4798 4783 0
4799 4798 -4783 0
-4800 4799 4784 0
-4800 -4799 -4784 0
4800 -4799 4784 0
4800 4799 -4784 0
-4801 4800 4785 0
-4801 -4800 -4785 0
4801 -4800 4785 0
4801 4800 -4785 0
-4802 4801 4786 0
-4802 -4801 -4786 0
4802 -4801 4786 0
4802 4801 -4786 0
-4803 4802 4787 0
-4803 -4802 -4787 0
4803 -4802 4787 0
4803 4802 -4787 0
4803 0
-4804 4391 0
-4804 45 0
4804 -4391 -45 0
-4805 4393 0
-4805 41 0
4805 -4393 -41 0
-4806 4395 0
-4806 37 0
4806 -4395 -37 0
-4807 4397 0
-4807 36 0
4807 -4397 -36 0
-4808 4399 0
-4808 35 0
4808 -4399 -35 0
-4809 4401 0
-4809 34 0
4809 -4401 -34 0
-4810 4403 0
-4810 93 0
4810 -4403 -93 0
-4811 4405 0
-4811 89 0
4811 -4405 -89 0
-4812 4407 0
-4812 85 0
4812 -4407 -85 0
-4813 4409 0
-4813 84 0
4813 -4409 -84 0
-4814 4411 0
-4814 83 0
4814 -4411 -83 0
-4815 4413 0
-4815 82 0
4815 -4413 -82 0
-4816 4415 0
-4816 141 0
4816 -4415 -141 0
-4817 4417 0
-4817 133 0
4817 -4417 -133 0
-4818 4419 0
-4818 132 0
4818 -4419 -132 0
-4819 4421 0
-4819 130 0
4819 -4421 -130 0
-4820 4423 0
-4820 189 0
4820 -4423 -189 0
-4821 4804 4805 0
-4821 -4804 -4805 0
4821 -4804 4805 0
4821 4804 -4805 0
-4822 4821 4806 0
-4822 -4821 -4806 0
4822 -4821 4806 0
4822 4821 -4806 0
-4823 4822 4807 0
-4823 -4822 -4807 0
4823 -4822 4807 0
4823 4822 -4807 0
-4824 4823 4808 0
-4824 -4823 -4808 0
4824 -4823 4808 0
4824 4823 -4808 0
-4825 4824 4809 0
-4825 -4824 -4809 0
4825 -4824 4809 0
4825 4824 -4809 0
-4826 4825 4810 0
-4826 -4825 -4810 0
4826 -4825 4810 0
4826 4825 -4810 0
-4827 4826 4811 0
-4827 -4826 -4811 0
4827 -4826 4811 0
4827 4826 -4811 0
-4828 4827 4812 0
-4828 -4827 -4812 0
4828 -4827 4812 0
4828 4827 -4812 0
-4829 4828 4813 0
-4829 -4828 -4813 0
4829 -4828 4813 0
4829 4828 -4813 0
-4830 4829 4814 0
-4830 -4829 -4814 0
4830 -4829 4814 0
4830 4829 -4814 0
-4831 4830 4815 0
-4831 -4830 -4815 0
4831 -4830 4815 0
4831 4830 -4815 0
-4832 4831 4816 0
-4832 -4831 -4816 0
4832 -4831 4816 0
4832 4831 -4816 0
-4833 4832 4817 0
-4833 -4832 -4817 0
4833 -4832 4817 0
4833 4832 -4817 0
-4834 4833 4818 0
-4834 -4833 -4818 0
4834 -4833 4818 0
4834 4833 -4818 0
-4835 4834 4819 0
-4835 -4834 -4819 0
4835 -4834 4819 0
4835 4834 -4819 0
-4836 4835 4820 0
-4836 -4835 -4820 0
4836 -4835 4820 0
4836 4835 -4820 0
-4836 0
-4837 4391 0
-4837 46 0
4837 -4391 -46 0
-4838 4393 0
-4838 42 0
4838 -4393 -42 0
-4839 4395 0
-4839 39 0
4839 -4395 -39 0
-4840 4397 0
-4840 40 0
4840 -4397 -40 0
-4841 4399 0
-4841 39 0
4841 -4399 -39 0
-4842 4401 0
-4842 42 0
4842 -4401 -42 0
-4843 4403 0
-4843 94 0
4843 -4403 -94 0
-4844 4405 0
-4844 90 0
4844 -4405 -90 0
-4845 4407 0
-4845 87 0
4845 -4407 -87 0
-4846 4409 0
-4846 88 0
4846 -4409 -88 0
-4847 4411 0
-4847 87 0
4847 -4411 -87 0
-4848 4413 0
-4848 90 0
4848 -4413 -90 0
-4849 4415 0
-4849 142 0
4849 -4415 -142 0
-4850 4417 0
-4850 136 0
4850 -4417 -136 0
-4851 4419 0
-4851 136 0
4851 -4419 -136 0
-4852 4421 0
-4852 142 0
4852 -4421 -142 0
-4853 4423 0
-4853 190 0
4853 -4423 -190 0
-4854 4837 4838 0
-4854 -4837 -4838 0
4854 -4837 4838 0
4854 4837 -4838 0
-4855 4854 4839 0
-4855 -4854 -4839 0
4855 -4854 4839 0
4855 4854 -4839 0
-4856 4855 4840 0
-4856 -4855 -4840 0
4856 -4855 4840 0
4856 4855 -4840 0
-4857 4856 4841 0
-4857 -4856 -4841 0
4857 -4856 4841 0
4857 4856 -4841 0
-4858 4857 4842 0
-4858 -4857 -4842 0
4858 -4857 4842 0
4858 4857 -4842 0
-4859 4858 4843 0
-4859 -4858 -4843 0
4859 -4858 4843 0
4859 4858 -4843 0
-4860 4859 4844 0
-4860 -4859 -4844 0
4860 -4859 4844 0
4860 4859 -4844 0
-4861 4860 4845 0
-4861 -4860 -4845 0
4861 -4860 4845 0
4861 4860 -4845 0
-4862 4861 4846 0
-4862 -4861 -4846 0
4862 -4861 4846 0
4862 4861 -4846 0
-4863 4862 4847 0
-4863 -4862 -4847 0
4863 -4862 4847 0
4863 4862 -4847 0
-4864 4863 4848 0
-4864 -4863 -4848 0
4864 -4863 4848 0
4864 4863 -4848 0
-4865 4864 4849 0
-4865 -4864 -4849 0
4865 -4864 4849 0
4865 4864 -4849 0
-4866 4865 4850 0
-4866 -4865 -4850 0
4866 -4865 4850 0
4866 4865 -4850 0
-4867 4866 4851 0
-4867 -4866 -4851 0
4867 -4866 4851 0
4867 4866 -4851 0
-4868 4867 4852 0
-4868 -4867 -4852 0
4868 -4867 4852 0
4868 4867 -4852 0
-4869 4868 4853 0
-4869 -4868 -4853 0
4869 -4868 4853 0
4869 4868 -4853 0
-4869 0
-4870 4391 0
-4870 47 0
4870 -4391 -47 0
-4871 4393 0
-4871 44 0
4871 -4393 -44 0
-4872 4395 0
-4872 40 0
4872 -4395 -40 0
-4873 4397 0
-4873 44 0
4873 -4397 -44 0
-4874 4399 0
-4874 47 0
4874 -4399 -47 0
-4875 4401 0
-4875 46 0
4875 -4401 -46 0
-4876 4403 0
-4876 95 0
4876 -4403 -95 0
-4877 4405 0
-4877 92 0
4877 -4405 -92 0
-4878 4407 0
-4878 88 0
4878 -4407 -88 0
-4879 4409 0
-4879 92 0
4879 -4409 -92 0
-4880 4411 0
-4880 95 0
4880 -4411 -95 0
-4881 4413 0
-4881 94 0
4881 -4413 -94 0
-4882 4415 0
-4882 143 0
4882 -4415 -143 0
-4883 4417 0
-4883 135 0
4883 -4417 -135 0
-4884 4419 0
-4884 140 0
4884 -4419 -140 0
-4885 4421 0
-4885 138 0
4885 -4421 -138 0
-4886 4423 0
-4886 191 0
4886 -4423 -191 0
-4887 4870 4871 0
-4887 -4870 -4871 0
4887 -4870 4871 0
4887 4870 -4871 0
-4888 4887 4872 0
-4888 -4887 -4872 0
4888 -4887 4872 0
4888 4887 -4872 0
-4889 4888 4873 0
-4889 -4888 -4873 0
4889 -4888 4873 0
4889 4888 -4873 0
-4890 4889 4874 0
-4890 -4889 -4874 0
4890 -4889 4874 0
4890 4889 -4874 0
-4891 4890 4875 0
-4891 -4890 -4875 0
4891 -4890 4875 0
4891 4890 -4875 0
-4892 4891 4876 0
-4892 -4891 -4876 0
4892 -4891 4876 0
4892 4891 -4876 0
-4893 4892 4877 0
-4893 -4892 -4877 0
4893 -4892 4877 0
4893 4892 -4877 0
-4894 4893 4878 0
-4894 -4893 -4878 0
4894 -4893 4878 0
4894 4893 -4878 0
-4895 4894 4879 0
-4895 -4894 -4879 0
4895 -4894 4879 0
4895 4894 -4879 0
-4896 4895 4880 0
-4896 -4895 -4880 0
4896 -4895 4880 0
4896 4895 -4880 0
-4897 4896 4881 0
-4897 -4896 -4881 0
4897 -4896 4881 0
4897 4896 -4881 0
-4898 4897 4882 0
-4898 -4897 -4882 0
4898 -4897 4882 0
4898 4897 -4882 0
-4899 4898 4883 0
-4899 -4898 -4883 0
4899 -4898 4883 0
4899 4898 -4883 0
-4900 4899 4884 0
-4900 -4899 -4884 0
4900 -4899 4884 0
4900 4899 -4884 0
-4901 4900 4885 0
-4901 -4900 -4885 0
4901 -4900 4885 0
4901 4900 -4885 0
-4902 4901 4886 0
-4902 -4901 -4886 0
4902 -4901 4886 0
4902 4901 -4886 0
-4902 0
-4903 4391 0
-4903 48 0
4903 -4391 -48 0
-4904 4393 0
-4904 43 0
4904 -4393 -43 0
-4905 4395 0
-4905 38 0
4905 -4395 -38 0
-4906 4397 0
-4906 48 0
4906 -4397 -48 0
-4907 4399 0
-4907 43 0
4907 -4399 -43 0
-4908 4401 0
-4908 38 0
4908 -4401 -38 0
-4909 4403 0
-4909 96 0
4909 -4403 -96 0
-4910 4405 0
-4910 91 0
4910 -4405 -91 0
-4911 4407 0
-4911 86 0
4911 -4407 -86 0
-4912 4409 0
-4912 96 0
4912 -4409 -96 0
-4913 4411 0
-4913 91 0
4913 -4411 -91 0
-4914 4413 0
-4914 86 0
4914 -4413 -86 0
-4915 4415 0
-4915 144 0
4915 -4415 -144 0
-4916 4417 0
-4916 134 0
4916 -4417 -134 0
-4917 4419 0
-4917 144 0
4917 -4419 -144 0
-4918 4421 0
-4918 134 0
4918 -4421 -134 0
-4919 4423 0
-4919 192 0
4919 -4423 -192 0
-4920 4903 4904 0
-4920 -4903 -4904 0
4920 -4903 4904 0
4920 4903 -4904 0
-4921 4920 4905 0
-4921 -4920 -4905 0
4921 -4920 4905 0
4921 4920 -4905 0
-4922 4921 4906 0
-4922 -4921 -4906 0
4922 -4921 4906 0
4922 4921 -4906 0
-4923 4922 4907 0
-4923 -4922 -4907 0
4923 -4922 4907 0
4923 4922 -4907 0
-4924 4923 4908 0
-4924 -4923 -4908 0
4924 -4923 4908 0
4924 4923 -4908 0
-4925 4924 4909 0
-4925 -4924 -4909 0
4925 -4924 4909 0
4925 4924 -4909 0
-4926 4925 4910 0
-4926 -4925 -4910 0
4926 -4925 4910 0
4926 4925 -4910 0
-4927 4926 4911 0
-4927 -4926 -4911 0
4927 -4926 4911 0
4927 4926 -4911 0
-4928 4927 4912 0
-4928 -4927 -4912 0
4928 -4927 4912 0
4928 4927 -4912 0
-4929 4928 4913 0
-4929 -4928 -4913 0
4929 -4928 4913 0
4929 4928 -4913 0
-4930 4929 4914 0
-4930 -4929 -4914 0
4930 -4929 4914 0
4930 4929 -4914 0
-4931 4930 4915 0
-4931 -4930 -4915 0
4931 -4930 4915 0
4931 4930 -4915 0
-4932 4931 4916 0
-4932 -4931 -4916 0
4932 -4931 4916 0
4932 4931 -4916 0
-4933 4932 4917 0
-4933 -4932 -4917 0
4933 -4932 4917 0
4933 4932 -4917 0
-4934 4933 4918 0
-4934 -4933 -4918 0
4934 -4933 4918 0
4934 4933 -4918 0
-4935 4934 4919 0
-4935 -4934 -4919 0
4935 -4934 4919 0
4935 4934 -4919 0
-4935 0
-4936 4 0
-4936 19 0
4936 -4 -19 0
-4937 4936 0
-4937 33 0
4937 -4936 -33 0
-4938 4 0
-4938 24 0
4938 -4 -24 0
-4939 4938 0
-4939 33 0
4939 -4938 -33 0
-4940 29 0
-4940 9 0
4940 -29 -9 0
-4941 4940 0
-4941 33 0
4941 -4940 -33 0
-4942 29 0
-4942 14 0
4942 -29 -14 0
-4943 4942 0
-4943 33 0
4943 -4942 -33 0
-4944 52 0
-4944 67 0
4944 -52 -67 0
-4945 4944 0
-4945 81 0
4945 -4944 -81 0
-4946 52 0
-4946 72 0
4946 -52 -72 0
-4947 4946 0
-4947 81 0
4947 -4946 -81 0
-4948 77 0
-4948 57 0
4948 -77 -57 0
-4949 4948 0
-4949 81 0
4949 -4948 -81 0
-4950 77 0
-4950 62 0
4950 -77 -62 0
-4951 4950 0
-4951 81 0
4951 -4950 -81 0
-4952 100 0
-4952 115 0
4952 -100 -115 0
-4953 4952 0
-4953 129 0
4953 -4952 -129 0
-4954 125 0
-4954 105 0
4954 -125 -105 0
-4955 4954 0
-4955 129 0
4955 -4954 -129 0
-4956 148 0
-4956 163 0
4956 -148 -163 0
-4957 4956 0
-4957 177 0
4957 -4956 -177 0
-4958 4937 4939 0
-4958 -4937 -4939 0
4958 -4937 4939 0
4958 4937 -4939 0
-4959 4958 4939 0
-4959 -4958 -4939 0
4959 -4958 4939 0
4959 4958 -4939 0
-4960 4959 4941 0
-4960 -4959 -4941 0
4960 -4959 4941 0
4960 4959 -4941 0
-4961 4960 4943 0
-4961 -4960 -4943 0
4961 -4960 4943 0
4961 4960 -4943 0
-4962 4961 4943 0
-4962 -4961 -4943 0
4962 -4961 4943 0
4962 4961 -4943 0
-4963 4962 4945 0
-4963 -4962 -4945 0
4963 -4962 4945 0
4963 4962 -4945 0
-4964 4963 4947 0
-4964 -4963 -4947 0
4964 -4963 4947 0
4964 4963 -4947 0
-4965 4964 4947 0
-4965 -4964 -4947 0
4965 -4964 4947 0
4965 4964 -4947 0
-4966 4965 4949 0
-4966 -4965 -4949 0
4966 -4965 4949 0
4966 4965 -4949 0
-4967 4966 4951 0
-4967 -4966 -4951 0
4967 -4966 4951 0
4967 4966 -4951 0
-4968 4967 4951 0
-4968 -4967 -4951 0
4968 -4967 4951 0
4968 4967 -4951 0
-4969 4968 4953 0
-4969 -4968 -4953 0
4969 -4968 4953 0
4969 4968 -4953 0
-4970 4969 4953 0
-4970 -4969 -4953 0
4970 -4969 4953 0
4970 4969 -4953 0
-4971 4970 4955 0
-4971 -4970 -4955 0
4971 -4970 4955 0
4971 4970 -4955 0
-4972 4971 4955 0
-4972 -4971 -4955 0
4972 -4971 4955 0
4972 4971 -4955 0
-4973 4972 4957 0
-4973 -4972 -4957 0
4973 -4972 4957 0
4973 4972 -4957 0
-4973 0
-4974 4936 0
-4974 34 0
4974 -4936 -34 0
-4975 4938 0
-4975 34 0
4975 -4938 -34 0
-4976 4938 0
-4976 35 0
4976 -4938 -35 0
-4977 4940 0
-4977 37 0
4977 -4940 -37 0
-4978 4942 0
-4978 37 0
4978 -4942 -37 0
-4979 4942 0
-4979 41 0
4979 -4942 -41 0
-4980 4944 0
-4980 82 0
4980 -4944 -82 0
-4981 4946 0
-4981 82 0
4981 -4946 -82 0
-4982 4946 0
-4982 83 0
4982 -4946 -83 0
-4983 4948 0
-4983 85 0
4983 -4948 -85 0
-4984 4950 0
-4984 85 0
4984 -4950 -85 0
-4985 4950 0
-4985 89 0
4985 -4950 -89 0
-4986 4952 0
-4986 130 0
4986 -4952 -130 0
-4987 4952 0
-4987 132 0
4987 -4952 -132 0
-4988 4954 0
-4988 133 0
4988 -4954 -133 0
-4989 4954 0
-4989 141 0
4989 -4954 -141 0
-4990 4956 0
-4990 178 0
4990 -4956 -178 0
-4991 4974 4975 0
-4991 -4974 -4975 0
4991 -4974 4975 0
4991 4974 -4975 0
-4992 4991 4976 0
-4992 -4991 -4976 0
4992 -4991 4976 0
4992 4991 -4976 0
-4993 4992 4977 0
-4993 -4992 -4977 0
4993 -4992 4977 0
4993 4992 -4977 0
-4994 4993 4978 0
-4994 -4993 -4978 0
4994 -4993 4978 0
4994 4993 -4978 0
-4995 4994 4979 0
-4995 -4994 -4979 0
4995 -4994 4979 0
4995 4994 -4979 0
-4996 4995 4980 0
-4996 -4995 -4980 0
4996 -4995 4980 0
4996 4995 -4980 0
-4997 4996 4981 0
-4997 -4996 -4981 0
4997 -4996 4981 0
4997 4996 -4981 0
-4998 4997 4982 0
-4998 -4997 -4982 0
4998 -4997 4982 0
4998 4997 -4982 0
-4999 4998 4983 0
-4999 -4998 -4983 0
4999 -4998 4983 0
4999 4998 -4983 0
-5000 4999 4984 0
-5000 -4999 -4984 0
5000 -4999 4984 0
5000 4999 -4984 0
-5001 5000 4985 0
-5001 -5000 -4985 0
5001 -5000 4985 0
5001 5000 -4985 0
-5002 5001 4986 0
-5002 -5001 -4986 0
5002 -5001 4986 0
5002 5001 -4986 0
-5003 5002 4987 0
-5003 -5002 -4987 0
5003 -5002 4987 0
5003 5002 -4987 0
-5004 5003 4988 0
-5004 -5003 -4988 0
5004 -5003 4988 0
5004 5003 -4988 0
-5005 5004 4989 0
-5005 -5004 -4989 0
5005 -5004 4989 0
5005 5004 -4989 0
-5006 5005 4990 0
-5006 -5005 -4990 0
5006 -5005 4990 0
5006 5005 -4990 0
-5006 0
-5007 4936 0
-5007 35 0
5007 -4936 -35 0
-5008 4938 0
-5008 36 0
5008 -4938 -36 0
-5009 4940 0
-5009 41 0
5009 -4940 -41 0
-5010 4942 0
-5010 45 0
5010 -4942 -45 0
-5011 4944 0
-5011 83 0
5011 -4944 -83 0
-5012 4946 0
-5012 84 0
5012 -4946 -84 0
-5013 4948 0
-5013 89 0
5013 -4948 -89 0
-5014 4950 0
-5014 93 0
5014 -4950 -93 0
-5015 4952 0
-5015 131 0
5015 -4952 -131 0
-5016 4954 0
-5016 137 0
5016 -4954 -137 0
-5017 4956 0
-5017 179 0
5017 -4956 -179 0
-5018 5007 5008 0
-5018 -5007 -5008 0
5018 -5007 5008 0
5018 5007 -5008 0
-5019 5018 5008 0
-5019 -5018 -5008 0
5019 -5018 5008 0
5019 5018 -5008 0
-5020 5019 5009 0
-5020 -5019 -5009 0
5020 -5019 5009 0
5020 5019 -5009 0
-5021 5020 5010 0
-5021 -5020 -5010 0
5021 -5020 5010 0
5021 5020 -5010 0
-5022 5021 5010 0
-5022 -5021 -5010 0
5022 -5021 5010 0
5022 5021 -5010 0
-5023 5022 5011 0
-5023 -5022 -5011 0
5023 -5022 5011 0
5023 5022 -5011 0
-5024 5023 5012 0
-5024 -5023 -5012 0
5024 -5023 5012 0
5024 5023 -5012 0
-5025 5024 5012 0
-5025 -5024 -5012 0
5025 -5024 5012 0
5025 5024 -5012 0
-5026 5025 5013 0
-5026 -5025 -5013 0
5026 -5025 5013 0
5026 5025 -5013 0
-5027 5026 5014 0
-5027 -5026 -5014 0
5027 -5026 5014 0
5027 5026 -5014 0
-5028 5027 5014 0
-5028 -5027 -5014 0
5028 -5027 5014 0
5028 5027 -5014 0
-5029 5028 5015 0
-5029 -5028 -5015 0
5029 -5028 5015 0
5029 5028 -5015 0
-5030 5029 5015 0
-5030 -5029 -5015 0
5030 -5029 5015 0
5030 5029 -5015 0
-5031 5030 5016 0
-5031 -5030 -5016 0
5031 -5030 5016 0
5031 5030 -5016 0
-5032 5031 5016 0
-5032 -5031 -5016 0
5032 -5031 5016 0
5032 5031 -5016 0
-5033 5032 5017 0
-5033 -5032 -5017 0
5033 -5032 5017 0
5033 5032 -5017 0
-5033 0
-5034 4936 0
-5034 37 0
5034 -4936 -37 0
-5035 4938 0
-5035 37 0
5035 -4938 -37 0
-5036 4938 0
-5036 41 0
5036 -4938 -41 0
-5037 4940 0
-5037 34 0
5037 -4940 -34 0
-5038 4942 0
-5038 34 0
5038 -4942 -34 0
-5039 4942 0
-5039 35 0
5039 -4942 -35 0
-5040 4944 0
-5040 85 0
5040 -4944 -85 0
-5041 4946 0
-5041 85 0
5041 -4946 -85 0
-5042 4946 0
-5042 89 0
5042 -4946 -89 0
-5043 4948 0
-5043 82 0
5043 -4948 -82 0
-5044 4950 0
-5044 82 0
5044 -4950 -82 0
-5045 4950 0
-5045 83 0
5045 -4950 -83 0
-5046 4952 0
-5046 133 0
5046 -4952 -133 0
-5047 4952 0
-5047 141 0
5047 -4952 -141 0
-5048 4954 0
-5048 130 0
5048 -4954 -130 0
-5049 4954 0
-5049 132 0
5049 -4954 -132 0
-5050 4956 0
-5050 181 0
5050 -4956 -181 0
-5051 5034 5035 0
-5051 -5034 -5035 0
5051 -5034 5035 0
5051 5034 -5035 0
-5052 5051 5036 0
-5052 -5051 -5036 0
5052 -5051 5036 0
5052 5051 -5036 0
-5053 5052 5037 0
-5053 -5052 -5037 0
5053 -5052 5037 0
5053 5052 -5037 0
-5054 5053 5038 0
-5054 -5053 -5038 0
5054 -5053 5038 0
5054 5053 -5038 0
-5055 5054 5039 0
-5055 -5054 -5039 0
5055 -5054 5039 0
5055 5054 -5039 0
-5056 5055 5040 0
-5056 -5055 -5040 0
5056 -5055 5040 0
5056 5055 -5040 0
-5057 5056 5041 0
-5057 -5056 -5041 0
5057 -5056 5041 0
5057 5056 -5041 0
-5058 5057 5042 0
-5058 -5057 -5042 0
5058 -5057 5042 0
5058 5057 -5042 0
-5059 5058 5043 0
-5059 -5058 -5043 0
5059 -5058 5043 0
5059 5058 -5043 0
-5060 5059 5044 0
-5060 -5059 -5044 0
5060 -5059 5044 0
5060 5059 -5044 0
-5061 5060 5045 0
-5061 -5060 -5045 0
5061 -5060 5045 0
5061 5060 -5045 0
-5062 5061 5046 0
-5062 -5061 -5046 0
5062 -5061 5046 0
5062 5061 -5046 0
-5063 5062 5047 0
-5063 -5062 -5047 0
5063 -5062 5047 0
5063 5062 -5047 0
-5064 5063 5048 0
-5064 -5063 -5048 0
5064 -5063 5048 0
5064 5063 -5048 0
-5065 5064 5049 0
-5065 -5064 -5049 0
5065 -5064 5049 0
5065 5064 -5049 0
-5066 5065 5050 0
-5066 -5065 -5050 0
5066 -5065 5050 0
5066 5065 -5050 0
-5066 0
-5067 4936 0
-5067 38 0
5067 -4936 -38 0
-5068 4938 0
-5068 38 0
5068 -4938 -38 0
-5069 4938 0
-5069 43 0
5069 -4938 -43 0
-5070 4940 0
-5070 38 0
5070 -4940 -38 0
-5071 4942 0
-5071 38 0
5071 -4942 -38 0
-5072 4942 0
-5072 43 0
5072 -4942 -43 0
-5073 4944 0
-5073 86 0
5073 -4944 -86 0
-5074 4946 0
-5074 86 0
5074 -4946 -86 0
-5075 4946 0
-5075 91 0
5075 -4946 -91 0
-5076 4948 0
-5076 86 0
5076 -4948 -86 0
-5077 4950 0
-5077 86 0
5077 -4950 -86 0
-5078 4950 0
-5078 91 0
5078 -4950 -91 0
-5079 4952 0
-5079 134 0
5079 -4952 -134 0
-5080 4952 0
-5080 144 0
5080 -4952 -144 0
-5081 4954 0
-5081 134 0
5081 -4954 -134 0
-5082 4954 0
-5082 144 0
5082 -4954 -144 0
-5083 4956 0
-5083 182 0
5083 -4956 -182 0
-5084 5067 5068 0
-5084 -5067 -5068 0
5084 -5067 5068 0
5084 5067 -5068 0
-5085 5084 5069 0
-5085 -5084 -5069 0
5085 -5084 5069 0
5085 5084 -5069 0
-5086 5085 5070 0
-5086 -5085 -5070 0
5086 -5085 5070 0
5086 5085 -5070 0
-5087 5086 5071 0
-5087 -5086 -5071 0
5087 -5086 5071 0
5087 5086 -5071 0
-5088 5087 5072 0
-5088 -5087 -5072 0
5088 -5087 5072 0
5088 5087 -5072 0
-5089 5088 5073 0
-5089 -5088 -5073 0
5089 -5088 5073 0
5089 5088 -5073 0
-5090 5089 5074 0
-5090 -5089 -5074 0
5090 -5089 5074 0
5090 5089 -5074 0
-5091 5090 5075 0
-5091 -5090 -5075 0
5091 -5090 5075 0
5091 5090 -5075 0
-5092 5091 5076 0
-5092 -5091 -5076 0
5092 -5091 5076 0
5092 5091 -5076 0
-5093 5092 5077 0
-5093 -5092 -5077 0
5093 -5092 5077 0
5093 5092 -5077 0
-5094 5093 5078 0
-5094 -5093 -5078 0
5094 -5093 5078 0
5094 5093 -5078 0
-5095 5094 5079 0
-5095 -5094 -5079 0
5095 -5094 5079 0
5095 5094 -5079 0
-5096 5095 5080 0
-5096 -5095 -5080 0
5096 -5095 5080 0
5096 5095 -5080 0
-5097 5096 5081 0
-5097 -5096 -5081 0
5097 -5096 5081 0
5097 5096 -5081 0
-5098 5097 5082 0
-5098 -5097 -5082 0
5098 -5097 5082 0
5098 5097 -5082 0
-5099 5098 5083 0
-5099 -5098 -5083 0
5099 -5098 5083 0
5099 5098 -5083 0
-5099 0
-5100 4936 0
-5100 39 0
5100 -4936 -39 0
-5101 4938 0
-5101 40 0
5101 -4938 -40 0
-5102 4938 0
-5102 44 0
5102 -4938 -44 0
-5103 4940 0
-5103 42 0
5103 -4940 -42 0
-5104 4942 0
-5104 46 0
5104 -4942 -46 0
-5105 4942 0
-5105 47 0
5105 -4942 -47 0
-5106 4944 0
-5106 87 0
5106 -4944 -87 0
-5107 4946 0
-5107 88 0
5107 -4946 -88 0
-5108 4946 0
-5108 92 0
5108 -4946 -92 0
-5109 4948 0
-5109 90 0
5109 -4948 -90 0
-5110 4950 0
-5110 94 0
5110 -4950 -94 0
-5111 4950 0
-5111 95 0
5111 -4950 -95 0
-5112 4952 0
-5112 135 0
5112 -4952 -135 0
-5113 4952 0
-5113 143 0
5113 -4952 -143 0
-5114 4954 0
-5114 138 0
5114 -4954 -138 0
-5115 4954 0
-5115 140 0
5115 -4954 -140 0
-5116 4956 0
-5116 183 0
5116 -4956 -183 0
-5117 5100 5101 0
-5117 -5100 -5101 0
5117 -5100 5101 0
5117 5100 -5101 0
-5118 5117 5102 0
-5118 -5117 -5102 0
5118 -5117 5102 0
5118 5117 -5102 0
-5119 5118 5103 0
-5119 -5118 -5103 0
5119 -5118 5103 0
5119 5118 -5103 0
-5120 5119 5104 0
-5120 -5119 -5104 0
5120 -5119 5104 0
5120 5119 -5104 0
-5121 5120 5105 0
-5121 -5120 -5105 0
5121 -5120 5105 0
5121 5120 -5105 0
-5122 5121 5106 0
-5122 -5121 -5106 0
5122 -5121 5106 0
5122 5121 -5106 0
-5123 5122 5107 0
-5123 -5122 -5107 0
5123 -5122 5107 0
5123 5122 -5107 0
-5124 5123 5108 0
-5124 -5123 -5108 0
5124 -5123 5108 0
5124 5123 -5108 0
-5125 5124 5109 0
-5125 -5124 -5109 0
5125 -5124 5109 0
5125 5124 -5109 0
-5126 5125 5110 0
-5126 -5125 -5110 0
5126 -5125 5110 0
5126 5125 -5110 0
-5127 5126 5111 0
-5127 -5126 -5111 0
5127 -5126 5111 0
5127 5126 -5111 0
-5128 5127 5112 0
-5128 -5127 -5112 0
5128 -5127 5112 0
5128 5127 -5112 0
-5129 5128 5113 0
-5129 -5128 -5113 0
5129 -5128 5113 0
5129 5128 -5113 0
-5130 5129 5114 0
-5130 -5129 -5114 0
5130 -5129 5114 0
5130 5129 -5114 0
-5131 5130 5115 0
-5131 -5130 -5115 0
5131 -5130 5115 0
5131 5130 -5115 0
-5132 5131 5116 0
-5132 -5131 -5116 0
5132 -5131 5116 0
5132 5131 -5116 0
-5132 0
-5133 4936 0
-5133 40 0
5133 -4936 -40 0
-5134 4938 0
-5134 39 0
5134 -4938 -39 0
-5135 4938 0
-5135 42 0
5135 -4938 -42 0
-5136 4940 0
-5136 46 0
5136 -4940 -46 0
-5137 4942 0
-5137 42 0
5137 -4942 -42 0
-5138 4942 0
-5138 39 0
5138 -4942 -39 0
-5139 4944 0
-5139 88 0
5139 -4944 -88 0
-5140 4946 0
-5140 87 0
5140 -4946 -87 0
-5141 4946 0
-5141 90 0
5141 -4946 -90 0
-5142 4948 0
-5142 94 0
5142 -4948 -94 0
-5143 4950 0
-5143 90 0
5143 -4950 -90 0
-5144 4950 0
-5144 87 0
5144 -4950 -87 0
-5145 4952 0
-5145 136 0
5145 -4952 -136 0
-5146 4952 0
-5146 142 0
5146 -4952 -142 0
-5147 4954 0
-5147 142 0
5147 -4954 -142 0
-5148 4954 0
-5148 136 0
5148 -4954 -136 0
-5149 4956 0
-5149 184 0
5149 -4956 -184 0
-5150 5133 5134 0
-5150 -5133 -5134 0
5150 -5133 5134 0
5150 5133 -5134 0
-5151 5150 5135 0
-5151 -5150 -5135 0
5151 -5150 5135 0
5151 5150 -5135 0
-5152 5151 5136 0
-5152 -5151 -5136 0
5152 -5151 5136 0
5152 5151 -5136 0
-5153 5152 5137 0
-5153 -5152 -5137 0
5153 -5152 5137 0
5153 5152 -5137 0
-5154 5153 5138 0
-5154 -5153 -5138 0
5154 -5153 5138 0
5154 5153 -5138 0
-5155 5154 5139 0
-5155 -5154 -5139 0
5155 -5154 5139 0
5155 5154 -5139 0
-5156 5155 5140 0
-5156 -5155 -5140 0
5156 -5155 5140 0
5156 5155 -5140 0
-5157 5156 5141 0
-5157 -5156 -5141 0
5157 -5156 5141 0
5157 5156 -5141 0
-5158 5157 5142 0
-5158 -5157 -5142 0
5158 -5157 5142 0
5158 5157 -5142 0
-5159 5158 5143 0
-5159 -5158 -5143 0
5159 -5158 5143 0
5159 5158 -5143 0
-5160 5159 5144 0
-5160 -5159 -5144 0
5160 -5159 5144 0
5160 5159 -5144 0
-5161 5160 5145 0
-5161 -5160 -5145 0
5161 -5160 5145 0
5161 5160 -5145 0
-5162 5161 5146 0
-5162 -5161 -5146 0
5162 -5161 5146 0
5162 5161 -5146 0
-5163 5162 5147 0
-5163 -5162 -5147 0
5163 -5162 5147 0
5163 5162 -5147 0
-5164 5163 5148 0
-5164 -5163 -5148 0
5164 -5163 5148 0
5164 5163 -5148 0
-5165 5164 5149 0
-5165 -5164 -5149 0
5165 -5164 5149 0
5165 5164 -5149 0
-5165 0
-5166 4936 0
-5166 41 0
5166 -4936 -41 0
-5167 4938 0
-5167 45 0
5167 -4938 -45 0
-5168 4940 0
-5168 35 0
5168 -4940 -35 0
-5169 4942 0
-5169 36 0
5169 -4942 -36 0
-5170 4944 0
-5170 89 0
5170 -4944 -89 0
-5171 4946 0
-5171 93 0
5171 -4946 -93 0
-5172 4948 0
-5172 83 0
5172 -4948 -83 0
-5173 4950 0
-5173 84 0
5173 -4950 -84 0
-5174 4952 0
-5174 137 0
5174 -4952 -137 0
-5175 4954 0
-5175 131 0
5175 -4954 -131 0
-5176 4956 0
-5176 185 0
5176 -4956 -185 0
-5177 5166 5167 0
-5177 -5166 -5167 0
5177 -5166 5167 0
5177 5166 -5167 0
-5178 5177 5167 0
-5178 -5177 -5167 0
5178 -5177 5167 0
5178 5177 -5167 0
-5179 5178 5168 0
-5179 -5178 -5168 0
5179 -5178 5168 0
5179 5178 -5168 0
-5180 5179 5169 0
-5180 -5179 -5169 0
5180 -5179 5169 0
5180 5179 -5169 0
-5181 5180 5169 0
-5181 -5180 -5169 0
5181 -5180 5169 0
5181 5180 -5169 0
-5182 5181 5170 0
-5182 -5181 -5170 0
5182 -5181 5170 0
5182 5181 -5170 0
-5183 5182 5171 0
-5183 -5182 -5171 0
5183 -5182 5171 0
5183 5182 -5171 0
-5184 5183 5171 0
-5184 -5183 -5171 0
5184 -5183 5171 0
5184 5183 -5171 0
-5185 5184 5172 0
-5185 -5184 -5172 0
5185 -5184 5172 0
5185 5184 -5172 0
-5186 5185 5173 0
-5186 -5185 -5173 0
5186 -5185 5173 0
5186 5185 -5173 0
-5187 5186 5173 0
-5187 -5186 -5173 0
5187 -5186 5173 0
5187 5186 -5173 0
-5188 5187 5174 0
-5188 -5187 -5174 0
5188 -5187 5174 0
5188 5187 -5174 0
-5189 5188 5174 0
-5189 -5188 -5174 0
5189 -5188 5174 0
5189 5188 -5174 0
-5190 5189 5175 0
-5190 -5189 -5175 0
5190 -5189 5175 0
5190 5189 -5175 0
-5191 5190 5175 0
-5191 -5190 -5175 0
5191 -5190 5175 0
5191 5190 -5175 0
-5192 5191 5176 0
-5192 -5191 -5176 0
5192 -5191 5176 0
5192 5191 -5176 0
-5192 0
-5193 4936 0
-5193 42 0
5193 -4936 -42 0
-5194 4938 0
-5194 46 0
5194 -4938 -46 0
-5195 4938 0
-5195 47 0
5195 -4938 -47 0
-5196 4940 0
-5196 39 0
5196 -4940 -39 0
-5197 4942 0
-5197 40 0
5197 -4942 -40 0
-5198 4942 0
-5198 44 0
5198 -4942 -44 0
-5199 4944 0
-5199 90 0
5199 -4944 -90 0
-5200 4946 0
-5200 94 0
5200 -4946 -94 0
-5201 4946 0
-5201 95 0
5201 -4946 -95 0
-5202 4948 0
-5202 87 0
5202 -4948 -87 0
-5203 4950 0
-5203 88 0
5203 -4950 -88 0
-5204 4950 0
-5204 92 0
5204 -4950 -92 0
-5205 4952 0
-5205 138 0
5205 -4952 -138 0
-5206 4952 0
-5206 140 0
5206 -4952 -140 0
-5207 4954 0
-5207 135 0
5207 -4954 -135 0
-5208 4954 0
-5208 143 0
5208 -4954 -143 0
-5209 4956 0
-5209 186 0
5209 -4956 -186 0
-5210 5193 5194 0
-5210 -5193 -5194 0
5210 -5193 5194 0
5210 5193 -5194 0
-5211 5210 5195 0
-5211 -5210 -5195 0
5211 -5210 5195 0
5211 5210 -5195 0
-5212 5211 5196 0
-5212 -5211 -5196 0
5212 -5211 5196 0
5212 5211 -5196 0
-5213 5212 5197 0
-5213 -5212 -5197 0
5213 -5212 5197 0
5213 5212 -5197 0
-5214 5213 5198 0
-5214 -5213 -5198 0
5214 -5213 5198 0
5214 5213 -5198 0
-5215 5214 5199 0
-5215 -5214 -5199 0
5215 -5214 5199 0
5215 5214 -5199 0
-5216 5215 5200 0
-5216 -5215 -5200 0
5216 -5215 5200 0
5216 5215 -5200 0
-5217 5216 5201 0
-5217 -5216 -5201 0
5217 -5216 5201 0
5217 5216 -5201 0
-5218 5217 5202 0
-5218 -5217 -5202 0
5218 -5217 5202 0
5218 5217 -5202 0
-5219 5218 5203 0
-5219 -5218 -5203 0
5219 -5218 5203 0
5219 5218 -5203 0
-5220 5219 5204 0
-5220 -5219 -5204 0
5220 -5219 5204 0
5220 5219 -5204 0
-5221 5220 5205 0
-5221 -5220 -5205 0
5221 -5220 5205 0
5221 5220 -5205 0
-5222 5221 5206 0
-5222 -5221 -5206 0
5222 -5221 5206 0
5222 5221 -5206 0
-5223 5222 5207 0
-5223 -5222 -5207 0
5223 -5222 5207 0
5223 5222 -5207 0
-5224 5223 5208 0
-5224 -5223 -5208 0
5224 -5223 5208 0
5224 5223 -5208 0
-5225 5224 5209 0
-5225 -5224 -5209 0
5225 -5224 5209 0
5225 5224 -5209 0
-5225 0
-5226 4936 0
-5226 43 0
5226 -4936 -43 0
-5227 4938 0
-5227 48 0
5227 -4938 -48 0
-5228 4940 0
-5228 43 0
5228 -4940 -43 0
-5229 4942 0
-5229 48 0
5229 -4942 -48 0
-5230 4944 0
-5230 91 0
5230 -4944 -91 0
-5231 4946 0
-5231 96 0
5231 -4946 -96 0
-5232 4948 0
-5232 91 0
5232 -4948 -91 0
-5233 4950 0
-5233 96 0
5233 -4950 -96 0
-5234 4952 0
-5234 139 0
5234 -4952 -139 0
-5235 4954 0
-5235 139 0
5235 -4954 -139 0
-5236 4956 0
-5236 187 0
5236 -4956 -187 0
-5237 5226 5227 0
-5237 -5226 -5227 0
5237 -5226 5227 0
5237 5226 -5227 0
-5238 5237 5227 0
-5238 -5237 -5227 0
5238 -5237 5227 0
5238 5237 -5227 0
-5239 5238 5228 0
-5239 -5238 -5228 0
5239 -5238 5228 0
5239 5238 -5228 0
-5240 5239 5229 0
-5240 -5239 -5229 0
5240 -5239 5229 0
5240 5239 -5229 0
-5241 5240 5229 0
-5241 -5240 -5229 0
5241 -5240 5229 0
5241 5240 -5229 0
-5242 5241 5230 0
-5242 -5241 -5230 0
5242 -5241 5230 0
5242 5241 -5230 0
-5243 5242 5231 0
-5243 -5242 -5231 0
5243 -5242 5231 0
5243 5242 -5231 0
-5244 5243 5231 0
-5244 -5243 -5231 0
5244 -5243 5231 0
5244 5243 -5231 0
-5245 5244 5232 0
-5245 -5244 -5232 0
5245 -5244 5232 0
5245 5244 -5232 0
-5246 5245 5233 0
-5246 -5245 -5233 0
5246 -5245 5233 0
5246 5245 -5233 0
-5247 5246 5233 0
-5247 -5246 -5233 0
5247 -5246 5233 0
5247 5246 -5233 0
-5248 5247 5234 0
-5248 -5247 -5234 0
5248 -5247 5234 0
5248 5247 -5234 0
-5249 5248 5234 0
-5249 -5248 -5234 0
5249 -5248 5234 0
5249 5248 -5234 0
-5250 5249 5235 0
-5250 -5249 -5235 0
5250 -5249 5235 0
5250 5249 -5235 0
-5251 5250 5235 0
-5251 -5250 -5235 0
5251 -5250 5235 0
5251 5250 -5235 0
-5252 5251 5236 0
-5252 -5251 -5236 0
5252 -5251 5236 0
5252 5251 -5236 0
-5252 0
-5253 4 0
-5253 29 0
5253 -4 -29 0
-5254 5253 0
-5254 33 0
5254 -5253 -33 0
-5255 52 0
-5255 77 0
5255 -52 -77 0
-5256 5255 0
-5256 81 0
5256 -5255 -81 0
-5257 100 0
-5257 125 0
5257 -100 -125 0
-5258 5257 0
-5258 129 0
5258 -5257 -129 0
-5259 148 0
-5259 173 0
5259 -148 -173 0
-5260 5259 0
-5260 177 0
5260 -5259 -177 0
-5261 5254 5254 0
-5261 -5254 -5254 0
5261 -5254 5254 0
5261 5254 -5254 0
-5262 5261 5254 0
-5262 -5261 -5254 0
5262 -5261 5254 0
5262 5261 -5254 0
-5263 5262 5254 0
-5263 -5262 -5254 0
5263 -5262 5254 0
5263 5262 -5254 0
-5264 5263 5254 0
-5264 -5263 -5254 0
5264 -5263 5254 0
5264 5263 -5254 0
-5265 5264 5254 0
-5265 -5264 -5254 0
5265 -5264 5254 0
5265 5264 -5254 0
-5266 5265 5256 0
-5266 -5265 -5256 0
5266 -5265 5256 0
5266 5265 -5256 0
-5267 5266 5256 0
-5267 -5266 -5256 0
5267 -5266 5256 0
5267 5266 -5256 0
-5268 5267 5256 0
-5268 -5267 -5256 0
5268 -5267 5256 0
5268 5267 -5256 0
-5269 5268 5256 0
-5269 -5268 -5256 0
5269 -5268 5256 0
5269 5268 -5256 0
-5270 5269 5256 0
-5270 -5269 -5256 0
5270 -5269 5256 0
5270 5269 -5256 0
-5271 5270 5256 0
-5271 -5270 -5256 0
5271 -5270 5256 0
5271 5270 -5256 0
-5272 5271 5258 0
-5272 -5271 -5258 0
5272 -5271 5258 0
5272 5271 -5258 0
-5273 5272 5258 0
-5273 -5272 -5258 0
5273 -5272 5258 0
5273 5272 -5258 0
-5274 5273 5258 0
-5274 -5273 -5258 0
5274 -5273 5258 0
5274 5273 -5258 0
-5275 5274 5258 0
-5275 -5274 -5258 0
5275 -5274 5258 0
5275 5274 -5258 0
-5276 5275 5260 0
-5276 -5275 -5260 0
5276 -5275 5260 0
5276 5275 -5260 0
-5276 0
-5277 5253 0
-5277 34 0
5277 -5253 -34 0
-5278 5253 0
-5278 35 0
5278 -5253 -35 0
-5279 5253 0
-5279 37 0
5279 -5253 -37 0
-5280 5253 0
-5280 41 0
5280 -5253 -41 0
-5281 5255 0
-5281 82 0
5281 -5255 -82 0
-5282 5255 0
-5282 83 0
5282 -5255 -83 0
-5283 5255 0
-5283 85 0
5283 -5255 -85 0
-5284 5255 0
-5284 89 0
5284 -5255 -89 0
-5285 5257 0
-5285 130 0
5285 -5257 -130 0
-5286 5257 0
-5286 132 0
5286 -5257 -132 0
-5287 5257 0
-5287 133 0
5287 -5257 -133 0
-5288 5257 0
-5288 141 0
5288 -5257 -141 0
-5289 5259 0
-5289 178 0
5289 -5259 -178 0
-5290 5277 5277 0
-5290 -5277 -5277 0
5290 -5277 5277 0
5290 5277 -5277 0
-5291 5290 5278 0
-5291 -5290 -5278 0
5291 -5290 5278 0
5291 5290 -5278 0
-5292 5291 5279 0
-5292 -5291 -5279 0
5292 -5291 5279 0
5292 5291 -5279 0
-5293 5292 5279 0
-5293 -5292 -5279 0
5293 -5292 5279 0
5293 5292 -5279 0
-5294 5293 5280 0
-5294 -5293 -5280 0
5294 -5293 5280 0
5294 5293 -5280 0
-5295 5294 5281 0
-5295 -5294 -5281 0
5295 -5294 5281 0
5295 5294 -5281 0
-5296 5295 5281 0
-5296 -5295 -5281 0
5296 -5295 5281 0
5296 5295 -5281 0
-5297 5296 5282 0
-5297 -5296 -5282 0
5297 -5296 5282 0
5297 5296 -5282 0
-5298 5297 5283 0
-5298 -5297 -5283 0
5298 -5297 5283 0
5298 5297 -5283 0
-5299 5298 5283 0
-5299 -5298 -5283 0
5299 -5298 5283 0
5299 5298 -5283 0
-5300 5299 5284 0
-5300 -5299 -5284 0
5300 -5299 5284 0
5300 5299 -5284 0
-5301 5300 5285 0
-5301 -5300 -5285 0
5301 -5300 5285 0
5301 5300 -5285 0
-5302 5301 5286 0
-5302 -5301 -5286 0
5302 -5301 5286 0
5302 5301 -5286 0
-5303 5302 5287 0
-5303 -5302 -5287 0
5303 -5302 5287 0
5303 5302 -5287 0
-5304 5303 5288 0
-5304 -5303 -5288 0
5304 -5303 5288 0
5304 5303 -5288 0
-5305 5304 5289 0
-5305 -5304 -5289 0
5305 -5304 5289 0
5305 5304 -5289 0
5305 0
-5306 5253 0
-5306 38 0
5306 -5253 -38 0
-5307 5253 0
-5307 43 0
5307 -5253 -43 0
-5308 5255 0
-5308 86 0
5308 -5255 -86 0
-5309 5255 0
-5309 91 0
5309 -5255 -91 0
-5310 5257 0
-5310 134 0
5310 -5257 -134 0
-5311 5257 0
-5311 144 0
5311 -5257 -144 0
-5312 5259 0
-5312 182 0
5312 -5259 -182 0
-5313 5306 5306 0
-5313 -5306 -5306 0
5313 -5306 5306 0
5313 5306 -5306 0
-5314 5313 5307 0
-5314 -5313 -5307 0
5314 -5313 5307 0
5314 5313 -5307 0
-5315 5314 5306 0
-5315 -5314 -5306 0
5315 -5314 5306 0
5315 5314 -5306 0
-5316 5315 5306 0
-5316 -5315 -5306 0
5316 -5315 5306 0
5316 5315 -5306 0
-5317 5316 5307 0
-5317 -5316 -5307 0
5317 -5316 5307 0
5317 5316 -5307 0
-5318 5317 5308 0
-5318 -5317 -5308 0
5318 -5317 5308 0
5318 5317 -5308 0
-5319 5318 5308 0
-5319 -5318 -5308 0
5319 -5318 5308 0
5319 5318 -5308 0
-5320 5319 5309 0
-5320 -5319 -5309 0
5320 -5319 5309 0
5320 5319 -5309 0
-5321 5320 5308 0
-5321 -5320 -5308 0
5321 -5320 5308 0
5321 5320 -5308 0
-5322 5321 5308 0
-5322 -5321 -5308 0
5322 -5321 5308 0
5322 5321 -5308 0
-5323 5322 5309 0
-5323 -5322 -5309 0
5323 -5322 5309 0
5323 5322 -5309 0
-5324 5323 5310 0
-5324 -5323 -5310 0
5324 -5323 5310 0
5324 5323 -5310 0
-5325 5324 5311 0
-5325 -5324 -5311 0
5325 -5324 5311 0
5325 5324 -5311 0
-5326 5325 5310 0
-5326 -5325 -5310 0
5326 -5325 5310 0
5326 5325 -5310 0
-5327 5326 5311 0
-5327 -5326 -5311 0
5327 -5326 5311 0
5327 5326 -5311 0
-5328 5327 5312 0
-5328 -5327 -5312 0
5328 -5327 5312 0
5328 5327 -5312 0
-5328 0
-5329 5253 0
-5329 39 0
5329 -5253 -39 0
-5330 5253 0
-5330 40 0
5330 -5253 -40 0
-5331 5253 0
-5331 44 0
5331 -5253 -44 0
-5332 5253 0
-5332 42 0
5332 -5253 -42 0
-5333 5253 0
-5333 46 0
5333 -5253 -46 0
-5334 5253 0
-5334 47 0
5334 -5253 -47 0
-5335 5255 0
-5335 87 0
5335 -5255 -87 0
-5336 5255 0
-5336 88 0
5336 -5255 -88 0
-5337 5255 0
-5337 92 0
5337 -5255 -92 0
-5338 5255 0
-5338 90 0
5338 -5255 -90 0
-5339 5255 0
-5339 94 0
5339 -5255 -94 0
-5340 5255 0
-5340 95 0
5340 -5255 -95 0
-5341 5257 0
-5341 135 0
5341 -5257 -135 0
-5342 5257 0
-5342 143 0
5342 -5257 -143 0
-5343 5257 0
-5343 138 0
5343 -5257 -138 0
-5344 5257 0
-5344 140 0
5344 -5257 -140 0
-5345 5259 0
-5345 183 0
5345 -5259 -183 0
-5346 5329 5330 0
-5346 -5329 -5330 0
5346 -5329 5330 0
5346 5329 -5330 0
-5347 5346 5331 0
-5347 -5346 -5331 0
5347 -5346 5331 0
5347 5346 -5331 0
-5348 5347 5332 0
-5348 -5347 -5332 0
5348 -5347 5332 0
5348 5347 -5332 0
-5349 5348 5333 0
-5349 -5348 -5333 0
5349 -5348 5333 0
5349 5348 -5333 0
-5350 5349 5334 0
-5350 -5349 -5334 0
5350 -5349 5334 0
5350 5349 -5334 0
-5351 5350 5335 0
-5351 -5350 -5335 0
5351 -5350 5335 0
5351 5350 -5335 0
-5352 5351 5336 0
-5352 -5351 -5336 0
5352 -5351 5336 0
5352 5351 -5336 0
-5353 5352 5337 0
-5353 -5352 -5337 0
5353 -5352 5337 0
5353 5352 -5337 0
-5354 5353 5338 0
-5354 -5353 -5338 0
5354 -5353 5338 0
5354 5353 -5338 0
-5355 5354 5339 0
-5355 -5354 -5339 0
5355 -5354 5339 0
5355 5354 -5339 0
-5356 5355 5340 0
-5356 -5355 -5340 0
5356 -5355 5340 0
5356 5355 -5340 0
-5357 5356 5341 0
-5357 -5356 -5341 0
5357 -5356 5341 0
5357 5356 -5341 0
-5358 5357 5342 0
-5358 -5357 -5342 0
5358 -5357 5342 0
5358 5357 -5342 0
-5359 5358 5343 0
-5359 -5358 -5343 0
5359 -5358 5343 0
5359 5358 -5343 0
-5360 5359 5344 0
-5360 -5359 -5344 0
5360 -5359 5344 0
5360 5359 -5344 0
-5361 5360 5345 0
-5361 -5360 -5345 0
5361 -5360 5345 0
5361 5360 -5345 0
-5361 0
-5362 4 0
-5362 30 0
5362 -4 -30 0
-5363 5362 0
-5363 33 0
5363 -5362 -33 0
-5364 4 0
-5364 31 0
5364 -4 -31 0
-5365 5364 0
-5365 33 0
5365 -5364 -33 0
-5366 29 0
-5366 8 0
5366 -29 -8 0
-5367 5366 0
-5367 33 0
5367 -5366 -33 0
-5368 29 0
-5368 12 0
5368 -29 -12 0
-5369 5368 0
-5369 33 0
5369 -5368 -33 0
-5370 52 0
-5370 78 0
5370 -52 -78 0
-5371 5370 0
-5371 81 0
5371 -5370 -81 0
-5372 52 0
-5372 79 0
5372 -52 -79 0
-5373 5372 0
-5373 81 0
5373 -5372 -81 0
-5374 77 0
-5374 56 0
5374 -77 -56 0
-5375 5374 0
-5375 81 0
5375 -5374 -81 0
-5376 77 0
-5376 60 0
5376 -77 -60 0
-5377 5376 0
-5377 81 0
5377 -5376 -81 0
-5378 100 0
-5378 126 0
5378 -100 -126 0
-5379 5378 0
-5379 129 0
5379 -5378 -129 0
-5380 100 0
-5380 128 0
5380 -100 -128 0
-5381 5380 0
-5381 129 0
5381 -5380 -129 0
-5382 125 0
-5382 104 0
5382 -125 -104 0
-5383 5382 0
-5383 129 0
5383 -5382 -129 0
-5384 125 0
-5384 112 0
5384 -125 -112 0
-5385 5384 0
-5385 129 0
5385 -5384 -129 0
-5386 148 0
-5386 174 0
5386 -148 -174 0
-5387 5386 0
-5387 177 0
5387 -5386 -177 0
-5388 5363 5363 0
-5388 -5363 -5363 0
5388 -5363 5363 0
5388 5363 -5363 0
-5389 5388 5365 0
-5389 -5388 -5365 0
5389 -5388 5365 0
5389 5388 -5365 0
-5390 5389 5367 0
-5390 -5389 -5367 0
5390 -5389 5367 0
5390 5389 -5367 0
-5391 5390 5367 0
-5391 -5390 -5367 0
5391 -5390 5367 0
5391 5390 -5367 0
-5392 5391 5369 0
-5392 -5391 -5369 0
5392 -5391 5369 0
5392 5391 -5369 0
-5393 5392 5371 0
-5393 -5392 -5371 0
5393 -5392 5371 0
5393 5392 -5371 0
-5394 5393 5371 0
-5394 -5393 -5371 0
5394 -5393 5371 0
5394 5393 -5371 0
-5395 5394 5373 0
-5395 -5394 -5373 0
5395 -5394 5373 0
5395 5394 -5373 0
-5396 5395 5375 0
-5396 -5395 -5375 0
5396 -5395 5375 0
5396 5395 -5375 0
-5397 5396 5375 0
-5397 -5396 -5375 0
5397 -5396 5375 0
5397 5396 -5375 0
-5398 5397 5377 0
-5398 -5397 -5377 0
5398 -5397 5377 0
5398 5397 -5377 0
-5399 5398 5379 0
-5399 -5398 -5379 0
5399 -5398 5379 0
5399 5398 -5379 0
-5400 5399 5381 0
-5400 -5399 -5381 0
5400 -5399 5381 0
5400 5399 -5381 0
-5401 5400 5383 0
-5401 -5400 -5383 0
5401 -5400 5383 0
5401 5400 -5383 0
-5402 5401 5385 0
-5402 -5401 -5385 0
5402 -5401 5385 0
5402 5401 -5385 0
-5403 5402 5387 0
-5403 -5402 -5387 0
5403 -5402 5387 0
5403 5402 -5387 0
-5403 0
-5404 5362 0
-5404 34 0
5404 -5362 -34 0
-5405 5364 0
-5405 35 0
5405 -5364 -35 0
-5406 5366 0
-5406 37 0
5406 -5366 -37 0
-5407 5368 0
-5407 41 0
5407 -5368 -41 0
-5408 5370 0
-5408 82 0
5408 -5370 -82 0
-5409 5372 0
-5409 83 0
5409 -5372 -83 0
-5410 5374 0
-5410 85 0
5410 -5374 -85 0
-5411 5376 0
-5411 89 0
5411 -5376 -89 0
-5412 5378 0
-5412 130 0
5412 -5378 -130 0
-5413 5380 0
-5413 132 0
5413 -5380 -132 0
-5414 5382 0
-5414 133 0
5414 -5382 -133 0
-5415 5384 0
-5415 141 0
5415 -5384 -141 0
-5416 5386 0
-5416 178 0
5416 -5386 -178 0
-5417 5404 5404 0
-5417 -5404 -5404 0
5417 -5404 5404 0
5417 5404 -5404 0
-5418 5417 5405 0
-5418 -5417 -5405 0
5418 -5417 5405 0
5418 5417 -5405 0
-5419 5418 5406 0
-5419 -5418 -5406 0
5419 -5418 5406 0
5419 5418 -5406 0
-5420 5419 5406 0
-5420 -5419 -5406 0
5420 -5419 5406 0
5420 5419 -5406 0
-5421 5420 5407 0
-5421 -5420 -5407 0
5421 -5420 5407 0
5421 5420 -5407 0
-5422 5421 5408 0
-5422 -5421 -5408 0
5422 -5421 5408 0
5422 5421 -5408 0
-5423 5422 5408 0
-5423 -5422 -5408 0
5423 -5422 5408 0
5423 5422 -5408 0
-5424 5423 5409 0
-5424 -5423 -5409 0
5424 -5423 5409 0
5424 5423 -5409 0
-5425 5424 5410 0
-5425 -5424 -5410 0
5425 -5424 5410 0
5425 5424 -5410 0
-5426 5425 5410 0
-5426 -5425 -5410 0
5426 -5425 5410 0
5426 5425 -5410 0
-5427 5426 5411 0
-5427 -5426 -5411 0
5427 -5426 5411 0
5427 5426 -5411 0
-5428 5427 5412 0
-5428 -5427 -5412 0
5428 -5427 5412 0
5428 5427 -5412 0
-5429 5428 5413 0
-5429 -5428 -5413 0
5429 -5428 5413 0
5429 5428 -5413 0
-5430 5429 5414 0
-5430 -5429 -5414 0
5430 -5429 5414 0
5430 5429 -5414 0
-5431 5430 5415 0
-5431 -5430 -5415 0
5431 -5430 5415 0
5431 5430 -5415 0
-5432 5431 5416 0
-5432 -5431 -5416 0
5432 -5431 5416 0
5432 5431 -5416 0
-5432 0
-5433 5362 0
-5433 35 0
5433 -5362 -35 0
-5434 5362 0
-5434 36 0
5434 -5362 -36 0
-5435 5364 0
-5435 36 0
5435 -5364 -36 0
-5436 5366 0
-5436 41 0
5436 -5366 -41 0
-5437 5366 0
-5437 45 0
5437 -5366 -45 0
-5438 5368 0
-5438 45 0
5438 -5368 -45 0
-5439 5370 0
-5439 83 0
5439 -5370 -83 0
-5440 5370 0
-5440 84 0
5440 -5370 -84 0
-5441 5372 0
-5441 84 0
5441 -5372 -84 0
-5442 5374 0
-5442 89 0
5442 -5374 -89 0
-5443 5374 0
-5443 93 0
5443 -5374 -93 0
-5444 5376 0
-5444 93 0
5444 -5376 -93 0
-5445 5378 0
-5445 131 0
5445 -5378 -131 0
-5446 5380 0
-5446 131 0
5446 -5380 -131 0
-5447 5382 0
-5447 137 0
5447 -5382 -137 0
-5448 5384 0
-5448 137 0
5448 -5384 -137 0
-5449 5386 0
-5449 179 0
5449 -5386 -179 0
-5450 5433 5434 0
-5450 -5433 -5434 0
5450 -5433 5434 0
5450 5433 -5434 0
-5451 5450 5435 0
-5451 -5450 -5435 0
5451 -5450 5435 0
5451 5450 -5435 0
-5452 5451 5436 0
-5452 -5451 -5436 0
5452 -5451 5436 0
5452 5451 -5436 0
-5453 5452 5437 0
-5453 -5452 -5437 0
5453 -5452 5437 0
5453 5452 -5437 0
-5454 5453 5438 0
-5454 -5453 -5438 0
5454 -5453 5438 0
5454 5453 -5438 0
-5455 5454 5439 0
-5455 -5454 -5439 0
5455 -5454 5439 0
5455 5454 -5439 0
-5456 5455 5440 0
-5456 -5455 -5440 0
5456 -5455 5440 0
5456 5455 -5440 0
-5457 5456 5441 0
-5457 -5456 -5441 0
5457 -5456 5441 0
5457 5456 -5441 0
-5458 5457 5442 0
-5458 -5457 -5442 0
5458 -5457 5442 0
5458 5457 -5442 0
-5459 5458 5443 0
-5459 -5458 -5443 0
5459 -5458 5443 0
5459 5458 -5443 0
-5460 5459 5444 0
-5460 -5459 -5444 0
5460 -5459 5444 0
5460 5459 -5444 0
-5461 5460 5445 0
-5461 -5460 -5445 0
5461 -5460 5445 0
5461 5460 -5445 0
-5462 5461 5446 0
-5462 -5461 -5446 0
5462 -5461 5446 0
5462 5461 -5446 0
-5463 5462 5447 0
-5463 -5462 -5447 0
5463 -5462 5447 0
5463 5462 -5447 0
-5464 5463 5448 0
-5464 -5463 -5448 0
5464 -5463 5448 0
5464 5463 -5448 0
-5465 5464 5449 0
-5465 -5464 -5449 0
5465 -5464 5449 0
5465 5464 -5449 0
5465 0
-5466 5362 0
-5466 37 0
5466 -5362 -37 0
-5467 5364 0
-5467 41 0
5467 -5364 -41 0
-5468 5366 0
-5468 34 0
5468 -5366 -34 0
-5469 5368 0
-5469 35 0
5469 -5368 -35 0
-5470 5370 0
-5470 85 0
5470 -5370 -85 0
-5471 5372 0
-5471 89 0
5471 -5372 -89 0
-5472 5374 0
-5472 82 0
5472 -5374 -82 0
-5473 5376 0
-5473 83 0
5473 -5376 -83 0
-5474 5378 0
-5474 133 0
5474 -5378 -133 0
-5475 5380 0
-5475 141 0
5475 -5380 -141 0
-5476 5382 0
-5476 130 0
5476 -5382 -130 0
-5477 5384 0
-5477 132 0
5477 -5384 -132 0
-5478 5386 0
-5478 181 0
5478 -5386 -181 0
-5479 5466 5466 0
-5479 -5466 -5466 0
5479 -5466 5466 0
5479 5466 -5466 0
-5480 5479 5467 0
-5480 -5479 -5467 0
5480 -5479 5467 0
5480 5479 -5467 0
-5481 5480 5468 0
-5481 -5480 -5468 0
5481 -5480 5468 0
5481 5480 -5468 0
-5482 5481 5468 0
-5482 -5481 -5468 0
5482 -5481 5468 0
5482 5481 -5468 0
-5483 5482 5469 0
-5483 -5482 -5469 0
5483 -5482 5469 0
5483 5482 -5469 0
-5484 5483 5470 0
-5484 -5483 -5470 0
5484 -5483 5470 0
5484 5483 -5470 0
-5485 5484 5470 0
-5485 -5484 -5470 0
5485 -5484 5470 0
5485 5484 -5470 0
-5486 5485 5471 0
-5486 -5485 -5471 0
5486 -5485 5471 0
5486 5485 -5471 0
-5487 5486 5472 0
-5487 -5486 -5472 0
5487 -5486 5472 0
5487 5486 -5472 0
-5488 5487 5472 0
-5488 -5487 -5472 0
5488 -5487 5472 0
5488 5487 -5472 0
-5489 5488 5473 0
-5489 -5488 -5473 0
5489 -5488 5473 0
5489 5488 -5473 0
-5490 5489 5474 0
-5490 -5489 -5474 0
5490 -5489 5474 0
5490 5489 -5474 0
-5491 5490 5475 0
-5491 -5490 -5475 0
5491 -5490 5475 0
5491 5490 -5475 0
-5492 5491 5476 0
-5492 -5491 -5476 0
5492 -5491 5476 0
5492 5491 -5476 0
-5493 5492 5477 0
-5493 -5492 -5477 0
5493 -5492 5477 0
5493 5492 -5477 0
-5494 5493 5478 0
-5494 -5493 -5478 0
5494 -5493 5478 0
5494 5493 -5478 0
5494 0
-5495 5362 0
-5495 38 0
5495 -5362 -38 0
-5496 5364 0
-5496 43 0
5496 -5364 -43 0
-5497 5366 0
-5497 38 0
5497 -5366 -38 0
-5498 5368 0
-5498 43 0
5498 -5368 -43 0
-5499 5370 0
-5499 86 0
5499 -5370 -86 0
-5500 5372 0
-5500 91 0
5500 -5372 -91 0
-5501 5374 0
-5501 86 0
5501 -5374 -86 0
-5502 5376 0
-5502 91 0
5502 -5376 -91 0
-5503 5378 0
-5503 134 0
5503 -5378 -134 0
-5504 5380 0
-5504 144 0
5504 -5380 -144 0
-5505 5382 0
-5505 134 0
5505 -5382 -134 0
-5506 5384 0
-5506 144 0
5506 -5384 -144 0
-5507 5386 0
-5507 182 0
5507 -5386 -182 0
-5508 5495 5495 0
-5508 -5495 -5495 0
5508 -5495 5495 0
5508 5495 -5495 0
-5509 5508 5496 0
-5509 -5508 -5496 0
5509 -5508 5496 0
5509 5508 -5496 0
-5510 5509 5497 0
-5510 -5509 -5497 0
5510 -5509 5497 0
5510 5509 -5497 0
-5511 5510 5497 0
-5511 -5510 -5497 0
5511 -5510 5497 0
5511 5510 -5497 0
-5512 5511 5498 0
-5512 -5511 -5498 0
5512 -5511 5498 0
5512 5511 -5498 0
-5513 5512 5499 0
-5513 -5512 -5499 0
5513 -5512 5499 0
5513 5512 -5499 0
-5514 5513 5499 0
-5514 -5513 -5499 0
5514 -5513 5499 0
5514 5513 -5499 0
-5515 5514 5500 0
-5515 -5514 -5500 0
5515 -5514 5500 0
5515 5514 -5500 0
-5516 5515 5501 0
-5516 -5515 -5501 0
5516 -5515 5501 0
5516 5515 -5501 0
-5517 5516 5501 0
-5517 -5516 -5501 0
5517 -5516 5501 0
5517 5516 -5501 0
-5518 5517 5502 0
-5518 -5517 -5502 0
5518 -5517 5502 0
5518 5517 -5502 0
-5519 5518 5503 0
-5519 -5518 -5503 0
5519 -5518 5503 0
5519 5518 -5503 0
-5520 5519 5504 0
-5520 -5519 -5504 0
5520 -5519 5504 0
5520 5519 -5504 0
-5521 5520 5505 0
-5521 -5520 -5505 0
5521 -5520 5505 0
5521 5520 -5505 0
-5522 5521 5506 0
-5522 -5521 -5506 0
5522 -5521 5506 0
5522 5521 -5506 0
-5523 5522 5507 0
-5523 -5522 -5507 0
5523 -5522 5507 0
5523 5522 -5507 0
-5523 0
-5524 5362 0
-5524 39 0
5524 -5362 -39 0
-5525 5362 0
-5525 40 0
5525 -5362 -40 0
-5526 5364 0
-5526 44 0
5526 -5364 -44 0
-5527 5366 0
-5527 42 0
5527 -5366 -42 0
-5528 5366 0
-5528 46 0
5528 -5366 -46 0
-5529 5368 0
-5529 47 0
5529 -5368 -47 0
-5530 5370 0
-5530 87 0
5530 -5370 -87 0
-5531 5370 0
-5531 88 0
5531 -5370 -88 0
-5532 5372 0
-5532 92 0
5532 -5372 -92 0
-5533 5374 0
-5533 90 0
5533 -5374 -90 0
-5534 5374 0
-5534 94 0
5534 -5374 -94 0
-5535 5376 0
-5535 95 0
5535 -5376 -95 0
-5536 5378 0
-5536 135 0
5536 -5378 -135 0
-5537 5380 0
-5537 143 0
5537 -5380 -143 0
-5538 5382 0
-5538 138 0
5538 -5382 -138 0
-5539 5384 0
-5539 140 0
5539 -5384 -140 0
-5540 5386 0
-5540 183 0
5540 -5386 -183 0
-5541 5524 5525 0
-5541 -5524 -5525 0
5541 -5524 5525 0
5541 5524 -5525 0
-5542 5541 5526 0
-5542 -5541 -5526 0
5542 -5541 5526 0
5542 5541 -5526 0
-5543 5542 5527 0
-5543 -5542 -5527 0
5543 -5542 5527 0
5543 5542 -5527 0
-5544 5543 5528 0
-5544 -5543 -5528 0
5544 -5543 5528 0
5544 5543 -5528 0
-5545 5544 5529 0
-5545 -5544 -5529 0
5545 -5544 5529 0
5545 5544 -5529 0
-5546 5545 5530 0
-5546 -5545 -5530 0
5546 -5545 5530 0
5546 5545 -5530 0
-5547 5546 5531 0
-5547 -5546 -5531 0
5547 -5546 5531 0
5547 5546 -5531 0
-5548 5547 5532 0
-5548 -5547 -5532 0
5548 -5547 5532 0
5548 5547 -5532 0
-5549 5548 5533 0
-5549 -5548 -5533 0
5549 -5548 5533 0
5549 5548 -5533 0
-5550 5549 5534 0
-5550 -5549 -5534 0
5550 -5549 5534 0
5550 5549 -5534 0
-5551 5550 5535 0
-5551 -5550 -5535 0
5551 -5550 5535 0
5551 5550 -5535 0
-5552 5551 5536 0
-5552 -5551 -5536 0
5552 -5551 5536 0
5552 5551 -5536 0
-5553 5552 5537 0
-5553 -5552 -5537 0
5553 -5552 5537 0
5553 5552 -5537 0
-5554 5553 5538 0
-5554 -5553 -5538 0
5554 -5553 5538 0
5554 5553 -5538 0
-5555 5554 5539 0
-5555 -5554 -5539 0
5555 -5554 5539 0
5555 5554 -5539 0
-5556 5555 5540 0
-5556 -5555 -5540 0
5556 -5555 5540 0
5556 5555 -5540 0
-5556 0
-5557 5362 0
-5557 41 0
5557 -5362 -41 0
-5558 5362 0
-5558 45 0
5558 -5362 -45 0
-5559 5364 0
-5559 45 0
5559 -5364 -45 0
-5560 5366 0
-5560 35 0
5560 -5366 -35 0
-5561 5366 0
-5561 36 0
5561 -5366 -36 0
-5562 5368 0
-5562 36 0
5562 -5368 -36 0
-5563 5370 0
-5563 89 0
5563 -5370 -89 0
-5564 5370 0
-5564 93 0
5564 -5370 -93 0
-5565 5372 0
-5565 93 0
5565 -5372 -93 0
-5566 5374 0
-5566 83 0
5566 -5374 -83 0
-5567 5374 0
-5567 84 0
5567 -5374 -84 0
-5568 5376 0
-5568 84 0
5568 -5376 -84 0
-5569 5378 0
-5569 137 0
5569 -5378 -137 0
-5570 5380 0
-5570 137 0
5570 -5380 -137 0
-5571 5382 0
-5571 131 0
5571 -5382 -131 0
-5572 5384 0
-5572 131 0
5572 -5384 -131 0
-5573 5386 0
-5573 185 0
5573 -5386 -185 0
-5574 5557 5558 0
-5574 -5557 -5558 0
5574 -5557 5558 0
5574 5557 -5558 0
-5575 5574 5559 0
-5575 -5574 -5559 0
5575 -5574 5559 0
5575 5574 -5559 0
-5576 5575 5560 0
-5576 -5575 -5560 0
5576 -5575 5560 0
5576 5575 -5560 0
-5577 5576 5561 0
-5577 -5576 -5561 0
5577 -5576 5561 0
5577 5576 -5561 0
-5578 5577 5562 0
-5578 -5577 -5562 0
5578 -5577 5562 0
5578 5577 -5562 0
-5579 5578 5563 0
-5579 -5578 -5563 0
5579 -5578 5563 0
5579 5578 -5563 0
-5580 5579 5564 0
-5580 -5579 -5564 0
5580 -5579 5564 0
5580 5579 -5564 0
-5581 5580 5565 0
-5581 -5580 -5565 0
5581 -5580 5565 0
5581 5580 -5565 0
-5582 5581 5566 0
-5582 -5581 -5566 0
5582 -5581 5566 0
5582 5581 -5566 0
-5583 5582 5567 0
-5583 -5582 -5567 0
5583 -5582 5567 0
5583 5582 -5567 0
-5584 5583 5568 0
-5584 -5583 -5568 0
5584 -5583 5568 0
5584 5583 -5568 0
-5585 5584 5569 0
-5585 -5584 -5569 0
5585 -5584 5569 0
5585 5584 -5569 0
-5586 5585 5570 0
-5586 -5585 -5570 0
5586 -5585 5570 0
5586 5585 -5570 0
-5587 5586 5571 0
-5587 -5586 -5571 0
5587 -5586 5571 0
5587 5586 -5571 0
-5588 5587 5572 0
-5588 -5587 -5572 0
5588 -5587 5572 0
5588 5587 -5572 0
-5589 5588 5573 0
-5589 -5588 -5573 0
5589 -5588 5573 0
5589 5588 -5573 0
-5589 0
-5590 5362 0
-5590 42 0
5590 -5362 -42 0
-5591 5362 0
-5591 46 0
5591 -5362 -46 0
-5592 5364 0
-5592 47 0
5592 -5364 -47 0
-5593 5366 0
-5593 39 0
5593 -5366 -39 0
-5594 5366 0
-5594 40 0
5594 -5366 -40 0
-5595 5368 0
-5595 44 0
5595 -5368 -44 0
-5596 5370 0
-5596 90 0
5596 -5370 -90 0
-5597 5370 0
-5597 94 0
5597 -5370 -94 0
-5598 5372 0
-5598 95 0
5598 -5372 -95 0
-5599 5374 0
-5599 87 0
5599 -5374 -87 0
-5600 5374 0
-5600 88 0
5600 -5374 -88 0
-5601 5376 0
-5601 92 0
5601 -5376 -92 0
-5602 5378 0
-5602 138 0
5602 -5378 -138 0
-5603 5380 0
-5603 140 0
5603 -5380 -140 0
-5604 5382 0
-5604 135 0
5604 -5382 -135 0
-5605 5384 0
-5605 143 0
5605 -5384 -143 0
-5606 5386 0
-5606 186 0
5606 -5386 -186 0
-5607 5590 5591 0
-5607 -5590 -5591 0
5607 -5590 5591 0
5607 5590 -5591 0
-5608 5607 5592 0
-5608 -5607 -5592 0
5608 -5607 5592 0
5608 5607 -5592 0
-5609 5608 5593 0
-5609 -5608 -5593 0
5609 -5608 5593 0
5609 5608 -5593 0
-5610 5609 5594 0
-5610 -5609 -5594 0
5610 -5609 5594 0
5610 5609 -5594 0
-5611 5610 5595 0
-5611 -5610 -5595 0
5611 -5610 5595 0
5611 5610 -5595 0
-5612 5611 5596 0
-5612 -5611 -5596 0
5612 -5611 5596 0
5612 5611 -5596 0
-5613 5612 5597 0
-5613 -5612 -5597 0
5613 -5612 5597 0
5613 5612 -5597 0
-5614 5613 5598 0
-5614 -5613 -5598 0
5614 -5613 5598 0
5614 5613 -5598 0
-5615 5614 5599 0
-5615 -5614 -5599 0
5615 -5614 5599 0
5615 5614 -5599 0
-5616 5615 5600 0
-5616 -5615 -5600 0
5616 -5615 5600 0
5616 5615 -5600 0
-5617 5616 5601 0
-5617 -5616 -5601 0
5617 -5616 5601 0
5617 5616 -5601 0
-5618 5617 5602 0
-5618 -5617 -5602 0
5618 -5617 5602 0
5618 5617 -5602 0
-5619 5618 5603 0
-5619 -5618 -5603 0
5619 -5618 5603 0
5619 5618 -5603 0
-5620 5619 5604 0
-5620 -5619 -5604 0
5620 -5619 5604 0
5620 5619 -5604 0
-5621 5620 5605 0
-5621 -5620 -5605 0
5621 -5620 5605 0
5621 5620 -5605 0
-5622 5621 5606 0
-5622 -5621 -5606 0
5622 -5621 5606 0
5622 5621 -5606 0
-5622 0
-5623 5362 0
-5623 43 0
5623 -5362 -43 0
-5624 5362 0
-5624 48 0
5624 -5362 -48 0
-5625 5364 0
-5625 48 0
5625 -5364 -48 0
-5626 5366 0
-5626 43 0
5626 -5366 -43 0
-5627 5366 0
-5627 48 0
5627 -5366 -48 0
-5628 5368 0
-5628 48 0
5628 -5368 -48 0
-5629 5370 0
-5629 91 0
5629 -5370 -91 0
-5630 5370 0
-5630 96 0
5630 -5370 -96 0
-5631 5372 0
-5631 96 0
5631 -5372 -96 0
-5632 5374 0
-5632 91 0
5632 -5374 -91 0
-5633 5374 0
-5633 96 0
5633 -5374 -96 0
-5634 5376 0
-5634 96 0
5634 -5376 -96 0
-5635 5378 0
-5635 139 0
5635 -5378 -139 0
-5636 5380 0
-5636 139 0
5636 -5380 -139 0
-5637 5382 0
-5637 139 0
5637 -5382 -139 0
-5638 5384 0
-5638 139 0
5638 -5384 -139 0
-5639 5386 0
-5639 187 0
5639 -5386 -187 0
-5640 5623 5624 0
-5640 -5623 -5624 0
5640 -5623 5624 0
5640 5623 -5624 0
-5641 5640 5625 0
-5641 -5640 -5625 0
5641 -5640 5625 0
5641 5640 -5625 0
-5642 5641 5626 0
-5642 -5641 -5626 0
5642 -5641 5626 0
5642 5641 -5626 0
-5643 5642 5627 0
-5643 -5642 -5627 0
5643 -5642 5627 0
5643 5642 -5627 0
-5644 5643 5628 0
-5644 -5643 -5628 0
5644 -5643 5628 0
5644 5643 -5628 0
-5645 5644 5629 0
-5645 -5644 -5629 0
5645 -5644 5629 0
5645 5644 -5629 0
-5646 5645 5630 0
-5646 -5645 -5630 0
5646 -5645 5630 0
5646 5645 -5630 0
-5647 5646 5631 0
-5647 -5646 -5631 0
5647 -5646 5631 0
5647 5646 -5631 0
-5648 5647 5632 0
-5648 -5647 -5632 0
5648 -5647 5632 0
5648 5647 -5632 0
-5649 5648 5633 0
-5649 -5648 -5633 0
5649 -5648 5633 0
5649 5648 -5633 0
-5650 5649 5634 0
-5650 -5649 -5634 0
5650 -5649 5634 0
5650 5649 -5634 0
-5651 5650 5635 0
-5651 -5650 -5635 0
5651 -5650 5635 0
5651 5650 -5635 0
-5652 5651 5636 0
-5652 -5651 -5636 0
5652 -5651 5636 0
5652 5651 -5636 0
-5653 5652 5637 0
-5653 -5652 -5637 0
5653 -5652 5637 0
5653 5652 -5637 0
-5654 5653 5638 0
-5654 -5653 -5638 0
5654 -5653 5638 0
5654 5653 -5638 0
-5655 5654 5639 0
-5655 -5654 -5639 0
5655 -5654 5639 0
5655 5654 -5639 0
-5655 0
-5656 5362 0
-5656 44 0
5656 -5362 -44 0
-5657 5362 0
-5657 47 0
5657 -5362 -47 0
-5658 5364 0
-5658 46 0
5658 -5364 -46 0
-5659 5366 0
-5659 47 0
5659 -5366 -47 0
-5660 5366 0
-5660 44 0
5660 -5366 -44 0
-5661 5368 0
-5661 40 0
5661 -5368 -40 0
-5662 5370 0
-5662 92 0
5662 -5370 -92 0
-5663 5370 0
-5663 95 0
5663 -5370 -95 0
-5664 5372 0
-5664 94 0
5664 -5372 -94 0
-5665 5374 0
-5665 95 0
5665 -5374 -95 0
-5666 5374 0
-5666 92 0
5666 -5374 -92 0
-5667 5376 0
-5667 88 0
5667 -5376 -88 0
-5668 5378 0
-5668 140 0
5668 -5378 -140 0
-5669 5380 0
-5669 138 0
5669 -5380 -138 0
-5670 5382 0
-5670 143 0
5670 -5382 -143 0
-5671 5384 0
-5671 135 0
5671 -5384 -135 0
-5672 5386 0
-5672 188 0
5672 -5386 -188 0
-5673 5656 5657 0
-5673 -5656 -5657 0
5673 -5656 5657 0
5673 5656 -5657 0
-5674 5673 5658 0
-5674 -5673 -5658 0
5674 -5673 5658 0
5674 5673 -5658 0
-5675 5674 5659 0
-5675 -5674 -5659 0
5675 -5674 5659 0
5675 5674 -5659 0
-5676 5675 5660 0
-5676 -5675 -5660 0
5676 -5675 5660 0
5676 5675 -5660 0
-5677 5676 5661 0
-5677 -5676 -5661 0
5677 -5676 5661 0
5677 5676 -5661 0
-5678 5677 5662 0
-5678 -5677 -5662 0
5678 -5677 5662 0
5678 5677 -5662 0
-5679 5678 5663 0
-5679 -5678 -5663 0
5679 -5678 5663 0
5679 5678 -5663 0
-5680 5679 5664 0
-5680 -5679 -5664 0
5680 -5679 5664 0
5680 5679 -5664 0
-5681 5680 5665 0
-5681 -5680 -5665 0
5681 -5680 5665 0
5681 5680 -5665 0
-5682 5681 5666 0
-5682 -5681 -5666 0
5682 -5681 5666 0
5682 5681 -5666 0
-5683 5682 5667 0
-5683 -5682 -5667 0
5683 -5682 5667 0
5683 5682 -5667 0
-5684 5683 5668 0
-5684 -5683 -5668 0
5684 -5683 5668 0
5684 5683 -5668 0
-5685 5684 5669 0
-5685 -5684 -5669 0
5685 -5684 5669 0
5685 5684 -5669 0
-5686 5685 5670 0
-5686 -5685 -5670 0
5686 -5685 5670 0
5686 5685 -5670 0
-5687 5686 5671 0
-5687 -5686 -5671 0
5687 -5686 5671 0
5687 5686 -5671 0
-5688 5687 5672 0
-5688 -5687 -5672 0
5688 -5687 5672 0
5688 5687 -5672 0
5688 0
-5689 5 0
-5689 18 0
5689 -5 -18 0
-5690 5689 0
-5690 33 0
5690 -5689 -33 0
-5691 6 0
-5691 22 0
5691 -6 -22 0
-5692 5691 0
-5692 33 0
5692 -5691 -33 0
-5693 10 0
-5693 23 0
5693 -10 -23 0
-5694 5693 0
-5694 33 0
5694 -5693 -33 0
-5695 53 0
-5695 66 0
5695 -53 -66 0
-5696 5695 0
-5696 81 0
5696 -5695 -81 0
-5697 54 0
-5697 70 0
5697 -54 -70 0
-5698 5697 0
-5698 81 0
5698 -5697 -81 0
-5699 58 0
-5699 71 0
5699 -58 -71 0
-5700 5699 0
-5700 81 0
5700 -5699 -81 0
-5701 101 0
-5701 114 0
5701 -101 -114 0
-5702 5701 0
-5702 129 0
5702 -5701 -129 0
-5703 109 0
-5703 116 0
5703 -109 -116 0
-5704 5703 0
-5704 129 0
5704 -5703 -129 0
-5705 149 0
-5705 162 0
5705 -149 -162 0
-5706 5705 0
-5706 177 0
5706 -5705 -177 0
-5707 5690 5692 0
-5707 -5690 -5692 0
5707 -5690 5692 0
5707 5690 -5692 0
-5708 5707 5694 0
-5708 -5707 -5694 0
5708 -5707 5694 0
5708 5707 -5694 0
-5709 5708 5690 0
-5709 -5708 -5690 0
5709 -5708 5690 0
5709 5708 -5690 0
-5710 5709 5692 0
-5710 -5709 -5692 0
5710 -5709 5692 0
5710 5709 -5692 0
-5711 5710 5694 0
-5711 -5710 -5694 0
5711 -5710 5694 0
5711 5710 -5694 0
-5712 5711 5696 0
-5712 -5711 -5696 0
5712 -5711 5696 0
5712 5711 -5696 0
-5713 5712 5698 0
-5713 -5712 -5698 0
5713 -5712 5698 0
5713 5712 -5698 0
-5714 5713 5700 0
-5714 -5713 -5700 0
5714 -5713 5700 0
5714 5713 -5700 0
-5715 5714 5696 0
-5715 -5714 -5696 0
5715 -5714 5696 0
5715 5714 -5696 0
-5716 5715 5698 0
-5716 -5715 -5698 0
5716 -5715 5698 0
5716 5715 -5698 0
-5717 5716 5700 0
-5717 -5716 -5700 0
5717 -5716 5700 0
5717 5716 -5700 0
-5718 5717 5702 0
-5718 -5717 -5702 0
5718 -5717 5702 0
5718 5717 -5702 0
-5719 5718 5704 0
-5719 -5718 -5704 0
5719 -5718 5704 0
5719 5718 -5704 0
-5720 5719 5702 0
-5720 -5719 -5702 0
5720 -5719 5702 0
5720 5719 -5702 0
-5721 5720 5704 0
-5721 -5720 -5704 0
5721 -5720 5704 0
5721 5720 -5704 0
-5722 5721 5706 0
-5722 -5721 -5706 0
5722 -5721 5706 0
5722 5721 -5706 0
-5722 0
-5723 5689 0
-5723 34 0
5723 -5689 -34 0
-5724 5691 0
-5724 34 0
5724 -5691 -34 0
-5725 5693 0
-5725 35 0
5725 -5693 -35 0
-5726 5689 0
-5726 37 0
5726 -5689 -37 0
-5727 5691 0
-5727 37 0
5727 -5691 -37 0
-5728 5693 0
-5728 41 0
5728 -5693 -41 0
-5729 5695 0
-5729 82 0
5729 -5695 -82 0
-5730 5697 0
-5730 82 0
5730 -5697 -82 0
-5731 5699 0
-5731 83 0
5731 -5699 -83 0
-5732 5695 0
-5732 85 0
5732 -5695 -85 0
-5733 5697 0
-5733 85 0
5733 -5697 -85 0
-5734 5699 0
-5734 89 0
5734 -5699 -89 0
-5735 5701 0
-5735 130 0
5735 -5701 -130 0
-5736 5703 0
-5736 132 0
5736 -5703 -132 0
-5737 5701 0
-5737 133 0
5737 -5701 -133 0
-5738 5703 0
-5738 141 0
5738 -5703 -141 0
-5739 5705 0
-5739 178 0
5739 -5705 -178 0
-5740 5723 5724 0
-5740 -5723 -5724 0
5740 -5723 5724 0
5740 5723 -5724 0
-5741 5740 5725 0
-5741 -5740 -5725 0
5741 -5740 5725 0
5741 5740 -5725 0
-5742 5741 5726 0
-5742 -5741 -5726 0
5742 -5741 5726 0
5742 5741 -5726 0
-5743 5742 5727 0
-5743 -5742 -5727 0
5743 -5742 5727 0
5743 5742 -5727 0
-5744 5743 5728 0
-5744 -5743 -5728 0
5744 -5743 5728 0
5744 5743 -5728 0
-5745 5744 5729 0
-5745 -5744 -5729 0
5745 -5744 5729 0
5745 5744 -5729 0
-5746 5745 5730 0
-5746 -5745 -5730 0
5746 -5745 5730 0
5746 5745 -5730 0
-5747 5746 5731 0
-5747 -5746 -5731 0
5747 -5746 5731 0
5747 5746 -5731 0
-5748 5747 5732 0
-5748 -5747 -5732 0
5748 -5747 5732 0
5748 5747 -5732 0
-5749 5748 5733 0
-5749 -5748 -5733 0
5749 -5748 5733 0
5749 5748 -5733 0
-5750 5749 5734 0
-5750 -5749 -5734 0
5750 -5749 5734 0
5750 5749 -5734 0
-5751 5750 5735 0
-5751 -5750 -5735 0
5751 -5750 5735 0
5751 5750 -5735 0
-5752 5751 5736 0
-5752 -5751 -5736 0
5752 -5751 5736 0
5752 5751 -5736 0
-5753 5752 5737 0
-5753 -5752 -5737 0
5753 -5752 5737 0
5753 5752 -5737 0
-5754 5753 5738 0
-5754 -5753 -5738 0
5754 -5753 5738 0
5754 5753 -5738 0
-5755 5754 5739 0
-5755 -5754 -5739 0
5755 -5754 5739 0
5755 5754 -5739 0
-5755 0
-5756 5689 0
-5756 35 0
5756 -5689 -35 0
-5757 5691 0
-5757 36 0
5757 -5691 -36 0
-5758 5693 0
-5758 36 0
5758 -5693 -36 0
-5759 5689 0
-5759 41 0
5759 -5689 -41 0
-5760 5691 0
-5760 45 0
5760 -5691 -45 0
-5761 5693 0
-5761 45 0
5761 -5693 -45 0
-5762 5695 0
-5762 83 0
5762 -5695 -83 0
-5763 5697 0
-5763 84 0
5763 -5697 -84 0
-5764 5699 0
-5764 84 0
5764 -5699 -84 0
-5765 5695 0
-5765 89 0
5765 -5695 -89 0
-5766 5697 0
-5766 93 0
5766 -5697 -93 0
-5767 5699 0
-5767 93 0
5767 -5699 -93 0
-5768 5701 0
-5768 131 0
5768 -5701 -131 0
-5769 5703 0
-5769 131 0
5769 -5703 -131 0
-5770 5701 0
-5770 137 0
5770 -5701 -137 0
-5771 5703 0
-5771 137 0
5771 -5703 -137 0
-5772 5705 0
-5772 179 0
5772 -5705 -179 0
-5773 5756 5757 0
-5773 -5756 -5757 0
5773 -5756 5757 0
5773 5756 -5757 0
-5774 5773 5758 0
-5774 -5773 -5758 0
5774 -5773 5758 0
5774 5773 -5758 0
-5775 5774 5759 0
-5775 -5774 -5759 0
5775 -5774 5759 0
5775 5774 -5759 0
-5776 5775 5760 0
-5776 -5775 -5760 0
5776 -5775 5760 0
5776 5775 -5760 0
-5777 5776 5761 0
-5777 -5776 -5761 0
5777 -5776 5761 0
5777 5776 -5761 0
-5778 5777 5762 0
-5778 -5777 -5762 0
5778 -5777 5762 0
5778 5777 -5762 0
-5779 5778 5763 0
-5779 -5778 -5763 0
5779 -5778 5763 0
5779 5778 -5763 0
-5780 5779 5764 0
-5780 -5779 -5764 0
5780 -5779 5764 0
5780 5779 -5764 0
-5781 5780 5765 0
-5781 -5780 -5765 0
5781 -5780 5765 0
5781 5780 -5765 0
-5782 5781 5766 0
-5782 -5781 -5766 0
5782 -5781 5766 0
5782 5781 -5766 0
-5783 5782 5767 0
-5783 -5782 -5767 0
5783 -5782 5767 0
5783 5782 -5767 0
-5784 5783 5768 0
-5784 -5783 -5768 0
5784 -5783 5768 0
5784 5783 -5768 0
-5785 5784 5769 0
-5785 -5784 -5769 0
5785 -5784 5769 0
5785 5784 -5769 0
-5786 5785 5770 0
-5786 -5785 -5770 0
5786 -5785 5770 0
5786 5785 -5770 0
-5787 5786 5771 0
-5787 -5786 -5771 0
5787 -5786 5771 0
5787 5786 -5771 0
-5788 5787 5772 0
-5788 -5787 -5772 0
5788 -5787 5772 0
5788 5787 -5772 0
-5788 0
-5789 5689 0
-5789 36 0
5789 -5689 -36 0
-5790 5691 0
-5790 35 0
5790 -5691 -35 0
-5791 5693 0
-5791 34 0
5791 -5693 -34 0
-5792 5689 0
-5792 45 0
5792 -5689 -45 0
-5793 5691 0
-5793 41 0
5793 -5691 -41 0
-5794 5693 0
-5794 37 0
5794 -5693 -37 0
-5795 5695 0
-5795 84 0
5795 -5695 -84 0
-5796 5697 0
-5796 83 0
5796 -5697 -83 0
-5797 5699 0
-5797 82 0
5797 -5699 -82 0
-5798 5695 0
-5798 93 0
5798 -5695 -93 0
-5799 5697 0
-5799 89 0
5799 -5697 -89 0
-5800 5699 0
-5800 85 0
5800 -5699 -85 0
-5801 5701 0
-5801 132 0
5801 -5701 -132 0
-5802 5703 0
-5802 130 0
5802 -5703 -130 0
-5803 5701 0
-5803 141 0
5803 -5701 -141 0
-5804 5703 0
-5804 133 0
5804 -5703 -133 0
-5805 5705 0
-5805 180 0
5805 -5705 -180 0
-5806 5789 5790 0
-5806 -5789 -5790 0
5806 -5789 5790 0
5806 5789 -5790 0
-5807 5806 5791 0
-5807 -5806 -5791 0
5807 -5806 5791 0
5807 5806 -5791 0
-5808 5807 5792 0
-5808 -5807 -5792 0
5808 -5807 5792 0
5808 5807 -5792 0
-5809 5808 5793 0
-5809 -5808 -5793 0
5809 -5808 5793 0
5809 5808 -5793 0
-5810 5809 5794 0
-5810 -5809 -5794 0
5810 -5809 5794 0
5810 5809 -5794 0
-5811 5810 5795 0
-5811 -5810 -5795 0
5811 -5810 5795 0
5811 5810 -5795 0
-5812 5811 5796 0
-5812 -5811 -5796 0
5812 -5811 5796 0
5812 5811 -5796 0
-5813 5812 5797 0
-5813 -5812 -5797 0
5813 -5812 5797 0
5813 5812 -5797 0
-5814 5813 5798 0
-5814 -5813 -5798 0
5814 -5813 5798 0
5814 5813 -5798 0
-5815 5814 5799 0
-5815 -5814 -5799 0
5815 -5814 5799 0
5815 5814 -5799 0
-5816 5815 5800 0
-5816 -5815 -5800 0
5816 -5815 5800 0
5816 5815 -5800 0
-5817 5816 5801 0
-5817 -5816 -5801 0
5817 -5816 5801 0
5817 5816 -5801 0
-5818 5817 5802 0
-5818 -5817 -5802 0
5818 -5817 5802 0
5818 5817 -5802 0
-5819 5818 5803 0
-5819 -5818 -5803 0
5819 -5818 5803 0
5819 5818 -5803 0
-5820 5819 5804 0
-5820 -5819 -5804 0
5820 -5819 5804 0
5820 5819 -5804 0
-5821 5820 5805 0
-5821 -5820 -5805 0
5821 -5820 5805 0
5821 5820 -5805 0
-5821 0
-5822 5689 0
-5822 38 0
5822 -5689 -38 0
-5823 5691 0
-5823 38 0
5823 -5691 -38 0
-5824 5693 0
-5824 43 0
5824 -5693 -43 0
-5825 5695 0
-5825 86 0
5825 -5695 -86 0
-5826 5697 0
-5826 86 0
5826 -5697 -86 0
-5827 5699 0
-5827 91 0
5827 -5699 -91 0
-5828 5701 0
-5828 134 0
5828 -5701 -134 0
-5829 5703 0
-5829 144 0
5829 -5703 -144 0
-5830 5705 0
-5830 182 0
5830 -5705 -182 0
-5831 5822 5823 0
-5831 -5822 -5823 0
5831 -5822 5823 0
5831 5822 -5823 0
-5832 5831 5824 0
-5832 -5831 -5824 0
5832 -5831 5824 0
5832 5831 -5824 0
-5833 5832 5822 0
-5833 -5832 -5822 0
5833 -5832 5822 0
5833 5832 -5822 0
-5834 5833 5823 0
-5834 -5833 -5823 0
5834 -5833 5823 0
5834 5833 -5823 0
-5835 5834 5824 0
-5835 -5834 -5824 0
5835 -5834 5824 0
5835 5834 -5824 0
-5836 5835 5825 0
-5836 -5835 -5825 0
5836 -5835 5825 0
5836 5835 -5825 0
-5837 5836 5826 0
-5837 -5836 -5826 0
5837 -5836 5826 0
5837 5836 -5826 0
-5838 5837 5827 0
-5838 -5837 -5827 0
5838 -5837 5827 0
5838 5837 -5827 0
-5839 5838 5825 0
-5839 -5838 -5825 0
5839 -5838 5825 0
5839 5838 -5825 0
-5840 5839 5826 0
-5840 -5839 -5826 0
5840 -5839 5826 0
5840 5839 -5826 0
-5841 5840 5827 0
-5841 -5840 -5827 0
5841 -5840 5827 0
5841 5840 -5827 0
-5842 5841 5828 0
-5842 -5841 -5828 0
5842 -5841 5828 0
5842 5841 -5828 0
-5843 5842 5829 0
-5843 -5842 -5829 0
5843 -5842 5829 0
5843 5842 -5829 0
-5844 5843 5828 0
-5844 -5843 -5828 0
5844 -5843 5828 0
5844 5843 -5828 0
-5845 5844 5829 0
-5845 -5844 -5829 0
5845 -5844 5829 0
5845 5844 -5829 0
-5846 5845 5830 0
-5846 -5845 -5830 0
5846 -5845 5830 0
5846 5845 -5830 0
-5846 0
-5847 5689 0
-5847 39 0
5847 -5689 -39 0
-5848 5691 0
-5848 40 0
5848 -5691 -40 0
-5849 5693 0
-5849 44 0
5849 -5693 -44 0
-5850 5689 0
-5850 42 0
5850 -5689 -42 0
-5851 5691 0
-5851 46 0
5851 -5691 -46 0
-5852 5693 0
-5852 47 0
5852 -5693 -47 0
-5853 5695 0
-5853 87 0
5853 -5695 -87 0
-5854 5697 0
-5854 88 0
5854 -5697 -88 0
-5855 5699 0
-5855 92 0
5855 -5699 -92 0
-5856 5695 0
-5856 90 0
5856 -5695 -90 0
-5857 5697 0
-5857 94 0
5857 -5697 -94 0
-5858 5699 0
-5858 95 0
5858 -5699 -95 0
-5859 5701 0
-5859 135 0
5859 -5701 -135 0
-5860 5703 0
-5860 143 0
5860 -5703 -143 0
-5861 5701 0
-5861 138 0
5861 -5701 -138 0
-5862 5703 0
-5862 140 0
5862 -5703 -140 0
-5863 5705 0
-5863 183 0
5863 -5705 -183 0
-5864 5847 5848 0
-5864 -5847 -5848 0
5864 -5847 5848 0
5864 5847 -5848 0
-5865 5864 5849 0
-5865 -5864 -5849 0
5865 -5864 5849 0
5865 5864 -5849 0
-5866 5865 5850 0
-5866 -5865 -5850 0
5866 -5865 5850 0
5866 5865 -5850 0
-5867 5866 5851 0
-5867 -5866 -5851 0
5867 -5866 5851 0
5867 5866 -5851 0
-5868 5867 5852 0
-5868 -5867 -5852 0
5868 -5867 5852 0
5868 5867 -5852 0
-5869 5868 5853 0
-5869 -5868 -5853 0
5869 -5868 5853 0
5869 5868 -5853 0
-5870 5869 5854 0
-5870 -5869 -5854 0
5870 -5869 5854 0
5870 5869 -5854 0
-5871 5870 5855 0
-5871 -5870 -5855 0
5871 -5870 5855 0
5871 5870 -5855 0
-5872 5871 5856 0
-5872 -5871 -5856 0
5872 -5871 5856 0
5872 5871 -5856 0
-5873 5872 5857 0
-5873 -5872 -5857 0
5873 -5872 5857 0
5873 5872 -5857 0
-5874 5873 5858 0
-5874 -5873 -5858 0
5874 -5873 5858 0
5874 5873 -5858 0
-5875 5874 5859 0
-5875 -5874 -5859 0
5875 -5874 5859 0
5875 5874 -5859 0
-5876 5875 5860 0
-5876 -5875 -5860 0
5876 -5875 5860 0
5876 5875 -5860 0
-5877 5876 5861 0
-5877 -5876 -5861 0
5877 -5876 5861 0
5877 5876 -5861 0
-5878 5877 5862 0
-5878 -5877 -5862 0
5878 -5877 5862 0
5878 5877 -5862 0
-5879 5878 5863 0
-5879 -5878 -5863 0
5879 -5878 5863 0
5879 5878 -5863 0
-5879 0
-5880 5689 0
-5880 40 0
5880 -5689 -40 0
-5881 5691 0
-5881 39 0
5881 -5691 -39 0
-5882 5693 0
-5882 42 0
5882 -5693 -42 0
-5883 5689 0
-5883 46 0
5883 -5689 -46 0
-5884 5691 0
-5884 42 0
5884 -5691 -42 0
-5885 5693 0
-5885 39 0
5885 -5693 -39 0
-5886 5695 0
-5886 88 0
5886 -5695 -88 0
-5887 5697 0
-5887 87 0
5887 -5697 -87 0
-5888 5699 0
-5888 90 0
5888 -5699 -90 0
-5889 5695 0
-5889 94 0
5889 -5695 -94 0
-5890 5697 0
-5890 90 0
5890 -5697 -90 0
-5891 5699 0
-5891 87 0
5891 -5699 -87 0
-5892 5701 0
-5892 136 0
5892 -5701 -136 0
-5893 5703 0
-5893 142 0
5893 -5703 -142 0
-5894 5701 0
-5894 142 0
5894 -5701 -142 0
-5895 5703 0
-5895 136 0
5895 -5703 -136 0
-5896 5705 0
-5896 184 0
5896 -5705 -184 0
-5897 5880 5881 0
-5897 -5880 -5881 0
5897 -5880 5881 0
5897 5880 -5881 0
-5898 5897 5882 0
-5898 -5897 -5882 0
5898 -5897 5882 0
5898 5897 -5882 0
-5899 5898 5883 0
-5899 -5898 -5883 0
5899 -5898 5883 0
5899 5898 -5883 0
-5900 5899 5884 0
-5900 -5899 -5884 0
5900 -5899 5884 0
5900 5899 -5884 0
-5901 5900 5885 0
-5901 -5900 -5885 0
5901 -5900 5885 0
5901 5900 -5885 0
-5902 5901 5886 0
-5902 -5901 -5886 0
5902 -5901 5886 0
5902 5901 -5886 0
-5903 5902 5887 0
-5903 -5902 -5887 0
5903 -5902 5887 0
5903 5902 -5887 0
-5904 5903 5888 0
-5904 -5903 -5888 0
5904 -5903 5888 0
5904 5903 -5888 0
-5905 5904 5889 0
-5905 -5904 -5889 0
5905 -5904 5889 0
5905 5904 -5889 0
-5906 5905 5890 0
-5906 -5905 -5890 0
5906 -5905 5890 0
5906 5905 -5890 0
-5907 5906 5891 0
-5907 -5906 -5891 0
5907 -5906 5891 0
5907 5906 -5891 0
-5908 5907 5892 0
-5908 -5907 -5892 0
5908 -5907 5892 0
5908 5907 -5892 0
-5909 5908 5893 0
-5909 -5908 -5893 0
5909 -5908 5893 0
5909 5908 -5893 0
-5910 5909 5894 0
-5910 -5909 -5894 0
5910 -5909 5894 0
5910 5909 -5894 0
-5911 5910 5895 0
-5911 -5910 -5895 0
5911 -5910 5895 0
5911 5910 -5895 0
-5912 5911 5896 0
-5912 -5911 -5896 0
5912 -5911 5896 0
5912 5911 -5896 0
-5912 0
-5913 5689 0
-5913 43 0
5913 -5689 -43 0
-5914 5691 0
-5914 48 0
5914 -5691 -48 0
-5915 5693 0
-5915 48 0
5915 -5693 -48 0
-5916 5695 0
-5916 91 0
5916 -5695 -91 0
-5917 5697 0
-5917 96 0
5917 -5697 -96 0
-5918 5699 0
-5918 96 0
5918 -5699 -96 0
-5919 5701 0
-5919 139 0
5919 -5701 -139 0
-5920 5703 0
-5920 139 0
5920 -5703 -139 0
-5921 5705 0
-5921 187 0
5921 -5705 -187 0
-5922 5913 5914 0
-5922 -5913 -5914 0
5922 -5913 5914 0
5922 5913 -5914 0
-5923 5922 5915 0
-5923 -5922 -5915 0
5923 -5922 5915 0
5923 5922 -5915 0
-5924 5923 5913 0
-5924 -5923 -5913 0
5924 -5923 5913 0
5924 5923 -5913 0
-5925 5924 5914 0
-5925 -5924 -5914 0
5925 -5924 5914 0
5925 5924 -5914 0
-5926 5925 5915 0
-5926 -5925 -5915 0
5926 -5925 5915 0
5926 5925 -5915 0
-5927 5926 5916 0
-5927 -5926 -5916 0
5927 -5926 5916 0
5927 5926 -5916 0
-5928 5927 5917 0
-5928 -5927 -5917 0
5928 -5927 5917 0
5928 5927 -5917 0
-5929 5928 5918 0
-5929 -5928 -5918 0
5929 -5928 5918 0
5929 5928 -5918 0
-5930 5929 5916 0
-5930 -5929 -5916 0
5930 -5929 5916 0
5930 5929 -5916 0
-5931 5930 5917 0
-5931 -5930 -5917 0
5931 -5930 5917 0
5931 5930 -5917 0
-5932 5931 5918 0
-5932 -5931 -5918 0
5932 -5931 5918 0
5932 5931 -5918 0
-5933 5932 5919 0
-5933 -5932 -5919 0
5933 -5932 5919 0
5933 5932 -5919 0
-5934 5933 5920 0
-5934 -5933 -5920 0
5934 -5933 5920 0
5934 5933 -5920 0
-5935 5934 5919 0
-5935 -5934 -5919 0
5935 -5934 5919 0
5935 5934 -5919 0
-5936 5935 5920 0
-5936 -5935 -5920 0
5936 -5935 5920 0
5936 5935 -5920 0
-5937 5936 5921 0
-5937 -5936 -5921 0
5937 -5936 5921 0
5937 5936 -5921 0
-5937 0
-5938 5689 0
-5938 44 0
5938 -5689 -44 0
-5939 5691 0
-5939 47 0
5939 -5691 -47 0
-5940 5693 0
-5940 46 0
5940 -5693 -46 0
-5941 5689 0
-5941 47 0
5941 -5689 -47 0
-5942 5691 0
-5942 44 0
5942 -5691 -44 0
-5943 5693 0
-5943 40 0
5943 -5693 -40 0
-5944 5695 0
-5944 92 0
5944 -5695 -92 0
-5945 5697 0
-5945 95 0
5945 -5697 -95 0
-5946 5699 0
-5946 94 0
5946 -5699 -94 0
-5947 5695 0
-5947 95 0
5947 -5695 -95 0
-5948 5697 0
-5948 92 0
5948 -5697 -92 0
-5949 5699 0
-5949 88 0
5949 -5699 -88 0
-5950 5701 0
-5950 140 0
5950 -5701 -140 0
-5951 5703 0
-5951 138 0
5951 -5703 -138 0
-5952 5701 0
-5952 143 0
5952 -5701 -143 0
-5953 5703 0
-5953 135 0
5953 -5703 -135 0
-5954 5705 0
-5954 188 0
5954 -5705 -188 0
-5955 5938 5939 0
-5955 -5938 -5939 0
5955 -5938 5939 0
5955 5938 -5939 0
-5956 5955 5940 0
-5956 -5955 -5940 0
5956 -5955 5940 0
5956 5955 -5940 0
-5957 5956 5941 0
-5957 -5956 -5941 0
5957 -5956 5941 0
5957 5956 -5941 0
-5958 5957 5942 0
-5958 -5957 -5942 0
5958 -5957 5942 0
5958 5957 -5942 0
-5959 5958 5943 0
-5959 -5958 -5943 0
5959 -5958 5943 0
5959 5958 -5943 0
-5960 5959 5944 0
-5960 -5959 -5944 0
5960 -5959 5944 0
5960 5959 -5944 0
-5961 5960 5945 0
-5961 -5960 -5945 0
5961 -5960 5945 0
5961 5960 -5945 0
-5962 5961 5946 0
-5962 -5961 -5946 0
5962 -5961 5946 0
5962 5961 -5946 0
-5963 5962 5947 0
-5963 -5962 -5947 0
5963 -5962 5947 0
5963 5962 -5947 0
-5964 5963 5948 0
-5964 -5963 -5948 0
5964 -5963 5948 0
5964 5963 -5948 0
-5965 5964 5949 0
-5965 -5964 -5949 0
5965 -5964 5949 0
5965 5964 -5949 0
-5966 5965 5950 0
-5966 -5965 -5950 0
5966 -5965 5950 0
5966 5965 -5950 0
-5967 5966 5951 0
-5967 -5966 -5951 0
5967 -5966 5951 0
5967 5966 -5951 0
-5968 5967 5952 0
-5968 -5967 -5952 0
5968 -5967 5952 0
5968 5967 -5952 0
-5969 5968 5953 0
-5969 -5968 -5953 0
5969 -5968 5953 0
5969 5968 -5953 0
-5970 5969 5954 0
-5970 -5969 -5954 0
5970 -5969 5954 0
5970 5969 -5954 0
-5970 0
-5971 5689 0
-5971 48 0
5971 -5689 -48 0
-5972 5691 0
-5972 43 0
5972 -5691 -43 0
-5973 5693 0
-5973 38 0
5973 -5693 -38 0
-5974 5695 0
-5974 96 0
5974 -5695 -96 0
-5975 5697 0
-5975 91 0
5975 -5697 -91 0
-5976 5699 0
-5976 86 0
5976 -5699 -86 0
-5977 5701 0
-5977 144 0
5977 -5701 -144 0
-5978 5703 0
-5978 134 0
5978 -5703 -134 0
-5979 5705 0
-5979 192 0
5979 -5705 -192 0
-5980 5971 5972 0
-5980 -5971 -5972 0
5980 -5971 5972 0
5980 5971 -5972 0
-5981 5980 5973 0
-5981 -5980 -5973 0
5981 -5980 5973 0
5981 5980 -5973 0
-5982 5981 5971 0
-5982 -5981 -5971 0
5982 -5981 5971 0
5982 5981 -5971 0
-5983 5982 5972 0
-5983 -5982 -5972 0
5983 -5982 5972 0
5983 5982 -5972 0
-5984 5983 5973 0
-5984 -5983 -5973 0
5984 -5983 5973 0
5984 5983 -5973 0
-5985 5984 5974 0
-5985 -5984 -5974 0
5985 -5984 5974 0
5985 5984 -5974 0
-5986 5985 5975 0
-5986 -5985 -5975 0
5986 -5985 5975 0
5986 5985 -5975 0
-5987 5986 5976 0
-5987 -5986 -5976 0
5987 -5986 5976 0
5987 5986 -5976 0
-5988 5987 5974 0
-5988 -5987 -5974 0
5988 -5987 5974 0
5988 5987 -5974 0
-5989 5988 5975 0
-5989 -5988 -5975 0
5989 -5988 5975 0
5989 5988 -5975 0
-5990 5989 5976 0
-5990 -5989 -5976 0
5990 -5989 5976 0
5990 5989 -5976 0
-5991 5990 5977 0
-5991 -5990 -5977 0
5991 -5990 5977 0
5991 5990 -5977 0
-5992 5991 5978 0
-5992 -5991 -5978 0
5992 -5991 5978 0
5992 5991 -5978 0
-5993 5992 5977 0
-5993 -5992 -5977 0
5993 -5992 5977 0
5993 5992 -5977 0
-5994 5993 5978 0
-5994 -5993 -5978 0
5994 -5993 5978 0
5994 5993 -5978 0
-5995 5994 5979 0
-5995 -5994 -5979 0
5995 -5994 5979 0
5995 5994 -5979 0
-5995 0
-5996 5 0
-5996 19 0
5996 -5 -19 0
-5997 5996 0
-5997 33 0
5997 -5996 -33 0
-5998 6 0
-5998 24 0
5998 -6 -24 0
-5999 5998 0
-5999 33 0
5999 -5998 -33 0
-6000 10 0
-6000 24 0
6000 -10 -24 0
-6001 6000 0
-6001 33 0
6001 -6000 -33 0
-6002 18 0
-6002 9 0
6002 -18 -9 0
-6003 6002 0
-6003 33 0
6003 -6002 -33 0
-6004 22 0
-6004 14 0
6004 -22 -14 0
-6005 6004 0
-6005 33 0
6005 -6004 -33 0
-6006 23 0
-6006 14 0
6006 -23 -14 0
-6007 6006 0
-6007 33 0
6007 -6006 -33 0
-6008 53 0
-6008 67 0
6008 -53 -67 0
-6009 6008 0
-6009 81 0
6009 -6008 -81 0
-6010 54 0
-6010 72 0
6010 -54 -72 0
-6011 6010 0
-6011 81 0
6011 -6010 -81 0
-6012 58 0
-6012 72 0
6012 -58 -72 0
-6013 6012 0
-6013 81 0
6013 -6012 -81 0
-6014 66 0
-6014 57 0
6014 -66 -57 0
-6015 6014 0
-6015 81 0
6015 -6014 -81 0
-6016 70 0
-6016 62 0
6016 -70 -62 0
-6017 6016 0
-6017 81 0
6017 -6016 -81 0
-6018 71 0
-6018 62 0
6018 -71 -62 0
-6019 6018 0
-6019 81 0
6019 -6018 -81 0
-6020 101 0
-6020 115 0
6020 -101 -115 0
-6021 6020 0
-6021 129 0
6021 -6020 -129 0
-6022 109 0
-6022 115 0
6022 -109 -115 0
-6023 6022 0
-6023 129 0
6023 -6022 -129 0
-6024 114 0
-6024 105 0
6024 -114 -105 0
-6025 6024 0
-6025 129 0
6025 -6024 -129 0
-6026 116 0
-6026 105 0
6026 -116 -105 0
-6027 6026 0
-6027 129 0
6027 -6026 -129 0
-6028 149 0
-6028 163 0
6028 -149 -163 0
-6029 6028 0
-6029 177 0
6029 -6028 -177 0
-6030 5997 5999 0
-6030 -5997 -5999 0
6030 -5997 5999 0
6030 5997 -5999 0
-6031 6030 6001 0
-6031 -6030 -6001 0
6031 -6030 6001 0
6031 6030 -6001 0
-6032 6031 6003 0
-6032 -6031 -6003 0
6032 -6031 6003 0
6032 6031 -6003 0
-6033 6032 6005 0
-6033 -6032 -6005 0
6033 -6032 6005 0
6033 6032 -6005 0
-6034 6033 6007 0
-6034 -6033 -6007 0
6034 -6033 6007 0
6034 6033 -6007 0
-6035 6034 6009 0
-6035 -6034 -6009 0
6035 -6034 6009 0
6035 6034 -6009 0
-6036 6035 6011 0
-6036 -6035 -6011 0
6036 -6035 6011 0
6036 6035 -6011 0
-6037 6036 6013 0
-6037 -6036 -6013 0
6037 -6036 6013 0
6037 6036 -6013 0
-6038 6037 6015 0
-6038 -6037 -6015 0
6038 -6037 6015 0
6038 6037 -6015 0
-6039 6038 6017 0
-6039 -6038 -6017 0
6039 -6038 6017 0
6039 6038 -6017 0
-6040 6039 6019 0
-6040 -6039 -6019 0
6040 -6039 6019 0
6040 6039 -6019 0
-6041 6040 6021 0
-6041 -6040 -6021 0
6041 -6040 6021 0
6041 6040 -6021 0
-6042 6041 6023 0
-6042 -6041 -6023 0
6042 -6041 6023 0
6042 6041 -6023 0
-6043 6042 6025 0
-6043 -6042 -6025 0
6043 -6042 6025 0
6043 6042 -6025 0
-6044 6043 6027 0
-6044 -6043 -6027 0
6044 -6043 6027 0
6044 6043 -6027 0
-6045 6044 6029 0
-6045 -6044 -6029 0
6045 -6044 6029 0
6045 6044 -6029 0
-6045 0
-6046 5996 0
-6046 34 0
6046 -5996 -34 0
-6047 5998 0
-6047 34 0
6047 -5998 -34 0
-6048 6000 0
-6048 35 0
6048 -6000 -35 0
-6049 6002 0
-6049 37 0
6049 -6002 -37 0
-6050 6004 0
-6050 37 0
6050 -6004 -37 0
-6051 6006 0
-6051 41 0
6051 -6006 -41 0
-6052 6008 0
-6052 82 0
6052 -6008 -82 0
-6053 6010 0
-6053 82 0
6053 -6010 -82 0
-6054 6012 0
-6054 83 0
6054 -6012 -83 0
-6055 6014 0
-6055 85 0
6055 -6014 -85 0
-6056 6016 0
-6056 85 0
6056 -6016 -85 0
-6057 6018 0
-6057 89 0
6057 -6018 -89 0
-6058 6020 0
-6058 130 0
6058 -6020 -130 0
-6059 6022 0
-6059 132 0
6059 -6022 -132 0
-6060 6024 0
-6060 133 0
6060 -6024 -133 0
-6061 6026 0
-6061 141 0
6061 -6026 -141 0
-6062 6028 0
-6062 178 0
6062 -6028 -178 0
-6063 6046 6047 0
-6063 -6046 -6047 0
6063 -6046 6047 0
6063 6046 -6047 0
-6064 6063 6048 0
-6064 -6063 -6048 0
6064 -6063 6048 0
6064 6063 -6048 0
-6065 6064 6049 0
-6065 -6064 -6049 0
6065 -6064 6049 0
6065 6064 -6049 0
-6066 6065 6050 0
-6066 -6065 -6050 0
6066 -6065 6050 0
6066 6065 -6050 0
-6067 6066 6051 0
-6067 -6066 -6051 0
6067 -6066 6051 0
6067 6066 -6051 0
-6068 6067 6052 0
-6068 -6067 -6052 0
6068 -6067 6052 0
6068 6067 -6052 0
-6069 6068 6053 0
-6069 -6068 -6053 0
6069 -6068 6053 0
6069 6068 -6053 0
-6070 6069 6054 0
-6070 -6069 -6054 0
6070 -6069 6054 0
6070 6069 -6054 0
-6071 6070 6055 0
-6071 -6070 -6055 0
6071 -6070 6055 0
6071 6070 -6055 0
-6072 6071 6056 0
-6072 -6071 -6056 0
6072 -6071 6056 0
6072 6071 -6056 0
-6073 6072 6057 0
-6073 -6072 -6057 0
6073 -6072 6057 0
6073 6072 -6057 0
-6074 6073 6058 0
-6074 -6073 -6058 0
6074 -6073 6058 0
6074 6073 -6058 0
-6075 6074 6059 0
-6075 -6074 -6059 0
6075 -6074 6059 0
6075 6074 -6059 0
-6076 6075 6060 0
-6076 -6075 -6060 0
6076 -6075 6060 0
6076 6075 -6060 0
-6077 6076 6061 0
-6077 -6076 -6061 0
6077 -6076 6061 0
6077 6076 -6061 0
-6078 6077 6062 0
-6078 -6077 -6062 0
6078 -6077 6062 0
6078 6077 -6062 0
6078 0
-6079 5996 0
-6079 35 0
6079 -5996 -35 0
-6080 5998 0
-6080 36 0
6080 -5998 -36 0
-6081 6000 0
-6081 36 0
6081 -6000 -36 0
-6082 6002 0
-6082 41 0
6082 -6002 -41 0
-6083 6004 0
-6083 45 0
6083 -6004 -45 0
-6084 6006 0
-6084 45 0
6084 -6006 -45 0
-6085 6008 0
-6085 83 0
6085 -6008 -83 0
-6086 6010 0
-6086 84 0
6086 -6010 -84 0
-6087 6012 0
-6087 84 0
6087 -6012 -84 0
-6088 6014 0
-6088 89 0
6088 -6014 -89 0
-6089 6016 0
-6089 93 0
6089 -6016 -93 0
-6090 6018 0
-6090 93 0
6090 -6018 -93 0
-6091 6020 0
-6091 131 0
6091 -6020 -131 0
-6092 6022 0
-6092 131 0
6092 -6022 -131 0
-6093 6024 0
-6093 137 0
6093 -6024 -137 0
-6094 6026 0
-6094 137 0
6094 -6026 -137 0
-6095 6028 0
-6095 179 0
6095 -6028 -179 0
-6096 6079 6080 0
-6096 -6079 -6080 0
6096 -6079 6080 0
6096 6079 -6080 0
-6097 6096 6081 0
-6097 -6096 -6081 0
6097 -6096 6081 0
6097 6096 -6081 0
-6098 6097 6082 0
-6098 -6097 -6082 0
6098 -6097 6082 0
6098 6097 -6082 0
-6099 6098 6083 0
-6099 -6098 -6083 0
6099 -6098 6083 0
6099 6098 -6083 0
-6100 6099 6084 0
-6100 -6099 -6084 0
6100 -6099 6084 0
6100 6099 -6084 0
-6101 6100 6085 0
-6101 -6100 -6085 0
6101 -6100 6085 0
6101 6100 -6085 0
-6102 6101 6086 0
-6102 -6101 -6086 0
6102 -6101 6086 0
6102 6101 -6086 0
-6103 6102 6087 0
-6103 -6102 -6087 0
6103 -6102 6087 0
6103 6102 -6087 0
-6104 6103 6088 0
-6104 -6103 -6088 0
6104 -6103 6088 0
6104 6103 -6088 0
-6105 6104 6089 0
-6105 -6104 -6089 0
6105 -6104 6089 0
6105 6104 -6089 0
-6106 6105 6090 0
-6106 -6105 -6090 0
6106 -6105 6090 0
6106 6105 -6090 0
-6107 6106 6091 0
-6107 -6106 -6091 0
6107 -6106 6091 0
6107 6106 -6091 0
-6108 6107 6092 0
-6108 -6107 -6092 0
6108 -6107 6092 0
6108 6107 -6092 0
-6109 6108 6093 0
-6109 -6108 -6093 0
6109 -6108 6093 0
6109 6108 -6093 0
-6110 6109 6094 0
-6110 -6109 -6094 0
6110 -6109 6094 0
6110 6109 -6094 0
-6111 6110 6095 0
-6111 -6110 -6095 0
6111 -6110 6095 0
6111 6110 -6095 0
-6111 0
-6112 5996 0
-6112 36 0
6112 -5996 -36 0
-6113 5998 0
-6113 35 0
6113 -5998 -35 0
-6114 6000 0
-6114 34 0
6114 -6000 -34 0
-6115 6002 0
-6115 45 0
6115 -6002 -45 0
-6116 6004 0
-6116 41 0
6116 -6004 -41 0
-6117 6006 0
-6117 37 0
6117 -6006 -37 0
-6118 6008 0
-6118 84 0
6118 -6008 -84 0
-6119 6010 0
-6119 83 0
6119 -6010 -83 0
-6120 6012 0
-6120 82 0
6120 -6012 -82 0
-6121 6014 0
-6121 93 0
6121 -6014 -93 0
-6122 6016 0
-6122 89 0
6122 -6016 -89 0
-6123 6018 0
-6123 85 0
6123 -6018 -85 0
-6124 6020 0
-6124 132 0
6124 -6020 -132 0
-6125 6022 0
-6125 130 0
6125 -6022 -130 0
-6126 6024 0
-6126 141 0
6126 -6024 -141 0
-6127 6026 0
-6127 133 0
6127 -6026 -133 0
-6128 6028 0
-6128 180 0
6128 -6028 -180 0
-6129 6112 6113 0
-6129 -6112 -6113 0
6129 -6112 6113 0
6129 6112 -6113 0
-6130 6129 6114 0
-6130 -6129 -6114 0
6130 -6129 6114 0
6130 6129 -6114 0
-6131 6130 6115 0
-6131 -6130 -6115 0
6131 -6130 6115 0
6131 6130 -6115 0
-6132 6131 6116 0
-6132 -6131 -6116 0
6132 -6131 6116 0
6132 6131 -6116 0
-6133 6132 6117 0
-6133 -6132 -6117 0
6133 -6132 6117 0
6133 6132 -6117 0
-6134 6133 6118 0
-6134 -6133 -6118 0
6134 -6133 6118 0
6134 6133 -6118 0
-6135 6134 6119 0
-6135 -6134 -6119 0
6135 -6134 6119 0
6135 6134 -6119 0
-6136 6135 6120 0
-6136 -6135 -6120 0
6136 -6135 6120 0
6136 6135 -6120 0
-6137 6136 6121 0
-6137 -6136 -6121 0
6137 -6136 6121 0
6137 6136 -6121 0
-6138 6137 6122 0
-6138 -6137 -6122 0
6138 -6137 6122 0
6138 6137 -6122 0
-6139 6138 6123 0
-6139 -6138 -6123 0
6139 -6138 6123 0
6139 6138 -6123 0
-6140 6139 6124 0
-6140 -6139 -6124 0
6140 -6139 6124 0
6140 6139 -6124 0
-6141 6140 6125 0
-6141 -6140 -6125 0
6141 -6140 6125 0
6141 6140 -6125 0
-6142 6141 6126 0
-6142 -6141 -6126 0
6142 -6141 6126 0
6142 6141 -6126 0
-6143 6142 6127 0
-6143 -6142 -6127 0
6143 -6142 6127 0
6143 6142 -6127 0
-6144 6143 6128 0
-6144 -6143 -6128 0
6144 -6143 6128 0
6144 6143 -6128 0
-6144 0
-6145 5996 0
-6145 37 0
6145 -5996 -37 0
-6146 5998 0
-6146 37 0
6146 -5998 -37 0
-6147 6000 0
-6147 41 0
6147 -6000 -41 0
-6148 6002 0
-6148 34 0
6148 -6002 -34 0
-6149 6004 0
-6149 34 0
6149 -6004 -34 0
-6150 6006 0
-6150 35 0
6150 -6006 -35 0
-6151 6008 0
-6151 85 0
6151 -6008 -85 0
-6152 6010 0
-6152 85 0
6152 -6010 -85 0
-6153 6012 0
-6153 89 0
6153 -6012 -89 0
-6154 6014 0
-6154 82 0
6154 -6014 -82 0
-6155 6016 0
-6155 82 0
6155 -6016 -82 0
-6156 6018 0
-6156 83 0
6156 -6018 -83 0
-6157 6020 0
-6157 133 0
6157 -6020 -133 0
-6158 6022 0
-6158 141 0
6158 -6022 -141 0
-6159 6024 0
-6159 130 0
6159 -6024 -130 0
-6160 6026 0
-6160 132 0
6160 -6026 -132 0
-6161 6028 0
-6161 181 0
6161 -6028 -181 0
-6162 6145 6146 0
-6162 -6145 -6146 0
6162 -6145 6146 0
6162 6145 -6146 0
-6163 6162 6147 0
-6163 -6162 -6147 0
6163 -6162 6147 0
6163 6162 -6147 0
-6164 6163 6148 0
-6164 -6163 -6148 0
6164 -6163 6148 0
6164 6163 -6148 0
-6165 6164 6149 0
-6165 -6164 -6149 0
6165 -6164 6149 0
6165 6164 -6149 0
-6166 6165 6150 0
-6166 -6165 -6150 0
6166 -6165 6150 0
6166 6165 -6150 0
-6167 6166 6151 0
-6167 -6166 -6151 0
6167 -6166 6151 0
6167 6166 -6151 0
-6168 6167 6152 0
-6168 -6167 -6152 0
6168 -6167 6152 0
6168 6167 -6152 0
-6169 6168 6153 0
-6169 -6168 -6153 0
6169 -6168 6153 0
6169 6168 -6153 0
-6170 6169 6154 0
-6170 -6169 -6154 0
6170 -6169 6154 0
6170 6169 -6154 0
-6171 6170 6155 0
-6171 -6170 -6155 0
6171 -6170 6155 0
6171 6170 -6155 0
-6172 6171 6156 0
-6172 -6171 -6156 0
6172 -6171 6156 0
6172 6171 -6156 0
-6173 6172 6157 0
-6173 -6172 -6157 0
6173 -6172 6157 0
6173 6172 -6157 0
-6174 6173 6158 0
-6174 -6173 -6158 0
6174 -6173 6158 0
6174 6173 -6158 0
-6175 6174 6159 0
-6175 -6174 -6159 0
6175 -6174 6159 0
6175 6174 -6159 0
-6176 6175 6160 0
-6176 -6175 -6160 0
6176 -6175 6160 0
6176 6175 -6160 0
-6177 6176 6161 0
-6177 -6176 -6161 0
6177 -6176 6161 0
6177 6176 -6161 0
-6177 0
-6178 5996 0
-6178 38 0
6178 -5996 -38 0
-6179 5998 0
-6179 38 0
6179 -5998 -38 0
-6180 6000 0
-6180 43 0
6180 -6000 -43 0
-6181 6002 0
-6181 38 0
6181 -6002 -38 0
-6182 6004 0
-6182 38 0
6182 -6004 -38 0
-6183 6006 0
-6183 43 0
6183 -6006 -43 0
-6184 6008 0
-6184 86 0
6184 -6008 -86 0
-6185 6010 0
-6185 86 0
6185 -6010 -86 0
-6186 6012 0
-6186 91 0
6186 -6012 -91 0
-6187 6014 0
-6187 86 0
6187 -6014 -86 0
-6188 6016 0
-6188 86 0
6188 -6016 -86 0
-6189 6018 0
-6189 91 0
6189 -6018 -91 0
-6190 6020 0
-6190 134 0
6190 -6020 -134 0
-6191 6022 0
-6191 144 0
6191 -6022 -144 0
-6192 6024 0
-6192 134 0
6192 -6024 -134 0
-6193 6026 0
-6193 144 0
6193 -6026 -144 0
-6194 6028 0
-6194 182 0
6194 -6028 -182 0
-6195 6178 6179 0
-6195 -6178 -6179 0
6195 -6178 6179 0
6195 6178 -6179 0
-6196 6195 6180 0
-6196 -6195 -6180 0
6196 -6195 6180 0
6196 6195 -6180 0
-6197 6196 6181 0
-6197 -6196 -6181 0
6197 -6196 6181 0
6197 6196 -6181 0
-6198 6197 6182 0
-6198 -6197 -6182 0
6198 -6197 6182 0
6198 6197 -6182 0
-6199 6198 6183 0
-6199 -6198 -6183 0
6199 -6198 6183 0
6199 6198 -6183 0
-6200 6199 6184 0
-6200 -6199 -6184 0
6200 -6199 6184 0
6200 6199 -6184 0
-6201 6200 6185 0
-6201 -6200 -6185 0
6201 -6200 6185 0
6201 6200 -6185 0
-6202 6201 6186 0
-6202 -6201 -6186 0
6202 -6201 6186 0
6202 6201 -6186 0
-6203 6202 6187 0
-6203 -6202 -6187 0
6203 -6202 6187 0
6203 6202 -6187 0
-6204 6203 6188 0
-6204 -6203 -6188 0
6204 -6203 6188 0
6204 6203 -6188 0
-6205 6204 6189 0
-6205 -6204 -6189 0
6205 -6204 6189 0
6205 6204 -6189 0
-6206 6205 6190 0
-6206 -6205 -6190 0
6206 -6205 6190 0
6206 6205 -6190 0
-6207 6206 6191 0
-6207 -6206 -6191 0
6207 -6206 6191 0
6207 6206 -6191 0
-6208 6207 6192 0
-6208 -6207 -6192 0
6208 -6207 6192 0
6208 6207 -6192 0
-6209 6208 6193 0
-6209 -6208 -6193 0
6209 -6208 6193 0
6209 6208 -6193 0
-6210 6209 6194 0
-6210 -6209 -6194 0
6210 -6209 6194 0
6210 6209 -6194 0
-6210 0
-6211 5996 0
-6211 39 0
6211 -5996 -39 0
-6212 5998 0
-6212 40 0
6212 -5998 -40 0
-6213 6000 0
-6213 44 0
6213 -6000 -44 0
-6214 6002 0
-6214 42 0
6214 -6002 -42 0
-6215 6004 0
-6215 46 0
6215 -6004 -46 0
-6216 6006 0
-6216 47 0
6216 -6006 -47 0
-6217 6008 0
-6217 87 0
6217 -6008 -87 0
-6218 6010 0
-6218 88 0
6218 -6010 -88 0
-6219 6012 0
-6219 92 0
6219 -6012 -92 0
-6220 6014 0
-6220 90 0
6220 -6014 -90 0
-6221 6016 0
-6221 94 0
6221 -6016 -94 0
-6222 6018 0
-6222 95 0
6222 -6018 -95 0
-6223 6020 0
-6223 135 0
6223 -6020 -135 0
-6224 6022 0
-6224 143 0
6224 -6022 -143 0
-6225 6024 0
-6225 138 0
6225 -6024 -138 0
-6226 6026 0
-6226 140 0
6226 -6026 -140 0
-6227 6028 0
-6227 183 0
6227 -6028 -183 0
-6228 6211 6212 0
-6228 -6211 -6212 0
6228 -6211 6212 0
6228 6211 -6212 0
-6229 6228 6213 0
-6229 -6228 -6213 0
6229 -6228 6213 0
6229 6228 -6213 0
-6230 6229 6214 0
-6230 -6229 -6214 0
6230 -6229 6214 0
6230 6229 -6214 0
-6231 6230 6215 0
-6231 -6230 -6215 0
6231 -6230 6215 0
6231 6230 -6215 0
-6232 6231 6216 0
-6232 -6231 -6216 0
6232 -6231 6216 0
6232 6231 -6216 0
-6233 6232 6217 0
-6233 -6232 -6217 0
6233 -6232 6217 0
6233 6232 -6217 0
-6234 6233 6218 0
-6234 -6233 -6218 0
6234 -6233 6218 0
6234 6233 -6218 0
-6235 6234 6219 0
-6235 -6234 -6219 0
6235 -6234 6219 0
6235 6234 -6219 0
-6236 6235 6220 0
-6236 -6235 -6220 0
6236 -6235 6220 0
6236 6235 -6220 0
-6237 6236 6221 0
-6237 -6236 -6221 0
6237 -6236 6221 0
6237 6236 -6221 0
-6238 6237 6222 0
-6238 -6237 -6222 0
6238 -6237 6222 0
6238 6237 -6222 0
-6239 6238 6223 0
-6239 -6238 -6223 0
6239 -6238 6223 0
6239 6238 -6223 0
-6240 6239 6224 0
-6240 -6239 -6224 0
6240 -6239 6224 0
6240 6239 -6224 0
-6241 6240 6225 0
-6241 -6240 -6225 0
6241 -6240 6225 0
6241 6240 -6225 0
-6242 6241 6226 0
-6242 -6241 -6226 0
6242 -6241 6226 0
6242 6241 -6226 0
-6243 6242 6227 0
-6243 -6242 -6227 0
6243 -6242 6227 0
6243 6242 -6227 0
-6243 0
-6244 5996 0
-6244 40 0
6244 -5996 -40 0
-6245 5998 0
-6245 39 0
6245 -5998 -39 0
-6246 6000 0
-6246 42 0
6246 -6000 -42 0
-6247 6002 0
-6247 46 0
6247 -6002 -46 0
-6248 6004 0
-6248 42 0
6248 -6004 -42 0
-6249 6006 0
-6249 39 0
6249 -6006 -39 0
-6250 6008 0
-6250 88 0
6250 -6008 -88 0
-6251 6010 0
-6251 87 0
6251 -6010 -87 0
-6252 6012 0
-6252 90 0
6252 -6012 -90 0
-6253 6014 0
-6253 94 0
6253 -6014 -94 0
-6254 6016 0
-6254 90 0
6254 -6016 -90 0
-6255 6018 0
-6255 87 0
6255 -6018 -87 0
-6256 6020 0
-6256 136 0
6256 -6020 -136 0
-6257 6022 0
-6257 142 0
6257 -6022 -142 0
-6258 6024 0
-6258 142 0
6258 -6024 -142 0
-6259 6026 0
-6259 136 0
6259 -6026 -136 0
-6260 6028 0
-6260 184 0
6260 -6028 -184 0
-6261 6244 6245 0
-6261 -6244 -6245 0
6261 -6244 6245 0
6261 6244 -6245 0
-6262 6261 6246 0
-6262 -6261 -6246 0
6262 -6261 6246 0
6262 6261 -6246 0
-6263 6262 6247 0
-6263 -6262 -6247 0
6263 -6262 6247 0
6263 6262 -6247 0
-6264 6263 6248 0
-6264 -6263 -6248 0
6264 -6263 6248 0
6264 6263 -6248 0
-6265 6264 6249 0
-6265 -6264 -6249 0
6265 -6264 6249 0
6265 6264 -6249 0
-6266 6265 6250 0
-6266 -6265 -6250 0
6266 -6265 6250 0
6266 6265 -6250 0
-6267 6266 6251 0
-6267 -6266 -6251 0
6267 -6266 6251 0
6267 6266 -6251 0
-6268 6267 6252 0
-6268 -6267 -6252 0
6268 -6267 6252 0
6268 6267 -6252 0
-6269 6268 6253 0
-6269 -6268 -6253 0
6269 -6268 6253 0
6269 6268 -6253 0
-6270 6269 6254 0
-6270 -6269 -6254 0
6270 -6269 6254 0
6270 6269 -6254 0
-6271 6270 6255 0
-6271 -6270 -6255 0
6271 -6270 6255 0
6271 6270 -6255 0
-6272 6271 6256 0
-6272 -6271 -6256 0
6272 -6271 6256 0
6272 6271 -6256 0
-6273 6272 6257 0
-6273 -6272 -6257 0
6273 -6272 6257 0
6273 6272 -6257 0
-6274 6273 6258 0
-6274 -6273 -6258 0
6274 -6273 6258 0
6274 6273 -6258 0
-6275 6274 6259 0
-6275 -6274 -6259 0
6275 -6274 6259 0
6275 6274 -6259 0
-6276 6275 6260 0
-6276 -6275 -6260 0
6276 -6275 6260 0
6276 6275 -6260 0
-6276 0
-6277 5996 0
-6277 41 0
6277 -5996 -41 0
-6278 5998 0
-6278 45 0
6278 -5998 -45 0
-6279 6000 0
-6279 45 0
6279 -6000 -45 0
-6280 6002 0
-6280 35 0
6280 -6002 -35 0
-6281 6004 0
-6281 36 0
6281 -6004 -36 0
-6282 6006 0
-6282 36 0
6282 -6006 -36 0
-6283 6008 0
-6283 89 0
6283 -6008 -89 0
-6284 6010 0
-6284 93 0
6284 -6010 -93 0
-6285 6012 0
-6285 93 0
6285 -6012 -93 0
-6286 6014 0
-6286 83 0
6286 -6014 -83 0
-6287 6016 0
-6287 84 0
6287 -6016 -84 0
-6288 6018 0
-6288 84 0
6288 -6018 -84 0
-6289 6020 0
-6289 137 0
6289 -6020 -137 0
-6290 6022 0
-6290 137 0
6290 -6022 -137 0
-6291 6024 0
-6291 131 0
6291 -6024 -131 0
-6292 6026 0
-6292 131 0
6292 -6026 -131 0
-6293 6028 0
-6293 185 0
6293 -6028 -185 0
-6294 6277 6278 0
-6294 -6277 -6278 0
6294 -6277 6278 0
6294 6277 -6278 0
-6295 6294 6279 0
-6295 -6294 -6279 0
6295 -6294 6279 0
6295 6294 -6279 0
-6296 6295 6280 0
-6296 -6295 -6280 0
6296 -6295 6280 0
6296 6295 -6280 0
-6297 6296 6281 0
-6297 -6296 -6281 0
6297 -6296 6281 0
6297 6296 -6281 0
-6298 6297 6282 0
-6298 -6297 -6282 0
6298 -6297 6282 0
6298 6297 -6282 0
-6299 6298 6283 0
-6299 -6298 -6283 0
6299 -6298 6283 0
6299 6298 -6283 0
-6300 6299 6284 0
-6300 -6299 -6284 0
6300 -6299 6284 0
6300 6299 -6284 0
-6301 6300 6285 0
-6301 -6300 -6285 0
6301 -6300 6285 0
6301 6300 -6285 0
-6302 6301 6286 0
-6302 -6301 -6286 0
6302 -6301 6286 0
6302 6301 -6286 0
-6303 6302 6287 0
-6303 -6302 -6287 0
6303 -6302 6287 0
6303 6302 -6287 0
-6304 6303 6288 0
-6304 -6303 -6288 0
6304 -6303 6288 0
6304 6303 -6288 0
-6305 6304 6289 0
-6305 -6304 -6289 0
6305 -6304 6289 0
6305 6304 -6289 0
-6306 6305 6290 0
-6306 -6305 -6290 0
6306 -6305 6290 0
6306 6305 -6290 0
-6307 6306 6291 0
-6307 -6306 -6291 0
6307 -6306 6291 0
6307 6306 -6291 0
-6308 6307 6292 0
-6308 -6307 -6292 0
6308 -6307 6292 0
6308 6307 -6292 0
-6309 6308 6293 0
-6309 -6308 -6293 0
6309 -6308 6293 0
6309 6308 -6293 0
-6309 0
-6310 5996 0
-6310 42 0
6310 -5996 -42 0
-6311 5998 0
-6311 46 0
6311 -5998 -46 0
-6312 6000 0
-6312 47 0
6312 -6000 -47 0
-6313 6002 0
-6313 39 0
6313 -6002 -39 0
-6314 6004 0
-6314 40 0
6314 -6004 -40 0
-6315 6006 0
-6315 44 0
6315 -6006 -44 0
-6316 6008 0
-6316 90 0
6316 -6008 -90 0
-6317 6010 0
-6317 94 0
6317 -6010 -94 0
-6318 6012 0
-6318 95 0
6318 -6012 -95 0
-6319 6014 0
-6319 87 0
6319 -6014 -87 0
-6320 6016 0
-6320 88 0
6320 -6016 -88 0
-6321 6018 0
-6321 92 0
6321 -6018 -92 0
-6322 6020 0
-6322 138 0
6322 -6020 -138 0
-6323 6022 0
-6323 140 0
6323 -6022 -140 0
-6324 6024 0
-6324 135 0
6324 -6024 -135 0
-6325 6026 0
-6325 143 0
6325 -6026 -143 0
-6326 6028 0
-6326 186 0
6326 -6028 -186 0
-6327 6310 6311 0
-6327 -6310 -6311 0
6327 -6310 6311 0
6327 6310 -6311 0
-6328 6327 6312 0
-6328 -6327 -6312 0
6328 -6327 6312 0
6328 6327 -6312 0
-6329 6328 6313 0
-6329 -6328 -6313 0
6329 -6328 6313 0
6329 6328 -6313 0
-6330 6329 6314 0
-6330 -6329 -6314 0
6330 -6329 6314 0
6330 6329 -6314 0
-6331 6330 6315 0
-6331 -6330 -6315 0
6331 -6330 6315 0
6331 6330 -6315 0
-6332 6331 6316 0
-6332 -6331 -6316 0
6332 -6331 6316 0
6332 6331 -6316 0
-6333 6332 6317 0
-6333 -6332 -6317 0
6333 -6332 6317 0
6333 6332 -6317 0
-6334 6333 6318 0
-6334 -6333 -6318 0
6334 -6333 6318 0
6334 6333 -6318 0
-6335 6334 6319 0
-6335 -6334 -6319 0
6335 -6334 6319 0
6335 6334 -6319 0
-6336 6335 6320 0
-6336 -6335 -6320 0
6336 -6335 6320 0
6336 6335 -6320 0
-6337 6336 6321 0
-6337 -6336 -6321 0
6337 -6336 6321 0
6337 6336 -6321 0
-6338 6337 6322 0
-6338 -6337 -6322 0
6338 -6337 6322 0
6338 6337 -6322 0
-6339 6338 6323 0
-6339 -6338 -6323 0
6339 -6338 6323 0
6339 6338 -6323 0
-6340 6339 6324 0
-6340 -6339 -6324 0
6340 -6339 6324 0
6340 6339 -6324 0
-6341 6340 6325 0
-6341 -6340 -6325 0
6341 -6340 6325 0
6341 6340 -6325 0
-6342 6341 6326 0
-6342 -6341 -6326 0
6342 -6341 6326 0
6342 6341 -6326 0
6342 0
-6343 5996 0
-6343 43 0
6343 -5996 -43 0
-6344 5998 0
-6344 48 0
6344 -5998 -48 0
-6345 6000 0
-6345 48 0
6345 -6000 -48 0
-6346 6002 0
-6346 43 0
6346 -6002 -43 0
-6347 6004 0
-6347 48 0
6347 -6004 -48 0
-6348 6006 0
-6348 48 0
6348 -6006 -48 0
-6349 6008 0
-6349 91 0
6349 -6008 -91 0
-6350 6010 0
-6350 96 0
6350 -6010 -96 0
-6351 6012 0
-6351 96 0
6351 -6012 -96 0
-6352 6014 0
-6352 91 0
6352 -6014 -91 0
-6353 6016 0
-6353 96 0
6353 -6016 -96 0
-6354 6018 0
-6354 96 0
6354 -6018 -96 0
-6355 6020 0
-6355 139 0
6355 -6020 -139 0
-6356 6022 0
-6356 139 0
6356 -6022 -139 0
-6357 6024 0
-6357 139 0
6357 -6024 -139 0
-6358 6026 0
-6358 139 0
6358 -6026 -139 0
-6359 6028 0
-6359 187 0
6359 -6028 -187 0
-6360 6343 6344 0
-6360 -6343 -6344 0
6360 -6343 6344 0
6360 6343 -6344 0
-6361 6360 6345 0
-6361 -6360 -6345 0
6361 -6360 6345 0
6361 6360 -6345 0
-6362 6361 6346 0
-6362 -6361 -6346 0
6362 -6361 6346 0
6362 6361 -6346 0
-6363 6362 6347 0
-6363 -6362 -6347 0
6363 -6362 6347 0
6363 6362 -6347 0
-6364 6363 6348 0
-6364 -6363 -6348 0
6364 -6363 6348 0
6364 6363 -6348 0
-6365 6364 6349 0
-6365 -6364 -6349 0
6365 -6364 6349 0
6365 6364 -6349 0
-6366 6365 6350 0
-6366 -6365 -6350 0
6366 -6365 6350 0
6366 6365 -6350 0
-6367 6366 6351 0
-6367 -6366 -6351 0
6367 -6366 6351 0
6367 6366 -6351 0
-6368 6367 6352 0
-6368 -6367 -6352 0
6368 -6367 6352 0
6368 6367 -6352 0
-6369 6368 6353 0
-6369 -6368 -6353 0
6369 -6368 6353 0
6369 6368 -6353 0
-6370 6369 6354 0
-6370 -6369 -6354 0
6370 -6369 6354 0
6370 6369 -6354 0
-6371 6370 6355 0
-6371 -6370 -6355 0
6371 -6370 6355 0
6371 6370 -6355 0
-6372 6371 6356 0
-6372 -6371 -6356 0
6372 -6371 6356 0
6372 6371 -6356 0
-6373 6372 6357 0
-6373 -6372 -6357 0
6373 -6372 6357 0
6373 6372 -6357 0
-6374 6373 6358 0
-6374 -6373 -6358 0
6374 -6373 6358 0
6374 6373 -6358 0
-6375 6374 6359 0
-6375 -6374 -6359 0
6375 -6374 6359 0
6375 6374 -6359 0
6375 0
-6376 5996 0
-6376 44 0
6376 -5996 -44 0
-6377 5998 0
-6377 47 0
6377 -5998 -47 0
-6378 6000 0
-6378 46 0
6378 -6000 -46 0
-6379 6002 0
-6379 47 0
6379 -6002 -47 0
-6380 6004 0
-6380 44 0
6380 -6004 -44 0
-6381 6006 0
-6381 40 0
6381 -6006 -40 0
-6382 6008 0
-6382 92 0
6382 -6008 -92 0
-6383 6010 0
-6383 95 0
6383 -6010 -95 0
-6384 6012 0
-6384 94 0
6384 -6012 -94 0
-6385 6014 0
-6385 95 0
6385 -6014 -95 0
-6386 6016 0
-6386 92 0
6386 -6016 -92 0
-6387 6018 0
-6387 88 0
6387 -6018 -88 0
-6388 6020 0
-6388 140 0
6388 -6020 -140 0
-6389 6022 0
-6389 138 0
6389 -6022 -138 0
-6390 6024 0
-6390 143 0
6390 -6024 -143 0
-6391 6026 0
-6391 135 0
6391 -6026 -135 0
-6392 6028 0
-6392 188 0
6392 -6028 -188 0
-6393 6376 6377 0
-6393 -6376 -6377 0
6393 -6376 6377 0
6393 6376 -6377 0
-6394 6393 6378 0
-6394 -6393 -6378 0
6394 -6393 6378 0
6394 6393 -6378 0
-6395 6394 6379 0
-6395 -6394 -6379 0
6395 -6394 6379 0
6395 6394 -6379 0
-6396 6395 6380 0
-6396 -6395 -6380 0
6396 -6395 6380 0
6396 6395 -6380 0
-6397 6396 6381 0
-6397 -6396 -6381 0
6397 -6396 6381 0
6397 6396 -6381 0
-6398 6397 6382 0
-6398 -6397 -6382 0
6398 -6397 6382 0
6398 6397 -6382 0
-6399 6398 6383 0
-6399 -6398 -6383 0
6399 -6398 6383 0
6399 6398 -6383 0
-6400 6399 6384 0
-6400 -6399 -6384 0
6400 -6399 6384 0
6400 6399 -6384 0
-6401 6400 6385 0
-6401 -6400 -6385 0
6401 -6400 6385 0
6401 6400 -6385 0
-6402 6401 6386 0
-6402 -6401 -6386 0
6402 -6401 6386 0
6402 6401 -6386 0
-6403 6402 6387 0
-6403 -6402 -6387 0
6403 -6402 6387 0
6403 6402 -6387 0
-6404 6403 6388 0
-6404 -6403 -6388 0
6404 -6403 6388 0
6404 6403 -6388 0
-6405 6404 6389 0
-6405 -6404 -6389 0
6405 -6404 6389 0
6405 6404 -6389 0
-6406 6405 6390 0
-6406 -6405 -6390 0
6406 -6405 6390 0
6406 6405 -6390 0
-6407 6406 6391 0
-6407 -6406 -6391 0
6407 -6406 6391 0
6407 6406 -6391 0
-6408 6407 6392 0
-6408 -6407 -6392 0
6408 -6407 6392 0
6408 6407 -6392 0
-6408 0
-6409 5996 0
-6409 45 0
6409 -5996 -45 0
-6410 5998 0
-6410 41 0
6410 -5998 -41 0
-6411 6000 0
-6411 37 0
6411 -6000 -37 0
-6412 6002 0
-6412 36 0
6412 -6002 -36 0
-6413 6004 0
-6413 35 0
6413 -6004 -35 0
-6414 6006 0
-6414 34 0
6414 -6006 -34 0
-6415 6008 0
-6415 93 0
6415 -6008 -93 0
-6416 6010 0
-6416 89 0
6416 -6010 -89 0
-6417 6012 0
-6417 85 0
6417 -6012 -85 0
-6418 6014 0
-6418 84 0
6418 -6014 -84 0
-6419 6016 0
-6419 83 0
6419 -6016 -83 0
-6420 6018 0
-6420 82 0
6420 -6018 -82 0
-6421 6020 0
-6421 141 0
6421 -6020 -141 0
-6422 6022 0
-6422 133 0
6422 -6022 -133 0
-6423 6024 0
-6423 132 0
6423 -6024 -132 0
-6424 6026 0
-6424 130 0
6424 -6026 -130 0
-6425 6028 0
-6425 189 0
6425 -6028 -189 0
-6426 6409 6410 0
-6426 -6409 -6410 0
6426 -6409 6410 0
6426 6409 -6410 0
-6427 6426 6411 0
-6427 -6426 -6411 0
6427 -6426 6411 0
6427 6426 -6411 0
-6428 6427 6412 0
-6428 -6427 -6412 0
6428 -6427 6412 0
6428 6427 -6412 0
-6429 6428 6413 0
-6429 -6428 -6413 0
6429 -6428 6413 0
6429 6428 -6413 0
-6430 6429 6414 0
-6430 -6429 -6414 0
6430 -6429 6414 0
6430 6429 -6414 0
-6431 6430 6415 0
-6431 -6430 -6415 0
6431 -6430 6415 0
6431 6430 -6415 0
-6432 6431 6416 0
-6432 -6431 -6416 0
6432 -6431 6416 0
6432 6431 -6416 0
-6433 6432 6417 0
-6433 -6432 -6417 0
6433 -6432 6417 0
6433 6432 -6417 0
-6434 6433 6418 0
-6434 -6433 -6418 0
6434 -6433 6418 0
6434 6433 -6418 0
-6435 6434 6419 0
-6435 -6434 -6419 0
6435 -6434 6419 0
6435 6434 -6419 0
-6436 6435 6420 0
-6436 -6435 -6420 0
6436 -6435 6420 0
6436 6435 -6420 0
-6437 6436 6421 0
-6437 -6436 -6421 0
6437 -6436 6421 0
6437 6436 -6421 0
-6438 6437 6422 0
-6438 -6437 -6422 0
6438 -6437 6422 0
6438 6437 -6422 0
-6439 6438 6423 0
-6439 -6438 -6423 0
6439 -6438 6423 0
6439 6438 -6423 0
-6440 6439 6424 0
-6440 -6439 -6424 0
6440 -6439 6424 0
6440 6439 -6424 0
-6441 6440 6425 0
-6441 -6440 -6425 0
6441 -6440 6425 0
6441 6440 -6425 0
-6441 0
-6442 5996 0
-6442 46 0
6442 -5996 -46 0
-6443 5998 0
-6443 42 0
6443 -5998 -42 0
-6444 6000 0
-6444 39 0
6444 -6000 -39 0
-6445 6002 0
-6445 40 0
6445 -6002 -40 0
-6446 6004 0
-6446 39 0
6446 -6004 -39 0
-6447 6006 0
-6447 42 0
6447 -6006 -42 0
-6448 6008 0
-6448 94 0
6448 -6008 -94 0
-6449 6010 0
-6449 90 0
6449 -6010 -90 0
-6450 6012 0
-6450 87 0
6450 -6012 -87 0
-6451 6014 0
-6451 88 0
6451 -6014 -88 0
-6452 6016 0
-6452 87 0
6452 -6016 -87 0
-6453 6018 0
-6453 90 0
6453 -6018 -90 0
-6454 6020 0
-6454 142 0
6454 -6020 -142 0
-6455 6022 0
-6455 136 0
6455 -6022 -136 0
-6456 6024 0
-6456 136 0
6456 -6024 -136 0
-6457 6026 0
-6457 142 0
6457 -6026 -142 0
-6458 6028 0
-6458 190 0
6458 -6028 -190 0
-6459 6442 6443 0
-6459 -6442 -6443 0
6459 -6442 6443 0
6459 6442 -6443 0
-6460 6459 6444 0
-6460 -6459 -6444 0
6460 -6459 6444 0
6460 6459 -6444 0
-6461 6460 6445 0
-6461 -6460 -6445 0
6461 -6460 6445 0
6461 6460 -6445 0
-6462 6461 6446 0
-6462 -6461 -6446 0
6462 -6461 6446 0
6462 6461 -6446 0
-6463 6462 6447 0
-6463 -6462 -6447 0
6463 -6462 6447 0
6463 6462 -6447 0
-6464 6463 6448 0
-6464 -6463 -6448 0
6464 -6463 6448 0
6464 6463 -6448 0
-6465 6464 6449 0
-6465 -6464 -6449 0
6465 -6464 6449 0
6465 6464 -6449 0
-6466 6465 6450 0
-6466 -6465 -6450 0
6466 -6465 6450 0
6466 6465 -6450 0
-6467 6466 6451 0
-6467 -6466 -6451 0
6467 -6466 6451 0
6467 6466 -6451 0
-6468 6467 6452 0
-6468 -6467 -6452 0
6468 -6467 6452 0
6468 6467 -6452 0
-6469 6468 6453 0
-6469 -6468 -6453 0
6469 -6468 6453 0
6469 6468 -6453 0
-6470 6469 6454 0
-6470 -6469 -6454 0
6470 -6469 6454 0
6470 6469 -6454 0
-6471 6470 6455 0
-6471 -6470 -6455 0
6471 -6470 6455 0
6471 6470 -6455 0
-6472 6471 6456 0
-6472 -6471 -6456 0
6472 -6471 6456 0
6472 6471 -6456 0
-6473 6472 6457 0
-6473 -6472 -6457 0
6473 -6472 6457 0
6473 6472 -6457 0
-6474 6473 6458 0
-6474 -6473 -6458 0
6474 -6473 6458 0
6474 6473 -6458 0
-6474 0
-6475 5996 0
-6475 47 0
6475 -5996 -47 0
-6476 5998 0
-6476 44 0
6476 -5998 -44 0
-6477 6000 0
-6477 40 0
6477 -6000 -40 0
-6478 6002 0
-6478 44 0
6478 -6002 -44 0
-6479 6004 0
-6479 47 0
6479 -6004 -47 0
-6480 6006 0
-6480 46 0
6480 -6006 -46 0
-6481 6008 0
-6481 95 0
6481 -6008 -95 0
-6482 6010 0
-6482 92 0
6482 -6010 -92 0
-6483 6012 0
-6483 88 0
6483 -6012 -88 0
-6484 6014 0
-6484 92 0
6484 -6014 -92 0
-6485 6016 0
-6485 95 0
6485 -6016 -95 0
-6486 6018 0
-6486 94 0
6486 -6018 -94 0
-6487 6020 0
-6487 143 0
6487 -6020 -143 0
-6488 6022 0
-6488 135 0
6488 -6022 -135 0
-6489 6024 0
-6489 140 0
6489 -6024 -140 0
-6490 6026 0
-6490 138 0
6490 -6026 -138 0
-6491 6028 0
-6491 191 0
6491 -6028 -191 0
-6492 6475 6476 0
-6492 -6475 -6476 0
6492 -6475 6476 0
6492 6475 -6476 0
-6493 6492 6477 0
-6493 -6492 -6477 0
6493 -6492 6477 0
6493 6492 -6477 0
-6494 6493 6478 0
-6494 -6493 -6478 0
6494 -6493 6478 0
6494 6493 -6478 0
-6495 6494 6479 0
-6495 -6494 -6479 0
6495 -6494 6479 0
6495 6494 -6479 0
-6496 6495 6480 0
-6496 -6495 -6480 0
6496 -6495 6480 0
6496 6495 -6480 0
-6497 6496 6481 0
-6497 -6496 -6481 0
6497 -6496 6481 0
6497 6496 -6481 0
-6498 6497 6482 0
-6498 -6497 -6482 0
6498 -6497 6482 0
6498 6497 -6482 0
-6499 6498 6483 0
-6499 -6498 -6483 0
6499 -6498 6483 0
6499 6498 -6483 0
-6500 6499 6484 0
-6500 -6499 -6484 0
6500 -6499 6484 0
6500 6499 -6484 0
-6501 6500 6485 0
-6501 -6500 -6485 0
6501 -6500 6485 0
6501 6500 -6485 0
-6502 6501 6486 0
-6502 -6501 -6486 0
6502 -6501 6486 0
6502 6501 -6486 0
-6503 6502 6487 0
-6503 -6502 -6487 0
6503 -6502 6487 0
6503 6502 -6487 0
-6504 6503 6488 0
-6504 -6503 -6488 0
6504 -6503 6488 0
6504 6503 -6488 0
-6505 6504 6489 0
-6505 -6504 -6489 0
6505 -6504 6489 0
6505 6504 -6489 0
-6506 6505 6490 0
-6506 -6505 -6490 0
6506 -6505 6490 0
6506 6505 -6490 0
-6507 6506 6491 0
-6507 -6506 -6491 0
6507 -6506 6491 0
6507 6506 -6491 0
-6507 0
-6508 5996 0
-6508 48 0
6508 -5996 -48 0
-6509 5998 0
-6509 43 0
6509 -5998 -43 0
-6510 6000 0
-6510 38 0
6510 -6000 -38 0
-6511 6002 0
-6511 48 0
6511 -6002 -48 0
-6512 6004 0
-6512 43 0
6512 -6004 -43 0
-6513 6006 0
-6513 38 0
6513 -6006 -38 0
-6514 6008 0
-6514 96 0
6514 -6008 -96 0
-6515 6010 0
-6515 91 0
6515 -6010 -91 0
-6516 6012 0
-6516 86 0
6516 -6012 -86 0
-6517 6014 0
-6517 96 0
6517 -6014 -96 0
-6518 6016 0
-6518 91 0
6518 -6016 -91 0
-6519 6018 0
-6519 86 0
6519 -6018 -86 0
-6520 6020 0
-6520 144 0
6520 -6020 -144 0
-6521 6022 0
-6521 134 0
6521 -6022 -134 0
-6522 6024 0
-6522 144 0
6522 -6024 -144 0
-6523 6026 0
-6523 134 0
6523 -6026 -134 0
-6524 6028 0
-6524 192 0
6524 -6028 -192 0
-6525 6508 6509 0
-6525 -6508 -6509 0
6525 -6508 6509 0
6525 6508 -6509 0
-6526 6525 6510 0
-6526 -6525 -6510 0
6526 -6525 6510 0
6526 6525 -6510 0
-6527 6526 6511 0
-6527 -6526 -6511 0
6527 -6526 6511 0
6527 6526 -6511 0
-6528 6527 6512 0
-6528 -6527 -6512 0
6528 -6527 6512 0
6528 6527 -6512 0
-6529 6528 6513 0
-6529 -6528 -6513 0
6529 -6528 6513 0
6529 6528 -6513 0
-6530 6529 6514 0
-6530 -6529 -6514 0
6530 -6529 6514 0
6530 6529 -6514 0
-6531 6530 6515 0
-6531 -6530 -6515 0
6531 -6530 6515 0
6531 6530 -6515 0
-6532 6531 6516 0
-6532 -6531 -6516 0
6532 -6531 6516 0
6532 6531 -6516 0
-6533 6532 6517 0
-6533 -6532 -6517 0
6533 -6532 6517 0
6533 6532 -6517 0
-6534 6533 6518 0
-6534 -6533 -6518 0
6534 -6533 6518 0
6534 6533 -6518 0
-6535 6534 6519 0
-6535 -6534 -6519 0
6535 -6534 6519 0
6535 6534 -6519 0
-6536 6535 6520 0
-6536 -6535 -6520 0
6536 -6535 6520 0
6536 6535 -6520 0
-6537 6536 6521 0
-6537 -6536 -6521 0
6537 -6536 6521 0
6537 6536 -6521 0
-6538 6537 6522 0
-6538 -6537 -6522 0
6538 -6537 6522 0
6538 6537 -6522 0
-6539 6538 6523 0
-6539 -6538 -6523 0
6539 -6538 6523 0
6539 6538 -6523 0
-6540 6539 6524 0
-6540 -6539 -6524 0
6540 -6539 6524 0
6540 6539 -6524 0
-6540 0
-6541 5 0
-6541 20 0
6541 -5 -20 0
-6542 6541 0
-6542 33 0
6542 -6541 -33 0
-6543 6 0
-6543 23 0
6543 -6 -23 0
-6544 6543 0
-6544 33 0
6544 -6543 -33 0
-6545 10 0
-6545 22 0
6545 -10 -22 0
-6546 6545 0
-6546 33 0
6546 -6545 -33 0
-6547 18 0
-6547 13 0
6547 -18 -13 0
-6548 6547 0
-6548 33 0
6548 -6547 -33 0
-6549 53 0
-6549 68 0
6549 -53 -68 0
-6550 6549 0
-6550 81 0
6550 -6549 -81 0
-6551 54 0
-6551 71 0
6551 -54 -71 0
-6552 6551 0
-6552 81 0
6552 -6551 -81 0
-6553 58 0
-6553 70 0
6553 -58 -70 0
-6554 6553 0
-6554 81 0
6554 -6553 -81 0
-6555 66 0
-6555 61 0
6555 -66 -61 0
-6556 6555 0
-6556 81 0
6556 -6555 -81 0
-6557 101 0
-6557 116 0
6557 -101 -116 0
-6558 6557 0
-6558 129 0
6558 -6557 -129 0
-6559 109 0
-6559 114 0
6559 -109 -114 0
-6560 6559 0
-6560 129 0
6560 -6559 -129 0
-6561 149 0
-6561 164 0
6561 -149 -164 0
-6562 6561 0
-6562 177 0
6562 -6561 -177 0
-6563 6542 6544 0
-6563 -6542 -6544 0
6563 -6542 6544 0
6563 6542 -6544 0
-6564 6563 6546 0
-6564 -6563 -6546 0
6564 -6563 6546 0
6564 6563 -6546 0
-6565 6564 6548 0
-6565 -6564 -6548 0
6565 -6564 6548 0
6565 6564 -6548 0
-6566 6565 6546 0
-6566 -6565 -6546 0
6566 -6565 6546 0
6566 6565 -6546 0
-6567 6566 6544 0
-6567 -6566 -6544 0
6567 -6566 6544 0
6567 6566 -6544 0
-6568 6567 6550 0
-6568 -6567 -6550 0
6568 -6567 6550 0
6568 6567 -6550 0
-6569 6568 6552 0
-6569 -6568 -6552 0
6569 -6568 6552 0
6569 6568 -6552 0
-6570 6569 6554 0
-6570 -6569 -6554 0
6570 -6569 6554 0
6570 6569 -6554 0
-6571 6570 6556 0
-6571 -6570 -6556 0
6571 -6570 6556 0
6571 6570 -6556 0
-6572 6571 6554 0
-6572 -6571 -6554 0
6572 -6571 6554 0
6572 6571 -6554 0
-6573 6572 6552 0
-6573 -6572 -6552 0
6573 -6572 6552 0
6573 6572 -6552 0
-6574 6573 6558 0
-6574 -6573 -6558 0
6574 -6573 6558 0
6574 6573 -6558 0
-6575 6574 6560 0
-6575 -6574 -6560 0
6575 -6574 6560 0
6575 6574 -6560 0
-6576 6575 6560 0
-6576 -6575 -6560 0
6576 -6575 6560 0
6576 6575 -6560 0
-6577 6576 6558 0
-6577 -6576 -6558 0
6577 -6576 6558 0
6577 6576 -6558 0
-6578 6577 6562 0
-6578 -6577 -6562 0
6578 -6577 6562 0
6578 6577 -6562 0
-6578 0
-6579 6541 0
-6579 34 0
6579 -6541 -34 0
-6580 6543 0
-6580 34 0
6580 -6543 -34 0
-6581 6545 0
-6581 35 0
6581 -6545 -35 0
-6582 6547 0
-6582 37 0
6582 -6547 -37 0
-6583 6545 0
-6583 37 0
6583 -6545 -37 0
-6584 6543 0
-6584 41 0
6584 -6543 -41 0
-6585 6549 0
-6585 82 0
6585 -6549 -82 0
-6586 6551 0
-6586 82 0
6586 -6551 -82 0
-6587 6553 0
-6587 83 0
6587 -6553 -83 0
-6588 6555 0
-6588 85 0
6588 -6555 -85 0
-6589 6553 0
-6589 85 0
6589 -6553 -85 0
-6590 6551 0
-6590 89 0
6590 -6551 -89 0
-6591 6557 0
-6591 130 0
6591 -6557 -130 0
-6592 6559 0
-6592 132 0
6592 -6559 -132 0
-6593 6559 0
-6593 133 0
6593 -6559 -133 0
-6594 6557 0
-6594 141 0
6594 -6557 -141 0
-6595 6561 0
-6595 178 0
6595 -6561 -178 0
-6596 6579 6580 0
-6596 -6579 -6580 0
6596 -6579 6580 0
6596 6579 -6580 0
-6597 6596 6581 0
-6597 -6596 -6581 0
6597 -6596 6581 0
6597 6596 -6581 0
-6598 6597 6582 0
-6598 -6597 -6582 0
6598 -6597 6582 0
6598 6597 -6582 0
-6599 6598 6583 0
-6599 -6598 -6583 0
6599 -6598 6583 0
6599 6598 -6583 0
-6600 6599 6584 0
-6600 -6599 -6584 0
6600 -6599 6584 0
6600 6599 -6584 0
-6601 6600 6585 0
-6601 -6600 -6585 0
6601 -6600 6585 0
6601 6600 -6585 0
-6602 6601 6586 0
-6602 -6601 -6586 0
6602 -6601 6586 0
6602 6601 -6586 0
-6603 6602 6587 0
-6603 -6602 -6587 0
6603 -6602 6587 0
6603 6602 -6587 0
-6604 6603 6588 0
-6604 -6603 -6588 0
6604 -6603 6588 0
6604 6603 -6588 0
-6605 6604 6589 0
-6605 -6604 -6589 0
6605 -6604 6589 0
6605 6604 -6589 0
-6606 6605 6590 0
-6606 -6605 -6590 0
6606 -6605 6590 0
6606 6605 -6590 0
-6607 6606 6591 0
-6607 -6606 -6591 0
6607 -6606 6591 0
6607 6606 -6591 0
-6608 6607 6592 0
-6608 -6607 -6592 0
6608 -6607 6592 0
6608 6607 -6592 0
-6609 6608 6593 0
-6609 -6608 -6593 0
6609 -6608 6593 0
6609 6608 -6593 0
-6610 6609 6594 0
-6610 -6609 -6594 0
6610 -6609 6594 0
6610 6609 -6594 0
-6611 6610 6595 0
-6611 -6610 -6595 0
6611 -6610 6595 0
6611 6610 -6595 0
6611 0
-6612 6541 0
-6612 35 0
6612 -6541 -35 0
-6613 6543 0
-6613 36 0
6613 -6543 -36 0
-6614 6545 0
-6614 36 0
6614 -6545 -36 0
-6615 6547 0
-6615 41 0
6615 -6547 -41 0
-6616 6545 0
-6616 45 0
6616 -6545 -45 0
-6617 6543 0
-6617 45 0
6617 -6543 -45 0
-6618 6549 0
-6618 83 0
6618 -6549 -83 0
-6619 6551 0
-6619 84 0
6619 -6551 -84 0
-6620 6553 0
-6620 84 0
6620 -6553 -84 0
-6621 6555 0
-6621 89 0
6621 -6555 -89 0
-6622 6553 0
-6622 93 0
6622 -6553 -93 0
-6623 6551 0
-6623 93 0
6623 -6551 -93 0
-6624 6557 0
-6624 131 0
6624 -6557 -131 0
-6625 6559 0
-6625 131 0
6625 -6559 -131 0
-6626 6559 0
-6626 137 0
6626 -6559 -137 0
-6627 6557 0
-6627 137 0
6627 -6557 -137 0
-6628 6561 0
-6628 179 0
6628 -6561 -179 0
-6629 6612 6613 0
-6629 -6612 -6613 0
6629 -6612 6613 0
6629 6612 -6613 0
-6630 6629 6614 0
-6630 -6629 -6614 0
6630 -6629 6614 0
6630 6629 -6614 0
-6631 6630 6615 0
-6631 -6630 -6615 0
6631 -6630 6615 0
6631 6630 -6615 0
-6632 6631 6616 0
-6632 -6631 -6616 0
6632 -6631 6616 0
6632 6631 -6616 0
-6633 6632 6617 0
-6633 -6632 -6617 0
6633 -6632 6617 0
6633 6632 -6617 0
-6634 6633 6618 0
-6634 -6633 -6618 0
6634 -6633 6618 0
6634 6633 -6618 0
-6635 6634 6619 0
-6635 -6634 -6619 0
6635 -6634 6619 0
6635 6634 -6619 0
-6636 6635 6620 0
-6636 -6635 -6620 0
6636 -6635 6620 0
6636 6635 -6620 0
-6637 6636 6621 0
-6637 -6636 -6621 0
6637 -6636 6621 0
6637 6636 -6621 0
-6638 6637 6622 0
-6638 -6637 -6622 0
6638 -6637 6622 0
6638 6637 -6622 0
-6639 6638 6623 0
-6639 -6638 -6623 0
6639 -6638 6623 0
6639 6638 -6623 0
-6640 6639 6624 0
-6640 -6639 -6624 0
6640 -6639 6624 0
6640 6639 -6624 0
-6641 6640 6625 0
-6641 -6640 -6625 0
6641 -6640 6625 0
6641 6640 -6625 0
-6642 6641 6626 0
-6642 -6641 -6626 0
6642 -6641 6626 0
6642 6641 -6626 0
-6643 6642 6627 0
-6643 -6642 -6627 0
6643 -6642 6627 0
6643 6642 -6627 0
-6644 6643 6628 0
-6644 -6643 -6628 0
6644 -6643 6628 0
6644 6643 -6628 0
-6644 0
-6645 6541 0
-6645 36 0
6645 -6541 -36 0
-6646 6543 0
-6646 35 0
6646 -6543 -35 0
-6647 6545 0
-6647 34 0
6647 -6545 -34 0
-6648 6547 0
-6648 45 0
6648 -6547 -45 0
-6649 6545 0
-6649 41 0
6649 -6545 -41 0
-6650 6543 0
-6650 37 0
6650 -6543 -37 0
-6651 6549 0
-6651 84 0
6651 -6549 -84 0
-6652 6551 0
-6652 83 0
6652 -6551 -83 0
-6653 6553 0
-6653 82 0
6653 -6553 -82 0
-6654 6555 0
-6654 93 0
6654 -6555 -93 0
-6655 6553 0
-6655 89 0
6655 -6553 -89 0
-6656 6551 0
-6656 85 0
6656 -6551 -85 0
-6657 6557 0
-6657 132 0
6657 -6557 -132 0
-6658 6559 0
-6658 130 0
6658 -6559 -130 0
-6659 6559 0
-6659 141 0
6659 -6559 -141 0
-6660 6557 0
-6660 133 0
6660 -6557 -133 0
-6661 6561 0
-6661 180 0
6661 -6561 -180 0
-6662 6645 6646 0
-6662 -6645 -6646 0
6662 -6645 6646 0
6662 6645 -6646 0
-6663 6662 6647 0
-6663 -6662 -6647 0
6663 -6662 6647 0
6663 6662 -6647 0
-6664 6663 6648 0
-6664 -6663 -6648 0
6664 -6663 6648 0
6664 6663 -6648 0
-6665 6664 6649 0
-6665 -6664 -6649 0
6665 -6664 6649 0
6665 6664 -6649 0
-6666 6665 6650 0
-6666 -6665 -6650 0
6666 -6665 6650 0
6666 6665 -6650 0
-6667 6666 6651 0
-6667 -6666 -6651 0
6667 -6666 6651 0
6667 6666 -6651 0
-6668 6667 6652 0
-6668 -6667 -6652 0
6668 -6667 6652 0
6668 6667 -6652 0
-6669 6668 6653 0
-6669 -6668 -6653 0
6669 -6668 6653 0
6669 6668 -6653 0
-6670 6669 6654 0
-6670 -6669 -6654 0
6670 -6669 6654 0
6670 6669 -6654 0
-6671 6670 6655 0
-6671 -6670 -6655 0
6671 -6670 6655 0
6671 6670 -6655 0
-6672 6671 6656 0
-6672 -6671 -6656 0
6672 -6671 6656 0
6672 6671 -6656 0
-6673 6672 6657 0
-6673 -6672 -6657 0
6673 -6672 6657 0
6673 6672 -6657 0
-6674 6673 6658 0
-6674 -6673 -6658 0
6674 -6673 6658 0
6674 6673 -6658 0
-6675 6674 6659 0
-6675 -6674 -6659 0
6675 -6674 6659 0
6675 6674 -6659 0
-6676 6675 6660 0
-6676 -6675 -6660 0
6676 -6675 6660 0
6676 6675 -6660 0
-6677 6676 6661 0
-6677 -6676 -6661 0
6677 -6676 6661 0
6677 6676 -6661 0
-6677 0
-6678 6541 0
-6678 38 0
6678 -6541 -38 0
-6679 6543 0
-6679 38 0
6679 -6543 -38 0
-6680 6545 0
-6680 43 0
6680 -6545 -43 0
-6681 6547 0
-6681 38 0
6681 -6547 -38 0
-6682 6545 0
-6682 38 0
6682 -6545 -38 0
-6683 6543 0
-6683 43 0
6683 -6543 -43 0
-6684 6549 0
-6684 86 0
6684 -6549 -86 0
-6685 6551 0
-6685 86 0
6685 -6551 -86 0
-6686 6553 0
-6686 91 0
6686 -6553 -91 0
-6687 6555 0
-6687 86 0
6687 -6555 -86 0
-6688 6553 0
-6688 86 0
6688 -6553 -86 0
-6689 6551 0
-6689 91 0
6689 -6551 -91 0
-6690 6557 0
-6690 134 0
6690 -6557 -134 0
-6691 6559 0
-6691 144 0
6691 -6559 -144 0
-6692 6559 0
-6692 134 0
6692 -6559 -134 0
-6693 6557 0
-6693 144 0
6693 -6557 -144 0
-6694 6561 0
-6694 182 0
6694 -6561 -182 0
-6695 6678 6679 0
-6695 -6678 -6679 0
6695 -6678 6679 0
6695 6678 -6679 0
-6696 6695 6680 0
-6696 -6695 -6680 0
6696 -6695 6680 0
6696 6695 -6680 0
-6697 6696 6681 0
-6697 -6696 -6681 0
6697 -6696 6681 0
6697 6696 -6681 0
-6698 6697 6682 0
-6698 -6697 -6682 0
6698 -6697 6682 0
6698 6697 -6682 0
-6699 6698 6683 0
-6699 -6698 -6683 0
6699 -6698 6683 0
6699 6698 -6683 0
-6700 6699 6684 0
-6700 -6699 -6684 0
6700 -6699 6684 0
6700 6699 -6684 0
-6701 6700 6685 0
-6701 -6700 -6685 0
6701 -6700 6685 0
6701 6700 -6685 0
-6702 6701 6686 0
-6702 -6701 -6686 0
6702 -6701 6686 0
6702 6701 -6686 0
-6703 6702 6687 0
-6703 -6702 -6687 0
6703 -6702 6687 0
6703 6702 -6687 0
-6704 6703 6688 0
-6704 -6703 -6688 0
6704 -6703 6688 0
6704 6703 -6688 0
-6705 6704 6689 0
-6705 -6704 -6689 0
6705 -6704 6689 0
6705 6704 -6689 0
-6706 6705 6690 0
-6706 -6705 -6690 0
6706 -6705 6690 0
6706 6705 -6690 0
-6707 6706 6691 0
-6707 -6706 -6691 0
6707 -6706 6691 0
6707 6706 -6691 0
-6708 6707 6692 0
-6708 -6707 -6692 0
6708 -6707 6692 0
6708 6707 -6692 0
-6709 6708 6693 0
-6709 -6708 -6693 0
6709 -6708 6693 0
6709 6708 -6693 0
-6710 6709 6694 0
-6710 -6709 -6694 0
6710 -6709 6694 0
6710 6709 -6694 0
-6710 0
-6711 6541 0
-6711 39 0
6711 -6541 -39 0
-6712 6543 0
-6712 40 0
6712 -6543 -40 0
-6713 6545 0
-6713 44 0
6713 -6545 -44 0
-6714 6547 0
-6714 42 0
6714 -6547 -42 0
-6715 6545 0
-6715 46 0
6715 -6545 -46 0
-6716 6543 0
-6716 47 0
6716 -6543 -47 0
-6717 6549 0
-6717 87 0
6717 -6549 -87 0
-6718 6551 0
-6718 88 0
6718 -6551 -88 0
-6719 6553 0
-6719 92 0
6719 -6553 -92 0
-6720 6555 0
-6720 90 0
6720 -6555 -90 0
-6721 6553 0
-6721 94 0
6721 -6553 -94 0
-6722 6551 0
-6722 95 0
6722 -6551 -95 0
-6723 6557 0
-6723 135 0
6723 -6557 -135 0
-6724 6559 0
-6724 143 0
6724 -6559 -143 0
-6725 6559 0
-6725 138 0
6725 -6559 -138 0
-6726 6557 0
-6726 140 0
6726 -6557 -140 0
-6727 6561 0
-6727 183 0
6727 -6561 -183 0
-6728 6711 6712 0
-6728 -6711 -6712 0
6728 -6711 6712 0
6728 6711 -6712 0
-6729 6728 6713 0
-6729 -6728 -6713 0
6729 -6728 6713 0
6729 6728 -6713 0
-6730 6729 6714 0
-6730 -6729 -6714 0
6730 -6729 6714 0
6730 6729 -6714 0
-6731 6730 6715 0
-6731 -6730 -6715 0
6731 -6730 6715 0
6731 6730 -6715 0
-6732 6731 6716 0
-6732 -6731 -6716 0
6732 -6731 6716 0
6732 6731 -6716 0
-6733 6732 6717 0
-6733 -6732 -6717 0
6733 -6732 6717 0
6733 6732 -6717 0
-6734 6733 6718 0
-6734 -6733 -6718 0
6734 -6733 6718 0
6734 6733 -6718 0
-6735 6734 6719 0
-6735 -6734 -6719 0
6735 -6734 6719 0
6735 6734 -6719 0
-6736 6735 6720 0
-6736 -6735 -6720 0
6736 -6735 6720 0
6736 6735 -6720 0
-6737 6736 6721 0
-6737 -6736 -6721 0
6737 -6736 6721 0
6737 6736 -6721 0
-6738 6737 6722 0
-6738 -6737 -6722 0
6738 -6737 6722 0
6738 6737 -6722 0
-6739 6738 6723 0
-6739 -6738 -6723 0
6739 -6738 6723 0
6739 6738 -6723 0
-6740 6739 6724 0
-6740 -6739 -6724 0
6740 -6739 6724 0
6740 6739 -6724 0
-6741 6740 6725 0
-6741 -6740 -6725 0
6741 -6740 6725 0
6741 6740 -6725 0
-6742 6741 6726 0
-6742 -6741 -6726 0
6742 -6741 6726 0
6742 6741 -6726 0
-6743 6742 6727 0
-6743 -6742 -6727 0
6743 -6742 6727 0
6743 6742 -6727 0
-6743 0
-6744 6541 0
-6744 40 0
6744 -6541 -40 0
-6745 6543 0
-6745 39 0
6745 -6543 -39 0
-6746 6545 0
-6746 42 0
6746 -6545 -42 0
-6747 6547 0
-6747 46 0
6747 -6547 -46 0
-6748 6549 0
-6748 88 0
6748 -6549 -88 0
-6749 6551 0
-6749 87 0
6749 -6551 -87 0
-6750 6553 0
-6750 90 0
6750 -6553 -90 0
-6751 6555 0
-6751 94 0
6751 -6555 -94 0
-6752 6557 0
-6752 136 0
6752 -6557 -136 0
-6753 6559 0
-6753 142 0
6753 -6559 -142 0
-6754 6561 0
-6754 184 0
6754 -6561 -184 0
-6755 6744 6745 0
-6755 -6744 -6745 0
6755 -6744 6745 0
6755 6744 -6745 0
-6756 6755 6746 0
-6756 -6755 -6746 0
6756 -6755 6746 0
6756 6755 -6746 0
-6757 6756 6747 0
-6757 -6756 -6747 0
6757 -6756 6747 0
6757 6756 -6747 0
-6758 6757 6746 0
-6758 -6757 -6746 0
6758 -6757 6746 0
6758 6757 -6746 0
-6759 6758 6745 0
-6759 -6758 -6745 0
6759 -6758 6745 0
6759 6758 -6745 0
-6760 6759 6748 0
-6760 -6759 -6748 0
6760 -6759 6748 0
6760 6759 -6748 0
-6761 6760 6749 0
-6761 -6760 -6749 0
6761 -6760 6749 0
6761 6760 -6749 0
-6762 6761 6750 0
-6762 -6761 -6750 0
6762 -6761 6750 0
6762 6761 -6750 0
-6763 6762 6751 0
-6763 -6762 -6751 0
6763 -6762 6751 0
6763 6762 -6751 0
-6764 6763 6750 0
-6764 -6763 -6750 0
6764 -6763 6750 0
6764 6763 -6750 0
-6765 6764 6749 0
-6765 -6764 -6749 0
6765 -6764 6749 0
6765 6764 -6749 0
-6766 6765 6752 0
-6766 -6765 -6752 0
6766 -6765 6752 0
6766 6765 -6752 0
-6767 6766 6753 0
-6767 -6766 -6753 0
6767 -6766 6753 0
6767 6766 -6753 0
-6768 6767 6753 0
-6768 -6767 -6753 0
6768 -6767 6753 0
6768 6767 -6753 0
-6769 6768 6752 0
-6769 -6768 -6752 0
6769 -6768 6752 0
6769 6768 -6752 0
-6770 6769 6754 0
-6770 -6769 -6754 0
6770 -6769 6754 0
6770 6769 -6754 0
-6770 0
-6771 6541 0
-6771 42 0
6771 -6541 -42 0
-6772 6543 0
-6772 46 0
6772 -6543 -46 0
-6773 6545 0
-6773 47 0
6773 -6545 -47 0
-6774 6547 0
-6774 39 0
6774 -6547 -39 0
-6775 6545 0
-6775 40 0
6775 -6545 -40 0
-6776 6543 0
-6776 44 0
6776 -6543 -44 0
-6777 6549 0
-6777 90 0
6777 -6549 -90 0
-6778 6551 0
-6778 94 0
6778 -6551 -94 0
-6779 6553 0
-6779 95 0
6779 -6553 -95 0
-6780 6555 0
-6780 87 0
6780 -6555 -87 0
-6781 6553 0
-6781 88 0
6781 -6553 -88 0
-6782 6551 0
-6782 92 0
6782 -6551 -92 0
-6783 6557 0
-6783 138 0
6783 -6557 -138 0
-6784 6559 0
-6784 140 0
6784 -6559 -140 0
-6785 6559 0
-6785 135 0
6785 -6559 -135 0
-6786 6557 0
-6786 143 0
6786 -6557 -143 0
-6787 6561 0
-6787 186 0
6787 -6561 -186 0
-6788 6771 6772 0
-6788 -6771 -6772 0
6788 -6771 6772 0
6788 6771 -6772 0
-6789 6788 6773 0
-6789 -6788 -6773 0
6789 -6788 6773 0
6789 6788 -6773 0
-6790 6789 6774 0
-6790 -6789 -6774 0
6790 -6789 6774 0
6790 6789 -6774 0
-6791 6790 6775 0
-6791 -6790 -6775 0
6791 -6790 6775 0
6791 6790 -6775 0
-6792 6791 6776 0
-6792 -6791 -6776 0
6792 -6791 6776 0
6792 6791 -6776 0
-6793 6792 6777 0
-6793 -6792 -6777 0
6793 -6792 6777 0
6793 6792 -6777 0
-6794 6793 6778 0
-6794 -6793 -6778 0
6794 -6793 6778 0
6794 6793 -6778 0
-6795 6794 6779 0
-6795 -6794 -6779 0
6795 -6794 6779 0
6795 6794 -6779 0
-6796 6795 6780 0
-6796 -6795 -6780 0
6796 -6795 6780 0
6796 6795 -6780 0
-6797 6796 6781 0
-6797 -6796 -6781 0
6797 -6796 6781 0
6797 6796 -6781 0
-6798 6797 6782 0
-6798 -6797 -6782 0
6798 -6797 6782 0
6798 6797 -6782 0
-6799 6798 6783 0
-6799 -6798 -6783 0
6799 -6798 6783 0
6799 6798 -6783 0
-6800 6799 6784 0
-6800 -6799 -6784 0
6800 -6799 6784 0
6800 6799 -6784 0
-6801 6800 6785 0
-6801 -6800 -6785 0
6801 -6800 6785 0
6801 6800 -6785 0
-6802 6801 6786 0
-6802 -6801 -6786 0
6802 -6801 6786 0
6802 6801 -6786 0
-6803 6802 6787 0
-6803 -6802 -6787 0
6803 -6802 6787 0
6803 6802 -6787 0
6803 0
-6804 6541 0
-6804 43 0
6804 -6541 -43 0
-6805 6543 0
-6805 48 0
6805 -6543 -48 0
-6806 6545 0
-6806 48 0
6806 -6545 -48 0
-6807 6547 0
-6807 43 0
6807 -6547 -43 0
-6808 6549 0
-6808 91 0
6808 -6549 -91 0
-6809 6551 0
-6809 96 0
6809 -6551 -96 0
-6810 6553 0
-6810 96 0
6810 -6553 -96 0
-6811 6555 0
-6811 91 0
6811 -6555 -91 0
-6812 6557 0
-6812 139 0
6812 -6557 -139 0
-6813 6559 0
-6813 139 0
6813 -6559 -139 0
-6814 6561 0
-6814 187 0
6814 -6561 -187 0
-6815 6804 6805 0
-6815 -6804 -6805 0
6815 -6804 6805 0
6815 6804 -6805 0
-6816 6815 6806 0
-6816 -6815 -6806 0
6816 -6815 6806 0
6816 6815 -6806 0
-6817 6816 6807 0
-6817 -6816 -6807 0
6817 -6816 6807 0
6817 6816 -6807 0
-6818 6817 6806 0
-6818 -6817 -6806 0
6818 -6817 6806 0
6818 6817 -6806 0
-6819 6818 6805 0
-6819 -6818 -6805 0
6819 -6818 6805 0
6819 6818 -6805 0
-6820 6819 6808 0
-6820 -6819 -6808 0
6820 -6819 6808 0
6820 6819 -6808 0
-6821 6820 6809 0
-6821 -6820 -6809 0
6821 -6820 6809 0
6821 6820 -6809 0
-6822 6821 6810 0
-6822 -6821 -6810 0
6822 -6821 6810 0
6822 6821 -6810 0
-6823 6822 6811 0
-6823 -6822 -6811 0
6823 -6822 6811 0
6823 6822 -6811 0
-6824 6823 6810 0
-6824 -6823 -6810 0
6824 -6823 6810 0
6824 6823 -6810 0
-6825 6824 6809 0
-6825 -6824 -6809 0
6825 -6824 6809 0
6825 6824 -6809 0
-6826 6825 6812 0
-6826 -6825 -6812 0
6826 -6825 6812 0
6826 6825 -6812 0
-6827 6826 6813 0
-6827 -6826 -6813 0
6827 -6826 6813 0
6827 6826 -6813 0
-6828 6827 6813 0
-6828 -6827 -6813 0
6828 -6827 6813 0
6828 6827 -6813 0
-6829 6828 6812 0
-6829 -6828 -6812 0
6829 -6828 6812 0
6829 6828 -6812 0
-6830 6829 6814 0
-6830 -6829 -6814 0
6830 -6829 6814 0
6830 6829 -6814 0
-6830 0
-6831 6541 0
-6831 46 0
6831 -6541 -46 0
-6832 6543 0
-6832 42 0
6832 -6543 -42 0
-6833 6545 0
-6833 39 0
6833 -6545 -39 0
-6834 6547 0
-6834 40 0
6834 -6547 -40 0
-6835 6549 0
-6835 94 0
6835 -6549 -94 0
-6836 6551 0
-6836 90 0
6836 -6551 -90 0
-6837 6553 0
-6837 87 0
6837 -6553 -87 0
-6838 6555 0
-6838 88 0
6838 -6555 -88 0
-6839 6557 0
-6839 142 0
6839 -6557 -142 0
-6840 6559 0
-6840 136 0
6840 -6559 -136 0
-6841 6561 0
-6841 190 0
6841 -6561 -190 0
-6842 6831 6832 0
-6842 -6831 -6832 0
6842 -6831 6832 0
6842 6831 -6832 0
-6843 6842 6833 0
-6843 -6842 -6833 0
6843 -6842 6833 0
6843 6842 -6833 0
-6844 6843 6834 0
-6844 -6843 -6834 0
6844 -6843 6834 0
6844 6843 -6834 0
-6845 6844 6833 0
-6845 -6844 -6833 0
6845 -6844 6833 0
6845 6844 -6833 0
-6846 6845 6832 0
-6846 -6845 -6832 0
6846 -6845 6832 0
6846 6845 -6832 0
-6847 6846 6835 0
-6847 -6846 -6835 0
6847 -6846 6835 0
6847 6846 -6835 0
-6848 6847 6836 0
-6848 -6847 -6836 0
6848 -6847 6836 0
6848 6847 -6836 0
-6849 6848 6837 0
-6849 -6848 -6837 0
6849 -6848 6837 0
6849 6848 -6837 0
-6850 6849 6838 0
-6850 -6849 -6838 0
6850 -6849 6838 0
6850 6849 -6838 0
-6851 6850 6837 0
-6851 -6850 -6837 0
6851 -6850 6837 0
6851 6850 -6837 0
-6852 6851 6836 0
-6852 -6851 -6836 0
6852 -6851 6836 0
6852 6851 -6836 0
-6853 6852 6839 0
-6853 -6852 -6839 0
6853 -6852 6839 0
6853 6852 -6839 0
-6854 6853 6840 0
-6854 -6853 -6840 0
6854 -6853 6840 0
6854 6853 -6840 0
-6855 6854 6840 0
-6855 -6854 -6840 0
6855 -6854 6840 0
6855 6854 -6840 0
-6856 6855 6839 0
-6856 -6855 -6839 0
6856 -6855 6839 0
6856 6855 -6839 0
-6857 6856 6841 0
-6857 -6856 -6841 0
6857 -6856 6841 0
6857 6856 -6841 0
-6857 0
-6858 5 0
-6858 22 0
6858 -5 -22 0
-6859 6858 0
-6859 33 0
6859 -6858 -33 0
-6860 6 0
-6860 18 0
6860 -6 -18 0
-6861 6860 0
-6861 33 0
6861 -6860 -33 0
-6862 10 0
-6862 27 0
6862 -10 -27 0
-6863 6862 0
-6863 33 0
6863 -6862 -33 0
-6864 23 0
-6864 11 0
6864 -23 -11 0
-6865 6864 0
-6865 33 0
6865 -6864 -33 0
-6866 53 0
-6866 70 0
6866 -53 -70 0
-6867 6866 0
-6867 81 0
6867 -6866 -81 0
-6868 54 0
-6868 66 0
6868 -54 -66 0
-6869 6868 0
-6869 81 0
6869 -6868 -81 0
-6870 58 0
-6870 75 0
6870 -58 -75 0
-6871 6870 0
-6871 81 0
6871 -6870 -81 0
-6872 71 0
-6872 59 0
6872 -71 -59 0
-6873 6872 0
-6873 81 0
6873 -6872 -81 0
-6874 101 0
-6874 118 0
6874 -101 -118 0
-6875 6874 0
-6875 129 0
6875 -6874 -129 0
-6876 109 0
-6876 124 0
6876 -109 -124 0
-6877 6876 0
-6877 129 0
6877 -6876 -129 0
-6878 114 0
-6878 102 0
6878 -114 -102 0
-6879 6878 0
-6879 129 0
6879 -6878 -129 0
-6880 116 0
-6880 111 0
6880 -116 -111 0
-6881 6880 0
-6881 129 0
6881 -6880 -129 0
-6882 149 0
-6882 166 0
6882 -149 -166 0
-6883 6882 0
-6883 177 0
6883 -6882 -177 0
-6884 6859 6861 0
-6884 -6859 -6861 0
6884 -6859 6861 0
6884 6859 -6861 0
-6885 6884 6863 0
-6885 -6884 -6863 0
6885 -6884 6863 0
6885 6884 -6863 0
-6886 6885 6861 0
-6886 -6885 -6861 0
6886 -6885 6861 0
6886 6885 -6861 0
-6887 6886 6859 0
-6887 -6886 -6859 0
6887 -6886 6859 0
6887 6886 -6859 0
-6888 6887 6865 0
-6888 -6887 -6865 0
6888 -6887 6865 0
6888 6887 -6865 0
-6889 6888 6867 0
-6889 -6888 -6867 0
6889 -6888 6867 0
6889 6888 -6867 0
-6890 6889 6869 0
-6890 -6889 -6869 0
6890 -6889 6869 0
6890 6889 -6869 0
-6891 6890 6871 0
-6891 -6890 -6871 0
6891 -6890 6871 0
6891 6890 -6871 0
-6892 6891 6869 0
-6892 -6891 -6869 0
6892 -6891 6869 0
6892 6891 -6869 0
-6893 6892 6867 0
-6893 -6892 -6867 0
6893 -6892 6867 0
6893 6892 -6867 0
-6894 6893 6873 0
-6894 -6893 -6873 0
6894 -6893 6873 0
6894 6893 -6873 0
-6895 6894 6875 0
-6895 -6894 -6875 0
6895 -6894 6875 0
6895 6894 -6875 0
-6896 6895 6877 0
-6896 -6895 -6877 0
6896 -6895 6877 0
6896 6895 -6877 0
-6897 6896 6879 0
-6897 -6896 -6879 0
6897 -6896 6879 0
6897 6896 -6879 0
-6898 6897 6881 0
-6898 -6897 -6881 0
6898 -6897 6881 0
6898 6897 -6881 0
-6899 6898 6883 0
-6899 -6898 -6883 0
6899 -6898 6883 0
6899 6898 -6883 0
-6899 0
-6900 6858 0
-6900 34 0
6900 -6858 -34 0
-6901 6860 0
-6901 34 0
6901 -6860 -34 0
-6902 6862 0
-6902 35 0
6902 -6862 -35 0
-6903 6860 0
-6903 37 0
6903 -6860 -37 0
-6904 6858 0
-6904 37 0
6904 -6858 -37 0
-6905 6864 0
-6905 41 0
6905 -6864 -41 0
-6906 6866 0
-6906 82 0
6906 -6866 -82 0
-6907 6868 0
-6907 82 0
6907 -6868 -82 0
-6908 6870 0
-6908 83 0
6908 -6870 -83 0
-6909 6868 0
-6909 85 0
6909 -6868 -85 0
-6910 6866 0
-6910 85 0
6910 -6866 -85 0
-6911 6872 0
-6911 89 0
6911 -6872 -89 0
-6912 6874 0
-6912 130 0
6912 -6874 -130 0
-6913 6876 0
-6913 132 0
6913 -6876 -132 0
-6914 6878 0
-6914 133 0
6914 -6878 -133 0
-6915 6880 0
-6915 141 0
6915 -6880 -141 0
-6916 6882 0
-6916 178 0
6916 -6882 -178 0
-6917 6900 6901 0
-6917 -6900 -6901 0
6917 -6900 6901 0
6917 6900 -6901 0
-6918 6917 6902 0
-6918 -6917 -6902 0
6918 -6917 6902 0
6918 6917 -6902 0
-6919 6918 6903 0
-6919 -6918 -6903 0
6919 -6918 6903 0
6919 6918 -6903 0
-6920 6919 6904 0
-6920 -6919 -6904 0
6920 -6919 6904 0
6920 6919 -6904 0
-6921 6920 6905 0
-6921 -6920 -6905 0
6921 -6920 6905 0
6921 6920 -6905 0
-6922 6921 6906 0
-6922 -6921 -6906 0
6922 -6921 6906 0
6922 6921 -6906 0
-6923 6922 6907 0
-6923 -6922 -6907 0
6923 -6922 6907 0
6923 6922 -6907 0
-6924 6923 6908 0
-6924 -6923 -6908 0
6924 -6923 6908 0
6924 6923 -6908 0
-6925 6924 6909 0
-6925 -6924 -6909 0
6925 -6924 6909 0
6925 6924 -6909 0
-6926 6925 6910 0
-6926 -6925 -6910 0
6926 -6925 6910 0
6926 6925 -6910 0
-6927 6926 6911 0
-6927 -6926 -6911 0
6927 -6926 6911 0
6927 6926 -6911 0
-6928 6927 6912 0
-6928 -6927 -6912 0
6928 -6927 6912 0
6928 6927 -6912 0
-6929 6928 6913 0
-6929 -6928 -6913 0
6929 -6928 6913 0
6929 6928 -6913 0
-6930 6929 6914 0
-6930 -6929 -6914 0
6930 -6929 6914 0
6930 6929 -6914 0
-6931 6930 6915 0
-6931 -6930 -6915 0
6931 -6930 6915 0
6931 6930 -6915 0
-6932 6931 6916 0
-6932 -6931 -6916 0
6932 -6931 6916 0
6932 6931 -6916 0
-6932 0
-6933 6858 0
-6933 35 0
6933 -6858 -35 0
-6934 6860 0
-6934 36 0
6934 -6860 -36 0
-6935 6862 0
-6935 36 0
6935 -6862 -36 0
-6936 6860 0
-6936 41 0
6936 -6860 -41 0
-6937 6858 0
-6937 45 0
6937 -6858 -45 0
-6938 6864 0
-6938 45 0
6938 -6864 -45 0
-6939 6866 0
-6939 83 0
6939 -6866 -83 0
-6940 6868 0
-6940 84 0
6940 -6868 -84 0
-6941 6870 0
-6941 84 0
6941 -6870 -84 0
-6942 6868 0
-6942 89 0
6942 -6868 -89 0
-6943 6866 0
-6943 93 0
6943 -6866 -93 0
-6944 6872 0
-6944 93 0
6944 -6872 -93 0
-6945 6874 0
-6945 131 0
6945 -6874 -131 0
-6946 6876 0
-6946 131 0
6946 -6876 -131 0
-6947 6878 0
-6947 137 0
6947 -6878 -137 0
-6948 6880 0
-6948 137 0
6948 -6880 -137 0
-6949 6882 0
-6949 179 0
6949 -6882 -179 0
-6950 6933 6934 0
-6950 -6933 -6934 0
6950 -6933 6934 0
6950 6933 -6934 0
-6951 6950 6935 0
-6951 -6950 -6935 0
6951 -6950 6935 0
6951 6950 -6935 0
-6952 6951 6936 0
-6952 -6951 -6936 0
6952 -6951 6936 0
6952 6951 -6936 0
-6953 6952 6937 0
-6953 -6952 -6937 0
6953 -6952 6937 0
6953 6952 -6937 0
-6954 6953 6938 0
-6954 -6953 -6938 0
6954 -6953 6938 0
6954 6953 -6938 0
-6955 6954 6939 0
-6955 -6954 -6939 0
6955 -6954 6939 0
6955 6954 -6939 0
-6956 6955 6940 0
-6956 -6955 -6940 0
6956 -6955 6940 0
6956 6955 -6940 0
-6957 6956 6941 0
-6957 -6956 -6941 0
6957 -6956 6941 0
6957 6956 -6941 0
-6958 6957 6942 0
-6958 -6957 -6942 0
6958 -6957 6942 0
6958 6957 -6942 0
-6959 6958 6943 0
-6959 -6958 -6943 0
6959 -6958 6943 0
6959 6958 -6943 0
-6960 6959 6944 0
-6960 -6959 -6944 0
6960 -6959 6944 0
6960 6959 -6944 0
-6961 6960 6945 0
-6961 -6960 -6945 0
6961 -6960 6945 0
6961 6960 -6945 0
-6962 6961 6946 0
-6962 -6961 -6946 0
6962 -6961 6946 0
6962 6961 -6946 0
-6963 6962 6947 0
-6963 -6962 -6947 0
6963 -6962 6947 0
6963 6962 -6947 0
-6964 6963 6948 0
-6964 -6963 -6948 0
6964 -6963 6948 0
6964 6963 -6948 0
-6965 6964 6949 0
-6965 -6964 -6949 0
6965 -6964 6949 0
6965 6964 -6949 0
-6965 0
-6966 6858 0
-6966 36 0
6966 -6858 -36 0
-6967 6860 0
-6967 35 0
6967 -6860 -35 0
-6968 6862 0
-6968 34 0
6968 -6862 -34 0
-6969 6860 0
-6969 45 0
6969 -6860 -45 0
-6970 6858 0
-6970 41 0
6970 -6858 -41 0
-6971 6864 0
-6971 37 0
6971 -6864 -37 0
-6972 6866 0
-6972 84 0
6972 -6866 -84 0
-6973 6868 0
-6973 83 0
6973 -6868 -83 0
-6974 6870 0
-6974 82 0
6974 -6870 -82 0
-6975 6868 0
-6975 93 0
6975 -6868 -93 0
-6976 6866 0
-6976 89 0
6976 -6866 -89 0
-6977 6872 0
-6977 85 0
6977 -6872 -85 0
-6978 6874 0
-6978 132 0
6978 -6874 -132 0
-6979 6876 0
-6979 130 0
6979 -6876 -130 0
-6980 6878 0
-6980 141 0
6980 -6878 -141 0
-6981 6880 0
-6981 133 0
6981 -6880 -133 0
-6982 6882 0
-6982 180 0
6982 -6882 -180 0
-6983 6966 6967 0
-6983 -6966 -6967 0
6983 -6966 6967 0
6983 6966 -6967 0
-6984 6983 6968 0
-6984 -6983 -6968 0
6984 -6983 6968 0
6984 6983 -6968 0
-6985 6984 6969 0
-6985 -6984 -6969 0
6985 -6984 6969 0
6985 6984 -6969 0
-6986 6985 6970 0
-6986 -6985 -6970 0
6986 -6985 6970 0
6986 6985 -6970 0
-6987 6986 6971 0
-6987 -6986 -6971 0
6987 -6986 6971 0
6987 6986 -6971 0
-6988 6987 6972 0
-6988 -6987 -6972 0
6988 -6987 6972 0
6988 6987 -6972 0
-6989 6988 6973 0
-6989 -6988 -6973 0
6989 -6988 6973 0
6989 6988 -6973 0
-6990 6989 6974 0
-6990 -6989 -6974 0
6990 -6989 6974 0
6990 6989 -6974 0
-6991 6990 6975 0
-6991 -6990 -6975 0
6991 -6990 6975 0
6991 6990 -6975 0
-6992 6991 6976 0
-6992 -6991 -6976 0
6992 -6991 6976 0
6992 6991 -6976 0
-6993 6992 6977 0
-6993 -6992 -6977 0
6993 -6992 6977 0
6993 6992 -6977 0
-6994 6993 6978 0
-6994 -6993 -6978 0
6994 -6993 6978 0
6994 6993 -6978 0
-6995 6994 6979 0
-6995 -6994 -6979 0
6995 -6994 6979 0
6995 6994 -6979 0
-6996 6995 6980 0
-6996 -6995 -6980 0
6996 -6995 6980 0
6996 6995 -6980 0
-6997 6996 6981 0
-6997 -6996 -6981 0
6997 -6996 6981 0
6997 6996 -6981 0
-6998 6997 6982 0
-6998 -6997 -6982 0
6998 -6997 6982 0
6998 6997 -6982 0
-6998 0
-6999 6858 0
-6999 38 0
6999 -6858 -38 0
-7000 6860 0
-7000 38 0
7000 -6860 -38 0
-7001 6862 0
-7001 43 0
7001 -6862 -43 0
-7002 6864 0
-7002 43 0
7002 -6864 -43 0
-7003 6866 0
-7003 86 0
7003 -6866 -86 0
-7004 6868 0
-7004 86 0
7004 -6868 -86 0
-7005 6870 0
-7005 91 0
7005 -6870 -91 0
-7006 6872 0
-7006 91 0
7006 -6872 -91 0
-7007 6874 0
-7007 134 0
7007 -6874 -134 0
-7008 6876 0
-7008 144 0
7008 -6876 -144 0
-7009 6878 0
-7009 134 0
7009 -6878 -134 0
-7010 6880 0
-7010 144 0
7010 -6880 -144 0
-7011 6882 0
-7011 182 0
7011 -6882 -182 0
-7012 6999 7000 0
-7012 -6999 -7000 0
7012 -6999 7000 0
7012 6999 -7000 0
-7013 7012 7001 0
-7013 -7012 -7001 0
7013 -7012 7001 0
7013 7012 -7001 0
-7014 7013 7000 0
-7014 -7013 -7000 0
7014 -7013 7000 0
7014 7013 -7000 0
-7015 7014 6999 0
-7015 -7014 -6999 0
7015 -7014 6999 0
7015 7014 -6999 0
-7016 7015 7002 0
-7016 -7015 -7002 0
7016 -7015 7002 0
7016 7015 -7002 0
-7017 7016 7003 0
-7017 -7016 -7003 0
7017 -7016 7003 0
7017 7016 -7003 0
-7018 7017 7004 0
-7018 -7017 -7004 0
7018 -7017 7004 0
7018 7017 -7004 0
-7019 7018 7005 0
-7019 -7018 -7005 0
7019 -7018 7005 0
7019 7018 -7005 0
-7020 7019 7004 0
-7020 -7019 -7004 0
7020 -7019 7004 0
7020 7019 -7004 0
-7021 7020 7003 0
-7021 -7020 -7003 0
7021 -7020 7003 0
7021 7020 -7003 0
-7022 7021 7006 0
-7022 -7021 -7006 0
7022 -7021 7006 0
7022 7021 -7006 0
-7023 7022 7007 0
-7023 -7022 -7007 0
7023 -7022 7007 0
7023 7022 -7007 0
-7024 7023 7008 0
-7024 -7023 -7008 0
7024 -7023 7008 0
7024 7023 -7008 0
-7025 7024 7009 0
-7025 -7024 -7009 0
7025 -7024 7009 0
7025 7024 -7009 0
-7026 7025 7010 0
-7026 -7025 -7010 0
7026 -7025 7010 0
7026 7025 -7010 0
-7027 7026 7011 0
-7027 -7026 -7011 0
7027 -7026 7011 0
7027 7026 -7011 0
-7027 0
-7028 6858 0
-7028 39 0
7028 -6858 -39 0
-7029 6860 0
-7029 40 0
7029 -6860 -40 0
-7030 6862 0
-7030 44 0
7030 -6862 -44 0
-7031 6860 0
-7031 42 0
7031 -6860 -42 0
-7032 6858 0
-7032 46 0
7032 -6858 -46 0
-7033 6864 0
-7033 47 0
7033 -6864 -47 0
-7034 6866 0
-7034 87 0
7034 -6866 -87 0
-7035 6868 0
-7035 88 0
7035 -6868 -88 0
-7036 6870 0
-7036 92 0
7036 -6870 -92 0
-7037 6868 0
-7037 90 0
7037 -6868 -90 0
-7038 6866 0
-7038 94 0
7038 -6866 -94 0
-7039 6872 0
-7039 95 0
7039 -6872 -95 0
-7040 6874 0
-7040 135 0
7040 -6874 -135 0
-7041 6876 0
-7041 143 0
7041 -6876 -143 0
-7042 6878 0
-7042 138 0
7042 -6878 -138 0
-7043 6880 0
-7043 140 0
7043 -6880 -140 0
-7044 6882 0
-7044 183 0
7044 -6882 -183 0
-7045 7028 7029 0
-7045 -7028 -7029 0
7045 -7028 7029 0
7045 7028 -7029 0
-7046 7045 7030 0
-7046 -7045 -7030 0
7046 -7045 7030 0
7046 7045 -7030 0
-7047 7046 7031 0
-7047 -7046 -7031 0
7047 -7046 7031 0
7047 7046 -7031 0
-7048 7047 7032 0
-7048 -7047 -7032 0
7048 -7047 7032 0
7048 7047 -7032 0
-7049 7048 7033 0
-7049 -7048 -7033 0
7049 -7048 7033 0
7049 7048 -7033 0
-7050 7049 7034 0
-7050 -7049 -7034 0
7050 -7049 7034 0
7050 7049 -7034 0
-7051 7050 7035 0
-7051 -7050 -7035 0
7051 -7050 7035 0
7051 7050 -7035 0
-7052 7051 7036 0
-7052 -7051 -7036 0
7052 -7051 7036 0
7052 7051 -7036 0
-7053 7052 7037 0
-7053 -7052 -7037 0
7053 -7052 7037 0
7053 7052 -7037 0
-7054 7053 7038 0
-7054 -7053 -7038 0
7054 -7053 7038 0
7054 7053 -7038 0
-7055 7054 7039 0
-7055 -7054 -7039 0
7055 -7054 7039 0
7055 7054 -7039 0
-7056 7055 7040 0
-7056 -7055 -7040 0
7056 -7055 7040 0
7056 7055 -7040 0
-7057 7056 7041 0
-7057 -7056 -7041 0
7057 -7056 7041 0
7057 7056 -7041 0
-7058 7057 7042 0
-7058 -7057 -7042 0
7058 -7057 7042 0
7058 7057 -7042 0
-7059 7058 7043 0
-7059 -7058 -7043 0
7059 -7058 7043 0
7059 7058 -7043 0
-7060 7059 7044 0
-7060 -7059 -7044 0
7060 -7059 7044 0
7060 7059 -7044 0
-7060 0
-7061 6858 0
-7061 40 0
7061 -6858 -40 0
-7062 6860 0
-7062 39 0
7062 -6860 -39 0
-7063 6862 0
-7063 42 0
7063 -6862 -42 0
-7064 6860 0
-7064 46 0
7064 -6860 -46 0
-7065 6858 0
-7065 42 0
7065 -6858 -42 0
-7066 6864 0
-7066 39 0
7066 -6864 -39 0
-7067 6866 0
-7067 88 0
7067 -6866 -88 0
-7068 6868 0
-7068 87 0
7068 -6868 -87 0
-7069 6870 0
-7069 90 0
7069 -6870 -90 0
-7070 6868 0
-7070 94 0
7070 -6868 -94 0
-7071 6866 0
-7071 90 0
7071 -6866 -90 0
-7072 6872 0
-7072 87 0
7072 -6872 -87 0
-7073 6874 0
-7073 136 0
7073 -6874 -136 0
-7074 6876 0
-7074 142 0
7074 -6876 -142 0
-7075 6878 0
-7075 142 0
7075 -6878 -142 0
-7076 6880 0
-7076 136 0
7076 -6880 -136 0
-7077 6882 0
-7077 184 0
7077 -6882 -184 0
-7078 7061 7062 0
-7078 -7061 -7062 0
7078 -7061 7062 0
7078 7061 -7062 0
-7079 7078 7063 0
-7079 -7078 -7063 0
7079 -7078 7063 0
7079 7078 -7063 0
-7080 7079 7064 0
-7080 -7079 -7064 0
7080 -7079 7064 0
7080 7079 -7064 0
-7081 7080 7065 0
-7081 -7080 -7065 0
7081 -7080 7065 0
7081 7080 -7065 0
-7082 7081 7066 0
-7082 -7081 -7066 0
7082 -7081 7066 0
7082 7081 -7066 0
-7083 7082 7067 0
-7083 -7082 -7067 0
7083 -7082 7067 0
7083 7082 -7067 0
-7084 7083 7068 0
-7084 -7083 -7068 0
7084 -7083 7068 0
7084 7083 -7068 0
-7085 7084 7069 0
-7085 -7084 -7069 0
7085 -7084 7069 0
7085 7084 -7069 0
-7086 7085 7070 0
-7086 -7085 -7070 0
7086 -7085 7070 0
7086 7085 -7070 0
-7087 7086 7071 0
-7087 -7086 -7071 0
7087 -7086 7071 0
7087 7086 -7071 0
-7088 7087 7072 0
-7088 -7087 -7072 0
7088 -7087 7072 0
7088 7087 -7072 0
-7089 7088 7073 0
-7089 -7088 -7073 0
7089 -7088 7073 0
7089 7088 -7073 0
-7090 7089 7074 0
-7090 -7089 -7074 0
7090 -7089 7074 0
7090 7089 -7074 0
-7091 7090 7075 0
-7091 -7090 -7075 0
7091 -7090 7075 0
7091 7090 -7075 0
-7092 7091 7076 0
-7092 -7091 -7076 0
7092 -7091 7076 0
7092 7091 -7076 0
-7093 7092 7077 0
-7093 -7092 -7077 0
7093 -7092 7077 0
7093 7092 -7077 0
-7093 0
-7094 6858 0
-7094 43 0
7094 -6858 -43 0
-7095 6860 0
-7095 48 0
7095 -6860 -48 0
-7096 6862 0
-7096 48 0
7096 -6862 -48 0
-7097 6860 0
-7097 43 0
7097 -6860 -43 0
-7098 6858 0
-7098 48 0
7098 -6858 -48 0
-7099 6864 0
-7099 48 0
7099 -6864 -48 0
-7100 6866 0
-7100 91 0
7100 -6866 -91 0
-7101 6868 0
-7101 96 0
7101 -6868 -96 0
-7102 6870 0
-7102 96 0
7102 -6870 -96 0
-7103 6868 0
-7103 91 0
7103 -6868 -91 0
-7104 6866 0
-7104 96 0
7104 -6866 -96 0
-7105 6872 0
-7105 96 0
7105 -6872 -96 0
-7106 6874 0
-7106 139 0
7106 -6874 -139 0
-7107 6876 0
-7107 139 0
7107 -6876 -139 0
-7108 6878 0
-7108 139 0
7108 -6878 -139 0
-7109 6880 0
-7109 139 0
7109 -6880 -139 0
-7110 6882 0
-7110 187 0
7110 -6882 -187 0
-7111 7094 7095 0
-7111 -7094 -7095 0
7111 -7094 7095 0
7111 7094 -7095 0
-7112 7111 7096 0
-7112 -7111 -7096 0
7112 -7111 7096 0
7112 7111 -7096 0
-7113 7112 7097 0
-7113 -7112 -7097 0
7113 -7112 7097 0
7113 7112 -7097 0
-7114 7113 7098 0
-7114 -7113 -7098 0
7114 -7113 7098 0
7114 7113 -7098 0
-7115 7114 7099 0
-7115 -7114 -7099 0
7115 -7114 7099 0
7115 7114 -7099 0
-7116 7115 7100 0
-7116 -7115 -7100 0
7116 -7115 7100 0
7116 7115 -7100 0
-7117 7116 7101 0
-7117 -7116 -7101 0
7117 -7116 7101 0
7117 7116 -7101 0
-7118 7117 7102 0
-7118 -7117 -7102 0
7118 -7117 7102 0
7118 7117 -7102 0
-7119 7118 7103 0
-7119 -7118 -7103 0
7119 -7118 7103 0
7119 7118 -7103 0
-7120 7119 7104 0
-7120 -7119 -7104 0
7120 -7119 7104 0
7120 7119 -7104 0
-7121 7120 7105 0
-7121 -7120 -7105 0
7121 -7120 7105 0
7121 7120 -7105 0
-7122 7121 7106 0
-7122 -7121 -7106 0
7122 -7121 7106 0
7122 7121 -7106 0
-7123 7122 7107 0
-7123 -7122 -7107 0
7123 -7122 7107 0
7123 7122 -7107 0
-7124 7123 7108 0
-7124 -7123 -7108 0
7124 -7123 7108 0
7124 7123 -7108 0
-7125 7124 7109 0
-7125 -7124 -7109 0
7125 -7124 7109 0
7125 7124 -7109 0
-7126 7125 7110 0
-7126 -7125 -7110 0
7126 -7125 7110 0
7126 7125 -7110 0
-7126 0
-7127 6858 0
-7127 44 0
7127 -6858 -44 0
-7128 6860 0
-7128 47 0
7128 -6860 -47 0
-7129 6862 0
-7129 46 0
7129 -6862 -46 0
-7130 6864 0
-7130 40 0
7130 -6864 -40 0
-7131 6866 0
-7131 92 0
7131 -6866 -92 0
-7132 6868 0
-7132 95 0
7132 -6868 -95 0
-7133 6870 0
-7133 94 0
7133 -6870 -94 0
-7134 6872 0
-7134 88 0
7134 -6872 -88 0
-7135 6874 0
-7135 140 0
7135 -6874 -140 0
-7136 6876 0
-7136 138 0
7136 -6876 -138 0
-7137 6878 0
-7137 143 0
7137 -6878 -143 0
-7138 6880 0
-7138 135 0
7138 -6880 -135 0
-7139 6882 0
-7139 188 0
7139 -6882 -188 0
-7140 7127 7128 0
-7140 -7127 -7128 0
7140 -7127 7128 0
7140 7127 -7128 0
-7141 7140 7129 0
-7141 -7140 -7129 0
7141 -7140 7129 0
7141 7140 -7129 0
-7142 7141 7128 0
-7142 -7141 -7128 0
7142 -7141 7128 0
7142 7141 -7128 0
-7143 7142 7127 0
-7143 -7142 -7127 0
7143 -7142 7127 0
7143 7142 -7127 0
-7144 7143 7130 0
-7144 -7143 -7130 0
7144 -7143 7130 0
7144 7143 -7130 0
-7145 7144 7131 0
-7145 -7144 -7131 0
7145 -7144 7131 0
7145 7144 -7131 0
-7146 7145 7132 0
-7146 -7145 -7132 0
7146 -7145 7132 0
7146 7145 -7132 0
-7147 7146 7133 0
-7147 -7146 -7133 0
7147 -7146 7133 0
7147 7146 -7133 0
-7148 7147 7132 0
-7148 -7147 -7132 0
7148 -7147 7132 0
7148 7147 -7132 0
-7149 7148 7131 0
-7149 -7148 -7131 0
7149 -7148 7131 0
7149 7148 -7131 0
-7150 7149 7134 0
-7150 -7149 -7134 0
7150 -7149 7134 0
7150 7149 -7134 0
-7151 7150 7135 0
-7151 -7150 -7135 0
7151 -7150 7135 0
7151 7150 -7135 0
-7152 7151 7136 0
-7152 -7151 -7136 0
7152 -7151 7136 0
7152 7151 -7136 0
-7153 7152 7137 0
-7153 -7152 -7137 0
7153 -7152 7137 0
7153 7152 -7137 0
-7154 7153 7138 0
-7154 -7153 -7138 0
7154 -7153 7138 0
7154 7153 -7138 0
-7155 7154 7139 0
-7155 -7154 -7139 0
7155 -7154 7139 0
7155 7154 -7139 0
-7155 0
-7156 6858 0
-7156 47 0
7156 -6858 -47 0
-7157 6860 0
-7157 44 0
7157 -6860 -44 0
-7158 6862 0
-7158 40 0
7158 -6862 -40 0
-7159 6864 0
-7159 46 0
7159 -6864 -46 0
-7160 6866 0
-7160 95 0
7160 -6866 -95 0
-7161 6868 0
-7161 92 0
7161 -6868 -92 0
-7162 6870 0
-7162 88 0
7162 -6870 -88 0
-7163 6872 0
-7163 94 0
7163 -6872 -94 0
-7164 6874 0
-7164 143 0
7164 -6874 -143 0
-7165 6876 0
-7165 135 0
7165 -6876 -135 0
-7166 6878 0
-7166 140 0
7166 -6878 -140 0
-7167 6880 0
-7167 138 0
7167 -6880 -138 0
-7168 6882 0
-7168 191 0
7168 -6882 -191 0
-7169 7156 7157 0
-7169 -7156 -7157 0
7169 -7156 7157 0
7169 7156 -7157 0
-7170 7169 7158 0
-7170 -7169 -7158 0
7170 -7169 7158 0
7170 7169 -7158 0
-7171 7170 7157 0
-7171 -7170 -7157 0
7171 -7170 7157 0
7171 7170 -7157 0
-7172 7171 7156 0
-7172 -7171 -7156 0
7172 -7171 7156 0
7172 7171 -7156 0
-7173 7172 7159 0
-7173 -7172 -7159 0
7173 -7172 7159 0
7173 7172 -7159 0
-7174 7173 7160 0
-7174 -7173 -7160 0
7174 -7173 7160 0
7174 7173 -7160 0
-7175 7174 7161 0
-7175 -7174 -7161 0
7175 -7174 7161 0
7175 7174 -7161 0
-7176 7175 7162 0
-7176 -7175 -7162 0
7176 -7175 7162 0
7176 7175 -7162 0
-7177 7176 7161 0
-7177 -7176 -7161 0
7177 -7176 7161 0
7177 7176 -7161 0
-7178 7177 7160 0
-7178 -7177 -7160 0
7178 -7177 7160 0
7178 7177 -7160 0
-7179 7178 7163 0
-7179 -7178 -7163 0
7179 -7178 7163 0
7179 7178 -7163 0
-7180 7179 7164 0
-7180 -7179 -7164 0
7180 -7179 7164 0
7180 7179 -7164 0
-7181 7180 7165 0
-7181 -7180 -7165 0
7181 -7180 7165 0
7181 7180 -7165 0
-7182 7181 7166 0
-7182 -7181 -7166 0
7182 -7181 7166 0
7182 7181 -7166 0
-7183 7182 7167 0
-7183 -7182 -7167 0
7183 -7182 7167 0
7183 7182 -7167 0
-7184 7183 7168 0
-7184 -7183 -7168 0
7184 -7183 7168 0
7184 7183 -7168 0
-7184 0
-7185 5 0
-7185 23 0
7185 -5 -23 0
-7186 7185 0
-7186 33 0
7186 -7185 -33 0
-7187 6 0
-7187 20 0
7187 -6 -20 0
-7188 7187 0
-7188 33 0
7188 -7187 -33 0
-7189 10 0
-7189 28 0
7189 -10 -28 0
-7190 7189 0
-7190 33 0
7190 -7189 -33 0
-7191 18 0
-7191 10 0
7191 -18 -10 0
-7192 7191 0
-7192 33 0
7192 -7191 -33 0
-7193 22 0
-7193 13 0
7193 -22 -13 0
-7194 7193 0
-7194 33 0
7194 -7193 -33 0
-7195 23 0
-7195 15 0
7195 -23 -15 0
-7196 7195 0
-7196 33 0
7196 -7195 -33 0
-7197 53 0
-7197 71 0
7197 -53 -71 0
-7198 7197 0
-7198 81 0
7198 -7197 -81 0
-7199 54 0
-7199 68 0
7199 -54 -68 0
-7200 7199 0
-7200 81 0
7200 -7199 -81 0
-7201 58 0
-7201 76 0
7201 -58 -76 0
-7202 7201 0
-7202 81 0
7202 -7201 -81 0
-7203 66 0
-7203 58 0
7203 -66 -58 0
-7204 7203 0
-7204 81 0
7204 -7203 -81 0
-7205 70 0
-7205 61 0
7205 -70 -61 0
-7206 7205 0
-7206 81 0
7206 -7205 -81 0
-7207 71 0
-7207 63 0
7207 -71 -63 0
-7208 7207 0
-7208 81 0
7208 -7207 -81 0
-7209 101 0
-7209 119 0
7209 -101 -119 0
-7210 7209 0
-7210 129 0
7210 -7209 -129 0
-7211 109 0
-7211 123 0
7211 -109 -123 0
-7212 7211 0
-7212 129 0
7212 -7211 -129 0
-7213 114 0
-7213 106 0
7213 -114 -106 0
-7214 7213 0
-7214 129 0
7214 -7213 -129 0
-7215 116 0
-7215 107 0
7215 -116 -107 0
-7216 7215 0
-7216 129 0
7216 -7215 -129 0
-7217 149 0
-7217 167 0
7217 -149 -167 0
-7218 7217 0
-7218 177 0
7218 -7217 -177 0
-7219 7186 7188 0
-7219 -7186 -7188 0
7219 -7186 7188 0
7219 7186 -7188 0
-7220 7219 7190 0
-7220 -7219 -7190 0
7220 -7219 7190 0
7220 7219 -7190 0
-7221 7220 7192 0
-7221 -7220 -7192 0
7221 -7220 7192 0
7221 7220 -7192 0
-7222 7221 7194 0
-7222 -7221 -7194 0
7222 -7221 7194 0
7222 7221 -7194 0
-7223 7222 7196 0
-7223 -7222 -7196 0
7223 -7222 7196 0
7223 7222 -7196 0
-7224 7223 7198 0
-7224 -7223 -7198 0
7224 -7223 7198 0
7224 7223 -7198 0
-7225 7224 7200 0
-7225 -7224 -7200 0
7225 -7224 7200 0
7225 7224 -7200 0
-7226 7225 7202 0
-7226 -7225 -7202 0
7226 -7225 7202 0
7226 7225 -7202 0
-7227 7226 7204 0
-7227 -7226 -7204 0
7227 -7226 7204 0
7227 7226 -7204 0
-7228 7227 7206 0
-7228 -7227 -7206 0
7228 -7227 7206 0
7228 7227 -7206 0
-7229 7228 7208 0
-7229 -7228 -7208 0
7229 -7228 7208 0
7229 7228 -7208 0
-7230 7229 7210 0
-7230 -7229 -7210 0
7230 -7229 7210 0
7230 7229 -7210 0
-7231 7230 7212 0
-7231 -7230 -7212 0
7231 -7230 7212 0
7231 7230 -7212 0
-7232 7231 7214 0
-7232 -7231 -7214 0
7232 -7231 7214 0
7232 7231 -7214 0
-7233 7232 7216 0
-7233 -7232 -7216 0
7233 -7232 7216 0
7233 7232 -7216 0
-7234 7233 7218 0
-7234 -7233 -7218 0
7234 -7233 7218 0
7234 7233 -7218 0
-7234 0
-7235 7185 0
-7235 34 0
7235 -7185 -34 0
-7236 7187 0
-7236 34 0
7236 -7187 -34 0
-7237 7189 0
-7237 35 0
7237 -7189 -35 0
-7238 7191 0
-7238 37 0
7238 -7191 -37 0
-7239 7193 0
-7239 37 0
7239 -7193 -37 0
-7240 7195 0
-7240 41 0
7240 -7195 -41 0
-7241 7197 0
-7241 82 0
7241 -7197 -82 0
-7242 7199 0
-7242 82 0
7242 -7199 -82 0
-7243 7201 0
-7243 83 0
7243 -7201 -83 0
-7244 7203 0
-7244 85 0
7244 -7203 -85 0
-7245 7205 0
-7245 85 0
7245 -7205 -85 0
-7246 7207 0
-7246 89 0
7246 -7207 -89 0
-7247 7209 0
-7247 130 0
7247 -7209 -130 0
-7248 7211 0
-7248 132 0
7248 -7211 -132 0
-7249 7213 0
-7249 133 0
7249 -7213 -133 0
-7250 7215 0
-7250 141 0
7250 -7215 -141 0
-7251 7217 0
-7251 178 0
7251 -7217 -178 0
-7252 7235 7236 0
-7252 -7235 -7236 0
7252 -7235 7236 0
7252 7235 -7236 0
-7253 7252 7237 0
-7253 -7252 -7237 0
7253 -7252 7237 0
7253 7252 -7237 0
-7254 7253 7238 0
-7254 -7253 -7238 0
7254 -7253 7238 0
7254 7253 -7238 0
-7255 7254 7239 0
-7255 -7254 -7239 0
7255 -7254 7239 0
7255 7254 -7239 0
-7256 7255 7240 0
-7256 -7255 -7240 0
7256 -7255 7240 0
7256 7255 -7240 0
-7257 7256 7241 0
-7257 -7256 -7241 0
7257 -7256 7241 0
7257 7256 -7241 0
-7258 7257 7242 0
-7258 -7257 -7242 0
7258 -7257 7242 0
7258 7257 -7242 0
-7259 7258 7243 0
-7259 -7258 -7243 0
7259 -7258 7243 0
7259 7258 -7243 0
-7260 7259 7244 0
-7260 -7259 -7244 0
7260 -7259 7244 0
7260 7259 -7244 0
-7261 7260 7245 0
-7261 -7260 -7245 0
7261 -7260 7245 0
7261 7260 -7245 0
-7262 7261 7246 0
-7262 -7261 -7246 0
7262 -7261 7246 0
7262 7261 -7246 0
-7263 7262 7247 0
-7263 -7262 -7247 0
7263 -7262 7247 0
7263 7262 -7247 0
-7264 7263 7248 0
-7264 -7263 -7248 0
7264 -7263 7248 0
7264 7263 -7248 0
-7265 7264 7249 0
-7265 -7264 -7249 0
7265 -7264 7249 0
7265 7264 -7249 0
-7266 7265 7250 0
-7266 -7265 -7250 0
7266 -7265 7250 0
7266 7265 -7250 0
-7267 7266 7251 0
-7267 -7266 -7251 0
7267 -7266 7251 0
7267 7266 -7251 0
-7267 0
-7268 7185 0
-7268 35 0
7268 -7185 -35 0
-7269 7187 0
-7269 36 0
7269 -7187 -36 0
-7270 7189 0
-7270 36 0
7270 -7189 -36 0
-7271 7191 0
-7271 41 0
7271 -7191 -41 0
-7272 7193 0
-7272 45 0
7272 -7193 -45 0
-7273 7195 0
-7273 45 0
7273 -7195 -45 0
-7274 7197 0
-7274 83 0
7274 -7197 -83 0
-7275 7199 0
-7275 84 0
7275 -7199 -84 0
-7276 7201 0
-7276 84 0
7276 -7201 -84 0
-7277 7203 0
-7277 89 0
7277 -7203 -89 0
-7278 7205 0
-7278 93 0
7278 -7205 -93 0
-7279 7207 0
-7279 93 0
7279 -7207 -93 0
-7280 7209 0
-7280 131 0
7280 -7209 -131 0
-7281 7211 0
-7281 131 0
7281 -7211 -131 0
-7282 7213 0
-7282 137 0
7282 -7213 -137 0
-7283 7215 0
-7283 137 0
7283 -7215 -137 0
-7284 7217 0
-7284 179 0
7284 -7217 -179 0
-7285 7268 7269 0
-7285 -7268 -7269 0
7285 -7268 7269 0
7285 7268 -7269 0
-7286 7285 7270 0
-7286 -7285 -7270 0
7286 -7285 7270 0
7286 7285 -7270 0
-7287 7286 7271 0
-7287 -7286 -7271 0
7287 -7286 7271 0
7287 7286 -7271 0
-7288 7287 7272 0
-7288 -7287 -7272 0
7288 -7287 7272 0
7288 7287 -7272 0
-7289 7288 7273 0
-7289 -7288 -7273 0
7289 -7288 7273 0
7289 7288 -7273 0
-7290 7289 7274 0
-7290 -7289 -7274 0
7290 -7289 7274 0
7290 7289 -7274 0
-7291 7290 7275 0
-7291 -7290 -7275 0
7291 -7290 7275 0
7291 7290 -7275 0
-7292 7291 7276 0
-7292 -7291 -7276 0
7292 -7291 7276 0
7292 7291 -7276 0
-7293 7292 7277 0
-7293 -7292 -7277 0
7293 -7292 7277 0
7293 7292 -7277 0
-7294 7293 7278 0
-7294 -7293 -7278 0
7294 -7293 7278 0
7294 7293 -7278 0
-7295 7294 7279 0
-7295 -7294 -7279 0
7295 -7294 7279 0
7295 7294 -7279 0
-7296 7295 7280 0
-7296 -7295 -7280 0
7296 -7295 7280 0
7296 7295 -7280 0
-7297 7296 7281 0
-7297 -7296 -7281 0
7297 -7296 7281 0
7297 7296 -7281 0
-7298 7297 7282 0
-7298 -7297 -7282 0
7298 -7297 7282 0
7298 7297 -7282 0
-7299 7298 7283 0
-7299 -7298 -7283 0
7299 -7298 7283 0
7299 7298 -7283 0
-7300 7299 7284 0
-7300 -7299 -7284 0
7300 -7299 7284 0
7300 7299 -7284 0
-7300 0
-7301 7185 0
-7301 36 0
7301 -7185 -36 0
-7302 7187 0
-7302 35 0
7302 -7187 -35 0
-7303 7189 0
-7303 34 0
7303 -7189 -34 0
-7304 7191 0
-7304 45 0
7304 -7191 -45 0
-7305 7193 0
-7305 41 0
7305 -7193 -41 0
-7306 7195 0
-7306 37 0
7306 -7195 -37 0
-7307 7197 0
-7307 84 0
7307 -7197 -84 0
-7308 7199 0
-7308 83 0
7308 -7199 -83 0
-7309 7201 0
-7309 82 0
7309 -7201 -82 0
-7310 7203 0
-7310 93 0
7310 -7203 -93 0
-7311 7205 0
-7311 89 0
7311 -7205 -89 0
-7312 7207 0
-7312 85 0
7312 -7207 -85 0
-7313 7209 0
-7313 132 0
7313 -7209 -132 0
-7314 7211 0
-7314 130 0
7314 -7211 -130 0
-7315 7213 0
-7315 141 0
7315 -7213 -141 0
-7316 7215 0
-7316 133 0
7316 -7215 -133 0
-7317 7217 0
-7317 180 0
7317 -7217 -180 0
-7318 7301 7302 0
-7318 -7301 -7302 0
7318 -7301 7302 0
7318 7301 -7302 0
-7319 7318 7303 0
-7319 -7318 -7303 0
7319 -7318 7303 0
7319 7318 -7303 0
-7320 7319 7304 0
-7320 -7319 -7304 0
7320 -7319 7304 0
7320 7319 -7304 0
-7321 7320 7305 0
-7321 -7320 -7305 0
7321 -7320 7305 0
7321 7320 -7305 0
-7322 7321 7306 0
-7322 -7321 -7306 0
7322 -7321 7306 0
7322 7321 -7306 0
-7323 7322 7307 0
-7323 -7322 -7307 0
7323 -7322 7307 0
7323 7322 -7307 0
-7324 7323 7308 0
-7324 -7323 -7308 0
7324 -7323 7308 0
7324 7323 -7308 0
-7325 7324 7309 0
-7325 -7324 -7309 0
7325 -7324 7309 0
7325 7324 -7309 0
-7326 7325 7310 0
-7326 -7325 -7310 0
7326 -7325 7310 0
7326 7325 -7310 0
-7327 7326 7311 0
-7327 -7326 -7311 0
7327 -7326 7311 0
7327 7326 -7311 0
-7328 7327 7312 0
-7328 -7327 -7312 0
7328 -7327 7312 0
7328 7327 -7312 0
-7329 7328 7313 0
-7329 -7328 -7313 0
7329 -7328 7313 0
7329 7328 -7313 0
-7330 7329 7314 0
-7330 -7329 -7314 0
7330 -7329 7314 0
7330 7329 -7314 0
-7331 7330 7315 0
-7331 -7330 -7315 0
7331 -7330 7315 0
7331 7330 -7315 0
-7332 7331 7316 0
-7332 -7331 -7316 0
7332 -7331 7316 0
7332 7331 -7316 0
-7333 7332 7317 0
-7333 -7332 -7317 0
7333 -7332 7317 0
7333 7332 -7317 0
-7333 0
-7334 7185 0
-7334 37 0
7334 -7185 -37 0
-7335 7187 0
-7335 37 0
7335 -7187 -37 0
-7336 7189 0
-7336 41 0
7336 -7189 -41 0
-7337 7191 0
-7337 34 0
7337 -7191 -34 0
-7338 7193 0
-7338 34 0
7338 -7193 -34 0
-7339 7195 0
-7339 35 0
7339 -7195 -35 0
-7340 7197 0
-7340 85 0
7340 -7197 -85 0
-7341 7199 0
-7341 85 0
7341 -7199 -85 0
-7342 7201 0
-7342 89 0
7342 -7201 -89 0
-7343 7203 0
-7343 82 0
7343 -7203 -82 0
-7344 7205 0
-7344 82 0
7344 -7205 -82 0
-7345 7207 0
-7345 83 0
7345 -7207 -83 0
-7346 7209 0
-7346 133 0
7346 -7209 -133 0
-7347 7211 0
-7347 141 0
7347 -7211 -141 0
-7348 7213 0
-7348 130 0
7348 -7213 -130 0
-7349 7215 0
-7349 132 0
7349 -7215 -132 0
-7350 7217 0
-7350 181 0
7350 -7217 -181 0
-7351 7334 7335 0
-7351 -7334 -7335 0
7351 -7334 7335 0
7351 7334 -7335 0
-7352 7351 7336 0
-7352 -7351 -7336 0
7352 -7351 7336 0
7352 7351 -7336 0
-7353 7352 7337 0
-7353 -7352 -7337 0
7353 -7352 7337 0
7353 7352 -7337 0
-7354 7353 7338 0
-7354 -7353 -7338 0
7354 -7353 7338 0
7354 7353 -7338 0
-7355 7354 7339 0
-7355 -7354 -7339 0
7355 -7354 7339 0
7355 7354 -7339 0
-7356 7355 7340 0
-7356 -7355 -7340 0
7356 -7355 7340 0
7356 7355 -7340 0
-7357 7356 7341 0
-7357 -7356 -7341 0
7357 -7356 7341 0
7357 7356 -7341 0
-7358 7357 7342 0
-7358 -7357 -7342 0
7358 -7357 7342 0
7358 7357 -7342 0
-7359 7358 7343 0
-7359 -7358 -7343 0
7359 -7358 7343 0
7359 7358 -7343 0
-7360 7359 7344 0
-7360 -7359 -7344 0
7360 -7359 7344 0
7360 7359 -7344 0
-7361 7360 7345 0
-7361 -7360 -7345 0
7361 -7360 7345 0
7361 7360 -7345 0
-7362 7361 7346 0
-7362 -7361 -7346 0
7362 -7361 7346 0
7362 7361 -7346 0
-7363 7362 7347 0
-7363 -7362 -7347 0
7363 -7362 7347 0
7363 7362 -7347 0
-7364 7363 7348 0
-7364 -7363 -7348 0
7364 -7363 7348 0
7364 7363 -7348 0
-7365 7364 7349 0
-7365 -7364 -7349 0
7365 -7364 7349 0
7365 7364 -7349 0
-7366 7365 7350 0
-7366 -7365 -7350 0
7366 -7365 7350 0
7366 7365 -7350 0
-7366 0
-7367 7185 0
-7367 38 0
7367 -7185 -38 0
-7368 7187 0
-7368 38 0
7368 -7187 -38 0
-7369 7189 0
-7369 43 0
7369 -7189 -43 0
-7370 7191 0
-7370 38 0
7370 -7191 -38 0
-7371 7193 0
-7371 38 0
7371 -7193 -38 0
-7372 7195 0
-7372 43 0
7372 -7195 -43 0
-7373 7197 0
-7373 86 0
7373 -7197 -86 0
-7374 7199 0
-7374 86 0
7374 -7199 -86 0
-7375 7201 0
-7375 91 0
7375 -7201 -91 0
-7376 7203 0
-7376 86 0
7376 -7203 -86 0
-7377 7205 0
-7377 86 0
7377 -7205 -86 0
-7378 7207 0
-7378 91 0
7378 -7207 -91 0
-7379 7209 0
-7379 134 0
7379 -7209 -134 0
-7380 7211 0
-7380 144 0
7380 -7211 -144 0
-7381 7213 0
-7381 134 0
7381 -7213 -134 0
-7382 7215 0
-7382 144 0
7382 -7215 -144 0
-7383 7217 0
-7383 182 0
7383 -7217 -182 0
-7384 7367 7368 0
-7384 -7367 -7368 0
7384 -7367 7368 0
7384 7367 -7368 0
-7385 7384 7369 0
-7385 -7384 -7369 0
7385 -7384 7369 0
7385 7384 -7369 0
-7386 7385 7370 0
-7386 -7385 -7370 0
7386 -7385 7370 0
7386 7385 -7370 0
-7387 7386 7371 0
-7387 -7386 -7371 0
7387 -7386 7371 0
7387 7386 -7371 0
-7388 7387 7372 0
-7388 -7387 -7372 0
7388 -7387 7372 0
7388 7387 -7372 0
-7389 7388 7373 0
-7389 -7388 -7373 0
7389 -7388 7373 0
7389 7388 -7373 0
-7390 7389 7374 0
-7390 -7389 -7374 0
7390 -7389 7374 0
7390 7389 -7374 0
-7391 7390 7375 0
-7391 -7390 -7375 0
7391 -7390 7375 0
7391 7390 -7375 0
-7392 7391 7376 0
-7392 -7391 -7376 0
7392 -7391 7376 0
7392 7391 -7376 0
-7393 7392 7377 0
-7393 -7392 -7377 0
7393 -7392 7377 0
7393 7392 -7377 0
-7394 7393 7378 0
-7394 -7393 -7378 0
7394 -7393 7378 0
7394 7393 -7378 0
-7395 7394 7379 0
-7395 -7394 -7379 0
7395 -7394 7379 0
7395 7394 -7379 0
-7396 7395 7380 0
-7396 -7395 -7380 0
7396 -7395 7380 0
7396 7395 -7380 0
-7397 7396 7381 0
-7397 -7396 -7381 0
7397 -7396 7381 0
7397 7396 -7381 0
-7398 7397 7382 0
-7398 -7397 -7382 0
7398 -7397 7382 0
7398 7397 -7382 0
-7399 7398 7383 0
-7399 -7398 -7383 0
7399 -7398 7383 0
7399 7398 -7383 0
-7399 0
-7400 7185 0
-7400 39 0
7400 -7185 -39 0
-7401 7187 0
-7401 40 0
7401 -7187 -40 0
-7402 7189 0
-7402 44 0
7402 -7189 -44 0
-7403 7191 0
-7403 42 0
7403 -7191 -42 0
-7404 7193 0
-7404 46 0
7404 -7193 -46 0
-7405 7195 0
-7405 47 0
7405 -7195 -47 0
-7406 7197 0
-7406 87 0
7406 -7197 -87 0
-7407 7199 0
-7407 88 0
7407 -7199 -88 0
-7408 7201 0
-7408 92 0
7408 -7201 -92 0
-7409 7203 0
-7409 90 0
7409 -7203 -90 0
-7410 7205 0
-7410 94 0
7410 -7205 -94 0
-7411 7207 0
-7411 95 0
7411 -7207 -95 0
-7412 7209 0
-7412 135 0
7412 -7209 -135 0
-7413 7211 0
-7413 143 0
7413 -7211 -143 0
-7414 7213 0
-7414 138 0
7414 -7213 -138 0
-7415 7215 0
-7415 140 0
7415 -7215 -140 0
-7416 7217 0
-7416 183 0
7416 -7217 -183 0
-7417 7400 7401 0
-7417 -7400 -7401 0
7417 -7400 7401 0
7417 7400 -7401 0
-7418 7417 7402 0
-7418 -7417 -7402 0
7418 -7417 7402 0
7418 7417 -7402 0
-7419 7418 7403 0
-7419 -7418 -7403 0
7419 -7418 7403 0
7419 7418 -7403 0
-7420 7419 7404 0
-7420 -7419 -7404 0
7420 -7419 7404 0
7420 7419 -7404 0
-7421 7420 7405 0
-7421 -7420 -7405 0
7421 -7420 7405 0
7421 7420 -7405 0
-7422 7421 7406 0
-7422 -7421 -7406 0
7422 -7421 7406 0
7422 7421 -7406 0
-7423 7422 7407 0
-7423 -7422 -7407 0
7423 -7422 7407 0
7423 7422 -7407 0
-7424 7423 7408 0
-7424 -7423 -7408 0
7424 -7423 7408 0
7424 7423 -7408 0
-7425 7424 7409 0
-7425 -7424 -7409 0
7425 -7424 7409 0
7425 7424 -7409 0
-7426 7425 7410 0
-7426 -7425 -7410 0
7426 -7425 7410 0
7426 7425 -7410 0
-7427 7426 7411 0
-7427 -7426 -7411 0
7427 -7426 7411 0
7427 7426 -7411 0
-7428 7427 7412 0
-7428 -7427 -7412 0
7428 -7427 7412 0
7428 7427 -7412 0
-7429 7428 7413 0
-7429 -7428 -7413 0
7429 -7428 7413 0
7429 7428 -7413 0
-7430 7429 7414 0
-7430 -7429 -7414 0
7430 -7429 7414 0
7430 7429 -7414 0
-7431 7430 7415 0
-7431 -7430 -7415 0
7431 -7430 7415 0
7431 7430 -7415 0
-7432 7431 7416 0
-7432 -7431 -7416 0
7432 -7431 7416 0
7432 7431 -7416 0
-7432 0
-7433 7185 0
-7433 40 0
7433 -7185 -40 0
-7434 7187 0
-7434 39 0
7434 -7187 -39 0
-7435 7189 0
-7435 42 0
7435 -7189 -42 0
-7436 7191 0
-7436 46 0
7436 -7191 -46 0
-7437 7193 0
-7437 42 0
7437 -7193 -42 0
-7438 7195 0
-7438 39 0
7438 -7195 -39 0
-7439 7197 0
-7439 88 0
7439 -7197 -88 0
-7440 7199 0
-7440 87 0
7440 -7199 -87 0
-7441 7201 0
-7441 90 0
7441 -7201 -90 0
-7442 7203 0
-7442 94 0
7442 -7203 -94 0
-7443 7205 0
-7443 90 0
7443 -7205 -90 0
-7444 7207 0
-7444 87 0
7444 -7207 -87 0
-7445 7209 0
-7445 136 0
7445 -7209 -136 0
-7446 7211 0
-7446 142 0
7446 -7211 -142 0
-7447 7213 0
-7447 142 0
7447 -7213 -142 0
-7448 7215 0
-7448 136 0
7448 -7215 -136 0
-7449 7217 0
-7449 184 0
7449 -7217 -184 0
-7450 7433 7434 0
-7450 -7433 -7434 0
7450 -7433 7434 0
7450 7433 -7434 0
-7451 7450 7435 0
-7451 -7450 -7435 0
7451 -7450 7435 0
7451 7450 -7435 0
-7452 7451 7436 0
-7452 -7451 -7436 0
7452 -7451 7436 0
7452 7451 -7436 0
-7453 7452 7437 0
-7453 -7452 -7437 0
7453 -7452 7437 0
7453 7452 -7437 0
-7454 7453 7438 0
-7454 -7453 -7438 0
7454 -7453 7438 0
7454 7453 -7438 0
-7455 7454 7439 0
-7455 -7454 -7439 0
7455 -7454 7439 0
7455 7454 -7439 0
-7456 7455 7440 0
-7456 -7455 -7440 0
7456 -7455 7440 0
7456 7455 -7440 0
-7457 7456 7441 0
-7457 -7456 -7441 0
7457 -7456 7441 0
7457 7456 -7441 0
-7458 7457 7442 0
-7458 -7457 -7442 0
7458 -7457 7442 0
7458 7457 -7442 0
-7459 7458 7443 0
-7459 -7458 -7443 0
7459 -7458 7443 0
7459 7458 -7443 0
-7460 7459 7444 0
-7460 -7459 -7444 0
7460 -7459 7444 0
7460 7459 -7444 0
-7461 7460 7445 0
-7461 -7460 -7445 0
7461 -7460 7445 0
7461 7460 -7445 0
-7462 7461 7446 0
-7462 -7461 -7446 0
7462 -7461 7446 0
7462 7461 -7446 0
-7463 7462 7447 0
-7463 -7462 -7447 0
7463 -7462 7447 0
7463 7462 -7447 0
-7464 7463 7448 0
-7464 -7463 -7448 0
7464 -7463 7448 0
7464 7463 -7448 0
-7465 7464 7449 0
-7465 -7464 -7449 0
7465 -7464 7449 0
7465 7464 -7449 0
-7465 0
-7466 7185 0
-7466 41 0
7466 -7185 -41 0
-7467 7187 0
-7467 45 0
7467 -7187 -45 0
-7468 7189 0
-7468 45 0
7468 -7189 -45 0
-7469 7191 0
-7469 35 0
7469 -7191 -35 0
-7470 7193 0
-7470 36 0
7470 -7193 -36 0
-7471 7195 0
-7471 36 0
7471 -7195 -36 0
-7472 7197 0
-7472 89 0
7472 -7197 -89 0
-7473 7199 0
-7473 93 0
7473 -7199 -93 0
-7474 7201 0
-7474 93 0
7474 -7201 -93 0
-7475 7203 0
-7475 83 0
7475 -7203 -83 0
-7476 7205 0
-7476 84 0
7476 -7205 -84 0
-7477 7207 0
-7477 84 0
7477 -7207 -84 0
-7478 7209 0
-7478 137 0
7478 -7209 -137 0
-7479 7211 0
-7479 137 0
7479 -7211 -137 0
-7480 7213 0
-7480 131 0
7480 -7213 -131 0
-7481 7215 0
-7481 131 0
7481 -7215 -131 0
-7482 7217 0
-7482 185 0
7482 -7217 -185 0
-7483 7466 7467 0
-7483 -7466 -7467 0
7483 -7466 7467 0
7483 7466 -7467 0
-7484 7483 7468 0
-7484 -7483 -7468 0
7484 -7483 7468 0
7484 7483 -7468 0
-7485 7484 7469 0
-7485 -7484 -7469 0
7485 -7484 7469 0
7485 7484 -7469 0
-7486 7485 7470 0
-7486 -7485 -7470 0
7486 -7485 7470 0
7486 7485 -7470 0
-7487 7486 7471 0
-7487 -7486 -7471 0
7487 -7486 7471 0
7487 7486 -7471 0
-7488 7487 7472 0
-7488 -7487 -7472 0
7488 -7487 7472 0
7488 7487 -7472 0
-7489 7488 7473 0
-7489 -7488 -7473 0
7489 -7488 7473 0
7489 7488 -7473 0
-7490 7489 7474 0
-7490 -7489 -7474 0
7490 -7489 7474 0
7490 7489 -7474 0
-7491 7490 7475 0
-7491 -7490 -7475 0
7491 -7490 7475 0
7491 7490 -7475 0
-7492 7491 7476 0
-7492 -7491 -7476 0
7492 -7491 7476 0
7492 7491 -7476 0
-7493 7492 7477 0
-7493 -7492 -7477 0
7493 -7492 7477 0
7493 7492 -7477 0
-7494 7493 7478 0
-7494 -7493 -7478 0
7494 -7493 7478 0
7494 7493 -7478 0
-7495 7494 7479 0
-7495 -7494 -7479 0
7495 -7494 7479 0
7495 7494 -7479 0
-7496 7495 7480 0
-7496 -7495 -7480 0
7496 -7495 7480 0
7496 7495 -7480 0
-7497 7496 7481 0
-7497 -7496 -7481 0
7497 -7496 7481 0
7497 7496 -7481 0
-7498 7497 7482 0
-7498 -7497 -7482 0
7498 -7497 7482 0
7498 7497 -7482 0
-7498 0
-7499 7185 0
-7499 42 0
7499 -7185 -42 0
-7500 7187 0
-7500 46 0
7500 -7187 -46 0
-7501 7189 0
-7501 47 0
7501 -7189 -47 0
-7502 7191 0
-7502 39 0
7502 -7191 -39 0
-7503 7193 0
-7503 40 0
7503 -7193 -40 0
-7504 7195 0
-7504 44 0
7504 -7195 -44 0
-7505 7197 0
-7505 90 0
7505 -7197 -90 0
-7506 7199 0
-7506 94 0
7506 -7199 -94 0
-7507 7201 0
-7507 95 0
7507 -7201 -95 0
-7508 7203 0
-7508 87 0
7508 -7203 -87 0
-7509 7205 0
-7509 88 0
7509 -7205 -88 0
-7510 7207 0
-7510 92 0
7510 -7207 -92 0
-7511 7209 0
-7511 138 0
7511 -7209 -138 0
-7512 7211 0
-7512 140 0
7512 -7211 -140 0
-7513 7213 0
-7513 135 0
7513 -7213 -135 0
-7514 7215 0
-7514 143 0
7514 -7215 -143 0
-7515 7217 0
-7515 186 0
7515 -7217 -186 0
-7516 7499 7500 0
-7516 -7499 -7500 0
7516 -7499 7500 0
7516 7499 -7500 0
-7517 7516 7501 0
-7517 -7516 -7501 0
7517 -7516 7501 0
7517 7516 -7501 0
-7518 7517 7502 0
-7518 -7517 -7502 0
7518 -7517 7502 0
7518 7517 -7502 0
-7519 7518 7503 0
-7519 -7518 -7503 0
7519 -7518 7503 0
7519 7518 -7503 0
-7520 7519 7504 0
-7520 -7519 -7504 0
7520 -7519 7504 0
7520 7519 -7504 0
-7521 7520 7505 0
-7521 -7520 -7505 0
7521 -7520 7505 0
7521 7520 -7505 0
-7522 7521 7506 0
-7522 -7521 -7506 0
7522 -7521 7506 0
7522 7521 -7506 0
-7523 7522 7507 0
-7523 -7522 -7507 0
7523 -7522 7507 0
7523 7522 -7507 0
-7524 7523 7508 0
-7524 -7523 -7508 0
7524 -7523 7508 0
7524 7523 -7508 0
-7525 7524 7509 0
-7525 -7524 -7509 0
7525 -7524 7509 0
7525 7524 -7509 0
-7526 7525 7510 0
-7526 -7525 -7510 0
7526 -7525 7510 0
7526 7525 -7510 0
-7527 7526 7511 0
-7527 -7526 -7511 0
7527 -7526 7511 0
7527 7526 -7511 0
-7528 7527 7512 0
-7528 -7527 -7512 0
7528 -7527 7512 0
7528 7527 -7512 0
-7529 7528 7513 0
-7529 -7528 -7513 0
7529 -7528 7513 0
7529 7528 -7513 0
-7530 7529 7514 0
-7530 -7529 -7514 0
7530 -7529 7514 0
7530 7529 -7514 0
-7531 7530 7515 0
-7531 -7530 -7515 0
7531 -7530 7515 0
7531 7530 -7515 0
-7531 0
-7532 7185 0
-7532 43 0
7532 -7185 -43 0
-7533 7187 0
-7533 48 0
7533 -7187 -48 0
-7534 7189 0
-7534 48 0
7534 -7189 -48 0
-7535 7191 0
-7535 43 0
7535 -7191 -43 0
-7536 7193 0
-7536 48 0
7536 -7193 -48 0
-7537 7195 0
-7537 48 0
7537 -7195 -48 0
-7538 7197 0
-7538 91 0
7538 -7197 -91 0
-7539 7199 0
-7539 96 0
7539 -7199 -96 0
-7540 7201 0
-7540 96 0
7540 -7201 -96 0
-7541 7203 0
-7541 91 0
7541 -7203 -91 0
-7542 7205 0
-7542 96 0
7542 -7205 -96 0
-7543 7207 0
-7543 96 0
7543 -7207 -96 0
-7544 7209 0
-7544 139 0
7544 -7209 -139 0
-7545 7211 0
-7545 139 0
7545 -7211 -139 0
-7546 7213 0
-7546 139 0
7546 -7213 -139 0
-7547 7215 0
-7547 139 0
7547 -7215 -139 0
-7548 7217 0
-7548 187 0
7548 -7217 -187 0
-7549 7532 7533 0
-7549 -7532 -7533 0
7549 -7532 7533 0
7549 7532 -7533 0
-7550 7549 7534 0
-7550 -7549 -7534 0
7550 -7549 7534 0
7550 7549 -7534 0
-7551 7550 7535 0
-7551 -7550 -7535 0
7551 -7550 7535 0
7551 7550 -7535 0
-7552 7551 7536 0
-7552 -7551 -7536 0
7552 -7551 7536 0
7552 7551 -7536 0
-7553 7552 7537 0
-7553 -7552 -7537 0
7553 -7552 7537 0
7553 7552 -7537 0
-7554 7553 7538 0
-7554 -7553 -7538 0
7554 -7553 7538 0
7554 7553 -7538 0
-7555 7554 7539 0
-7555 -7554 -7539 0
7555 -7554 7539 0
7555 7554 -7539 0
-7556 7555 7540 0
-7556 -7555 -7540 0
7556 -7555 7540 0
7556 7555 -7540 0
-7557 7556 7541 0
-7557 -7556 -7541 0
7557 -7556 7541 0
7557 7556 -7541 0
-7558 7557 7542 0
-7558 -7557 -7542 0
7558 -7557 7542 0
7558 7557 -7542 0
-7559 7558 7543 0
-7559 -7558 -7543 0
7559 -7558 7543 0
7559 7558 -7543 0
-7560 7559 7544 0
-7560 -7559 -7544 0
7560 -7559 7544 0
7560 7559 -7544 0
-7561 7560 7545 0
-7561 -7560 -7545 0
7561 -7560 7545 0
7561 7560 -7545 0
-7562 7561 7546 0
-7562 -7561 -7546 0
7562 -7561 7546 0
7562 7561 -7546 0
-7563 7562 7547 0
-7563 -7562 -7547 0
7563 -7562 7547 0
7563 7562 -7547 0
-7564 7563 7548 0
-7564 -7563 -7548 0
7564 -7563 7548 0
7564 7563 -7548 0
-7564 0
-7565 7185 0
-7565 44 0
7565 -7185 -44 0
-7566 7187 0
-7566 47 0
7566 -7187 -47 0
-7567 7189 0
-7567 46 0
7567 -7189 -46 0
-7568 7191 0
-7568 47 0
7568 -7191 -47 0
-7569 7193 0
-7569 44 0
7569 -7193 -44 0
-7570 7195 0
-7570 40 0
7570 -7195 -40 0
-7571 7197 0
-7571 92 0
7571 -7197 -92 0
-7572 7199 0
-7572 95 0
7572 -7199 -95 0
-7573 7201 0
-7573 94 0
7573 -7201 -94 0
-7574 7203 0
-7574 95 0
7574 -7203 -95 0
-7575 7205 0
-7575 92 0
7575 -7205 -92 0
-7576 7207 0
-7576 88 0
7576 -7207 -88 0
-7577 7209 0
-7577 140 0
7577 -7209 -140 0
-7578 7211 0
-7578 138 0
7578 -7211 -138 0
-7579 7213 0
-7579 143 0
7579 -7213 -143 0
-7580 7215 0
-7580 135 0
7580 -7215 -135 0
-7581 7217 0
-7581 188 0
7581 -7217 -188 0
-7582 7565 7566 0
-7582 -7565 -7566 0
7582 -7565 7566 0
7582 7565 -7566 0
-7583 7582 7567 0
-7583 -7582 -7567 0
7583 -7582 7567 0
7583 7582 -7567 0
-7584 7583 7568 0
-7584 -7583 -7568 0
7584 -7583 7568 0
7584 7583 -7568 0
-7585 7584 7569 0
-7585 -7584 -7569 0
7585 -7584 7569 0
7585 7584 -7569 0
-7586 7585 7570 0
-7586 -7585 -7570 0
7586 -7585 7570 0
7586 7585 -7570 0
-7587 7586 7571 0
-7587 -7586 -7571 0
7587 -7586 7571 0
7587 7586 -7571 0
-7588 7587 7572 0
-7588 -7587 -7572 0
7588 -7587 7572 0
7588 7587 -7572 0
-7589 7588 7573 0
-7589 -7588 -7573 0
7589 -7588 7573 0
7589 7588 -7573 0
-7590 7589 7574 0
-7590 -7589 -7574 0
7590 -7589 7574 0
7590 7589 -7574 0
-7591 7590 7575 0
-7591 -7590 -7575 0
7591 -7590 7575 0
7591 7590 -7575 0
-7592 7591 7576 0
-7592 -7591 -7576 0
7592 -7591 7576 0
7592 7591 -7576 0
-7593 7592 7577 0
-7593 -7592 -7577 0
7593 -7592 7577 0
7593 7592 -7577 0
-7594 7593 7578 0
-7594 -7593 -7578 0
7594 -7593 7578 0
7594 7593 -7578 0
-7595 7594 7579 0
-7595 -7594 -7579 0
7595 -7594 7579 0
7595 7594 -7579 0
-7596 7595 7580 0
-7596 -7595 -7580 0
7596 -7595 7580 0
7596 7595 -7580 0
-7597 7596 7581 0
-7597 -7596 -7581 0
7597 -7596 7581 0
7597 7596 -7581 0
-7597 0
-7598 7185 0
-7598 45 0
7598 -7185 -45 0
-7599 7187 0
-7599 41 0
7599 -7187 -41 0
-7600 7189 0
-7600 37 0
7600 -7189 -37 0
-7601 7191 0
-7601 36 0
7601 -7191 -36 0
-7602 7193 0
-7602 35 0
7602 -7193 -35 0
-7603 7195 0
-7603 34 0
7603 -7195 -34 0
-7604 7197 0
-7604 93 0
7604 -7197 -93 0
-7605 7199 0
-7605 89 0
7605 -7199 -89 0
-7606 7201 0
-7606 85 0
7606 -7201 -85 0
-7607 7203 0
-7607 84 0
7607 -7203 -84 0
-7608 7205 0
-7608 83 0
7608 -7205 -83 0
-7609 7207 0
-7609 82 0
7609 -7207 -82 0
-7610 7209 0
-7610 141 0
7610 -7209 -141 0
-7611 7211 0
-7611 133 0
7611 -7211 -133 0
-7612 7213 0
-7612 132 0
7612 -7213 -132 0
-7613 7215 0
-7613 130 0
7613 -7215 -130 0
-7614 7217 0
-7614 189 0
7614 -7217 -189 0
-7615 7598 7599 0
-7615 -7598 -7599 0
7615 -7598 7599 0
7615 7598 -7599 0
-7616 7615 7600 0
-7616 -7615 -7600 0
7616 -7615 7600 0
7616 7615 -7600 0
-7617 7616 7601 0
-7617 -7616 -7601 0
7617 -7616 7601 0
7617 7616 -7601 0
-7618 7617 7602 0
-7618 -7617 -7602 0
7618 -7617 7602 0
7618 7617 -7602 0
-7619 7618 7603 0
-7619 -7618 -7603 0
7619 -7618 7603 0
7619 7618 -7603 0
-7620 7619 7604 0
-7620 -7619 -7604 0
7620 -7619 7604 0
7620 7619 -7604 0
-7621 7620 7605 0
-7621 -7620 -7605 0
7621 -7620 7605 0
7621 7620 -7605 0
-7622 7621 7606 0
-7622 -7621 -7606 0
7622 -7621 7606 0
7622 7621 -7606 0
-7623 7622 7607 0
-7623 -7622 -7607 0
7623 -7622 7607 0
7623 7622 -7607 0
-7624 7623 7608 0
-7624 -7623 -7608 0
7624 -7623 7608 0
7624 7623 -7608 0
-7625 7624 7609 0
-7625 -7624 -7609 0
7625 -7624 7609 0
7625 7624 -7609 0
-7626 7625 7610 0
-7626 -7625 -7610 0
7626 -7625 7610 0
7626 7625 -7610 0
-7627 7626 7611 0
-7627 -7626 -7611 0
7627 -7626 7611 0
7627 7626 -7611 0
-7628 7627 7612 0
-7628 -7627 -7612 0
7628 -7627 7612 0
7628 7627 -7612 0
-7629 7628 7613 0
-7629 -7628 -7613 0
7629 -7628 7613 0
7629 7628 -7613 0
-7630 7629 7614 0
-7630 -7629 -7614 0
7630 -7629 7614 0
7630 7629 -7614 0
-7630 0
-7631 7185 0
-7631 46 0
7631 -7185 -46 0
-7632 7187 0
-7632 42 0
7632 -7187 -42 0
-7633 7189 0
-7633 39 0
7633 -7189 -39 0
-7634 7191 0
-7634 40 0
7634 -7191 -40 0
-7635 7193 0
-7635 39 0
7635 -7193 -39 0
-7636 7195 0
-7636 42 0
7636 -7195 -42 0
-7637 7197 0
-7637 94 0
7637 -7197 -94 0
-7638 7199 0
-7638 90 0
7638 -7199 -90 0
-7639 7201 0
-7639 87 0
7639 -7201 -87 0
-7640 7203 0
-7640 88 0
7640 -7203 -88 0
-7641 7205 0
-7641 87 0
7641 -7205 -87 0
-7642 7207 0
-7642 90 0
7642 -7207 -90 0
-7643 7209 0
-7643 142 0
7643 -7209 -142 0
-7644 7211 0
-7644 136 0
7644 -7211 -136 0
-7645 7213 0
-7645 136 0
7645 -7213 -136 0
-7646 7215 0
-7646 142 0
7646 -7215 -142 0
-7647 7217 0
-7647 190 0
7647 -7217 -190 0
-7648 7631 7632 0
-7648 -7631 -7632 0
7648 -7631 7632 0
7648 7631 -7632 0
-7649 7648 7633 0
-7649 -7648 -7633 0
7649 -7648 7633 0
7649 7648 -7633 0
-7650 7649 7634 0
-7650 -7649 -7634 0
7650 -7649 7634 0
7650 7649 -7634 0
-7651 7650 7635 0
-7651 -7650 -7635 0
7651 -7650 7635 0
7651 7650 -7635 0
-7652 7651 7636 0
-7652 -7651 -7636 0
7652 -7651 7636 0
7652 7651 -7636 0
-7653 7652 7637 0
-7653 -7652 -7637 0
7653 -7652 7637 0
7653 7652 -7637 0
-7654 7653 7638 0
-7654 -7653 -7638 0
7654 -7653 7638 0
7654 7653 -7638 0
-7655 7654 7639 0
-7655 -7654 -7639 0
7655 -7654 7639 0
7655 7654 -7639 0
-7656 7655 7640 0
-7656 -7655 -7640 0
7656 -7655 7640 0
7656 7655 -7640 0
-7657 7656 7641 0
-7657 -7656 -7641 0
7657 -7656 7641 0
7657 7656 -7641 0
-7658 7657 7642 0
-7658 -7657 -7642 0
7658 -7657 7642 0
7658 7657 -7642 0
-7659 7658 7643 0
-7659 -7658 -7643 0
7659 -7658 7643 0
7659 7658 -7643 0
-7660 7659 7644 0
-7660 -7659 -7644 0
7660 -7659 7644 0
7660 7659 -7644 0
-7661 7660 7645 0
-7661 -7660 -7645 0
7661 -7660 7645 0
7661 7660 -7645 0
-7662 7661 7646 0
-7662 -7661 -7646 0
7662 -7661 7646 0
7662 7661 -7646 0
-7663 7662 7647 0
-7663 -7662 -7647 0
7663 -7662 7647 0
7663 7662 -7647 0
-7663 0
-7664 7185 0
-7664 47 0
7664 -7185 -47 0
-7665 7187 0
-7665 44 0
7665 -7187 -44 0
-7666 7189 0
-7666 40 0
7666 -7189 -40 0
-7667 7191 0
-7667 44 0
7667 -7191 -44 0
-7668 7193 0
-7668 47 0
7668 -7193 -47 0
-7669 7195 0
-7669 46 0
7669 -7195 -46 0
-7670 7197 0
-7670 95 0
7670 -7197 -95 0
-7671 7199 0
-7671 92 0
7671 -7199 -92 0
-7672 7201 0
-7672 88 0
7672 -7201 -88 0
-7673 7203 0
-7673 92 0
7673 -7203 -92 0
-7674 7205 0
-7674 95 0
7674 -7205 -95 0
-7675 7207 0
-7675 94 0
7675 -7207 -94 0
-7676 7209 0
-7676 143 0
7676 -7209 -143 0
-7677 7211 0
-7677 135 0
7677 -7211 -135 0
-7678 7213 0
-7678 140 0
7678 -7213 -140 0
-7679 7215 0
-7679 138 0
7679 -7215 -138 0
-7680 7217 0
-7680 191 0
7680 -7217 -191 0
-7681 7664 7665 0
-7681 -7664 -7665 0
7681 -7664 7665 0
7681 7664 -7665 0
-7682 7681 7666 0
-7682 -7681 -7666 0
7682 -7681 7666 0
7682 7681 -7666 0
-7683 7682 7667 0
-7683 -7682 -7667 0
7683 -7682 7667 0
7683 7682 -7667 0
-7684 7683 7668 0
-7684 -7683 -7668 0
7684 -7683 7668 0
7684 7683 -7668 0
-7685 7684 7669 0
-7685 -7684 -7669 0
7685 -7684 7669 0
7685 7684 -7669 0
-7686 7685 7670 0
-7686 -7685 -7670 0
7686 -7685 7670 0
7686 7685 -7670 0
-7687 7686 7671 0
-7687 -7686 -7671 0
7687 -7686 7671 0
7687 7686 -7671 0
-7688 7687 7672 0
-7688 -7687 -7672 0
7688 -7687 7672 0
7688 7687 -7672 0
-7689 7688 7673 0
-7689 -7688 -7673 0
7689 -7688 7673 0
7689 7688 -7673 0
-7690 7689 7674 0
-7690 -7689 -7674 0
7690 -7689 7674 0
7690 7689 -7674 0
-7691 7690 7675 0
-7691 -7690 -7675 0
7691 -7690 7675 0
7691 7690 -7675 0
-7692 7691 7676 0
-7692 -7691 -7676 0
7692 -7691 7676 0
7692 7691 -7676 0
-7693 7692 7677 0
-7693 -7692 -7677 0
7693 -7692 7677 0
7693 7692 -7677 0
-7694 7693 7678 0
-7694 -7693 -7678 0
7694 -7693 7678 0
7694 7693 -7678 0
-7695 7694 7679 0
-7695 -7694 -7679 0
7695 -7694 7679 0
7695 7694 -7679 0
-7696 7695 7680 0
-7696 -7695 -7680 0
7696 -7695 7680 0
7696 7695 -7680 0
-7696 0
-7697 7185 0
-7697 48 0
7697 -7185 -48 0
-7698 7187 0
-7698 43 0
7698 -7187 -43 0
-7699 7189 0
-7699 38 0
7699 -7189 -38 0
-7700 7191 0
-7700 48 0
7700 -7191 -48 0
-7701 7193 0
-7701 43 0
7701 -7193 -43 0
-7702 7195 0
-7702 38 0
7702 -7195 -38 0
-7703 7197 0
-7703 96 0
7703 -7197 -96 0
-7704 7199 0
-7704 91 0
7704 -7199 -91 0
-7705 7201 0
-7705 86 0
7705 -7201 -86 0
-7706 7203 0
-7706 96 0
7706 -7203 -96 0
-7707 7205 0
-7707 91 0
7707 -7205 -91 0
-7708 7207 0
-7708 86 0
7708 -7207 -86 0
-7709 7209 0
-7709 144 0
7709 -7209 -144 0
-7710 7211 0
-7710 134 0
7710 -7211 -134 0
-7711 7213 0
-7711 144 0
7711 -7213 -144 0
-7712 7215 0
-7712 134 0
7712 -7215 -134 0
-7713 7217 0
-7713 192 0
7713 -7217 -192 0
-7714 7697 7698 0
-7714 -7697 -7698 0
7714 -7697 7698 0
7714 7697 -7698 0
-7715 7714 7699 0
-7715 -7714 -7699 0
7715 -7714 7699 0
7715 7714 -7699 0
-7716 7715 7700 0
-7716 -7715 -7700 0
7716 -7715 7700 0
7716 7715 -7700 0
-7717 7716 7701 0
-7717 -7716 -7701 0
7717 -7716 7701 0
7717 7716 -7701 0
-7718 7717 7702 0
-7718 -7717 -7702 0
7718 -7717 7702 0
7718 7717 -7702 0
-7719 7718 7703 0
-7719 -7718 -7703 0
7719 -7718 7703 0
7719 7718 -7703 0
-7720 7719 7704 0
-7720 -7719 -7704 0
7720 -7719 7704 0
7720 7719 -7704 0
-7721 7720 7705 0
-7721 -7720 -7705 0
7721 -7720 7705 0
7721 7720 -7705 0
-7722 7721 7706 0
-7722 -7721 -7706 0
7722 -7721 7706 0
7722 7721 -7706 0
-7723 7722 7707 0
-7723 -7722 -7707 0
7723 -7722 7707 0
7723 7722 -7707 0
-7724 7723 7708 0
-7724 -7723 -7708 0
7724 -7723 7708 0
7724 7723 -7708 0
-7725 7724 7709 0
-7725 -7724 -7709 0
7725 -7724 7709 0
7725 7724 -7709 0
-7726 7725 7710 0
-7726 -7725 -7710 0
7726 -7725 7710 0
7726 7725 -7710 0
-7727 7726 7711 0
-7727 -7726 -7711 0
7727 -7726 7711 0
7727 7726 -7711 0
-7728 7727 7712 0
-7728 -7727 -7712 0
7728 -7727 7712 0
7728 7727 -7712 0
-7729 7728 7713 0
-7729 -7728 -7713 0
7729 -7728 7713 0
7729 7728 -7713 0
-7729 0
-7730 5 0
-7730 24 0
7730 -5 -24 0
-7731 7730 0
-7731 33 0
7731 -7730 -33 0
-7732 6 0
-7732 19 0
7732 -6 -19 0
-7733 7732 0
-7733 33 0
7733 -7732 -33 0
-7734 10 0
-7734 26 0
7734 -10 -26 0
-7735 7734 0
-7735 33 0
7735 -7734 -33 0
-7736 18 0
-7736 14 0
7736 -18 -14 0
-7737 7736 0
-7737 33 0
7737 -7736 -33 0
-7738 22 0
-7738 9 0
7738 -22 -9 0
-7739 7738 0
-7739 33 0
7739 -7738 -33 0
-7740 23 0
-7740 7 0
7740 -23 -7 0
-7741 7740 0
-7741 33 0
7741 -7740 -33 0
-7742 53 0
-7742 72 0
7742 -53 -72 0
-7743 7742 0
-7743 81 0
7743 -7742 -81 0
-7744 54 0
-7744 67 0
7744 -54 -67 0
-7745 7744 0
-7745 81 0
7745 -7744 -81 0
-7746 58 0
-7746 74 0
7746 -58 -74 0
-7747 7746 0
-7747 81 0
7747 -7746 -81 0
-7748 66 0
-7748 62 0
7748 -66 -62 0
-7749 7748 0
-7749 81 0
7749 -7748 -81 0
-7750 70 0
-7750 57 0
7750 -70 -57 0
-7751 7750 0
-7751 81 0
7751 -7750 -81 0
-7752 71 0
-7752 55 0
7752 -71 -55 0
-7753 7752 0
-7753 81 0
7753 -7752 -81 0
-7754 101 0
-7754 120 0
7754 -101 -120 0
-7755 7754 0
-7755 129 0
7755 -7754 -129 0
-7756 109 0
-7756 122 0
7756 -109 -122 0
-7757 7756 0
-7757 129 0
7757 -7756 -129 0
-7758 114 0
-7758 110 0
7758 -114 -110 0
-7759 7758 0
-7759 129 0
7759 -7758 -129 0
-7760 116 0
-7760 103 0
7760 -116 -103 0
-7761 7760 0
-7761 129 0
7761 -7760 -129 0
-7762 149 0
-7762 168 0
7762 -149 -168 0
-7763 7762 0
-7763 177 0
7763 -7762 -177 0
-7764 7731 7733 0
-7764 -7731 -7733 0
7764 -7731 7733 0
7764 7731 -7733 0
-7765 7764 7735 0
-7765 -7764 -7735 0
7765 -7764 7735 0
7765 7764 -7735 0
-7766 7765 7737 0
-7766 -7765 -7737 0
7766 -7765 7737 0
7766 7765 -7737 0
-7767 7766 7739 0
-7767 -7766 -7739 0
7767 -7766 7739 0
7767 7766 -7739 0
-7768 7767 7741 0
-7768 -7767 -7741 0
7768 -7767 7741 0
7768 7767 -7741 0
-7769 7768 7743 0
-7769 -7768 -7743 0
7769 -7768 7743 0
7769 7768 -7743 0
-7770 7769 7745 0
-7770 -7769 -7745 0
7770 -7769 7745 0
7770 7769 -7745 0
-7771 7770 7747 0
-7771 -7770 -7747 0
7771 -7770 7747 0
7771 7770 -7747 0
-7772 7771 7749 0
-7772 -7771 -7749 0
7772 -7771 7749 0
7772 7771 -7749 0
-7773 7772 7751 0
-7773 -7772 -7751 0
7773 -7772 7751 0
7773 7772 -7751 0
-7774 7773 7753 0
-7774 -7773 -7753 0
7774 -7773 7753 0
7774 7773 -7753 0
-7775 7774 7755 0
-7775 -7774 -7755 0
7775 -7774 7755 0
7775 7774 -7755 0
-7776 7775 7757 0
-7776 -7775 -7757 0
7776 -7775 7757 0
7776 7775 -7757 0
-7777 7776 7759 0
-7777 -7776 -7759 0
7777 -7776 7759 0
7777 7776 -7759 0
-7778 7777 7761 0
-7778 -7777 -7761 0
7778 -7777 7761 0
7778 7777 -7761 0
-7779 7778 7763 0
-7779 -7778 -7763 0
7779 -7778 7763 0
7779 7778 -7763 0
-7779 0
-7780 7730 0
-7780 34 0
7780 -7730 -34 0
-7781 7732 0
-7781 34 0
7781 -7732 -34 0
-7782 7734 0
-7782 35 0
7782 -7734 -35 0
-7783 7736 0
-7783 37 0
7783 -7736 -37 0
-7784 7738 0
-7784 37 0
7784 -7738 -37 0
-7785 7740 0
-7785 41 0
7785 -7740 -41 0
-7786 7742 0
-7786 82 0
7786 -7742 -82 0
-7787 7744 0
-7787 82 0
7787 -7744 -82 0
-7788 7746 0
-7788 83 0
7788 -7746 -83 0
-7789 7748 0
-7789 85 0
7789 -7748 -85 0
-7790 7750 0
-7790 85 0
7790 -7750 -85 0
-7791 7752 0
-7791 89 0
7791 -7752 -89 0
-7792 7754 0
-7792 130 0
7792 -7754 -130 0
-7793 7756 0
-7793 132 0
7793 -7756 -132 0
-7794 7758 0
-7794 133 0
7794 -7758 -133 0
-7795 7760 0
-7795 141 0
7795 -7760 -141 0
-7796 7762 0
-7796 178 0
7796 -7762 -178 0
-7797 7780 7781 0
-7797 -7780 -7781 0
7797 -7780 7781 0
7797 7780 -7781 0
-7798 7797 7782 0
-7798 -7797 -7782 0
7798 -7797 7782 0
7798 7797 -7782 0
-7799 7798 7783 0
-7799 -7798 -7783 0
7799 -7798 7783 0
7799 7798 -7783 0
-7800 7799 7784 0
-7800 -7799 -7784 0
7800 -7799 7784 0
7800 7799 -7784 0
-7801 7800 7785 0
-7801 -7800 -7785 0
7801 -7800 7785 0
7801 7800 -7785 0
-7802 7801 7786 0
-7802 -7801 -7786 0
7802 -7801 7786 0
7802 7801 -7786 0
-7803 7802 7787 0
-7803 -7802 -7787 0
7803 -7802 7787 0
7803 7802 -7787 0
-7804 7803 7788 0
-7804 -7803 -7788 0
7804 -7803 7788 0
7804 7803 -7788 0
-7805 7804 7789 0
-7805 -7804 -7789 0
7805 -7804 7789 0
7805 7804 -7789 0
-7806 7805 7790 0
-7806 -7805 -7790 0
7806 -7805 7790 0
7806 7805 -7790 0
-7807 7806 7791 0
-7807 -7806 -7791 0
7807 -7806 7791 0
7807 7806 -7791 0
-7808 7807 7792 0
-7808 -7807 -7792 0
7808 -7807 7792 0
7808 7807 -7792 0
-7809 7808 7793 0
-7809 -7808 -7793 0
7809 -7808 7793 0
7809 7808 -7793 0
-7810 7809 7794 0
-7810 -7809 -7794 0
7810 -7809 7794 0
7810 7809 -7794 0
-7811 7810 7795 0
-7811 -7810 -7795 0
7811 -7810 7795 0
7811 7810 -7795 0
-7812 7811 7796 0
-7812 -7811 -7796 0
7812 -7811 7796 0
7812 7811 -7796 0
-7812 0
-7813 7730 0
-7813 35 0
7813 -7730 -35 0
-7814 7732 0
-7814 36 0
7814 -7732 -36 0
-7815 7734 0
-7815 36 0
7815 -7734 -36 0
-7816 7736 0
-7816 41 0
7816 -7736 -41 0
-7817 7738 0
-7817 45 0
7817 -7738 -45 0
-7818 7740 0
-7818 45 0
7818 -7740 -45 0
-7819 7742 0
-7819 83 0
7819 -7742 -83 0
-7820 7744 0
-7820 84 0
7820 -7744 -84 0
-7821 7746 0
-7821 84 0
7821 -7746 -84 0
-7822 7748 0
-7822 89 0
7822 -7748 -89 0
-7823 7750 0
-7823 93 0
7823 -7750 -93 0
-7824 7752 0
-7824 93 0
7824 -7752 -93 0
-7825 7754 0
-7825 131 0
7825 -7754 -131 0
-7826 7756 0
-7826 131 0
7826 -7756 -131 0
-7827 7758 0
-7827 137 0
7827 -7758 -137 0
-7828 7760 0
-7828 137 0
7828 -7760 -137 0
-7829 7762 0
-7829 179 0
7829 -7762 -179 0
-7830 7813 7814 0
-7830 -7813 -7814 0
7830 -7813 7814 0
7830 7813 -7814 0
-7831 7830 7815 0
-7831 -7830 -7815 0
7831 -7830 7815 0
7831 7830 -7815 0
-7832 7831 7816 0
-7832 -7831 -7816 0
7832 -7831 7816 0
7832 7831 -7816 0
-7833 7832 7817 0
-7833 -7832 -7817 0
7833 -7832 7817 0
7833 7832 -7817 0
-7834 7833 7818 0
-7834 -7833 -7818 0
7834 -7833 7818 0
7834 7833 -7818 0
-7835 7834 7819 0
-7835 -7834 -7819 0
7835 -7834 7819 0
7835 7834 -7819 0
-7836 7835 7820 0
-7836 -7835 -7820 0
7836 -7835 7820 0
7836 7835 -7820 0
-7837 7836 7821 0
-7837 -7836 -7821 0
7837 -7836 7821 0
7837 7836 -7821 0
-7838 7837 7822 0
-7838 -7837 -7822 0
7838 -7837 7822 0
7838 7837 -7822 0
-7839 7838 7823 0
-7839 -7838 -7823 0
7839 -7838 7823 0
7839 7838 -7823 0
-7840 7839 7824 0
-7840 -7839 -7824 0
7840 -7839 7824 0
7840 7839 -7824 0
-7841 7840 7825 0
-7841 -7840 -7825 0
7841 -7840 7825 0
7841 7840 -7825 0
-7842 7841 7826 0
-7842 -7841 -7826 0
7842 -7841 7826 0
7842 7841 -7826 0
-7843 7842 7827 0
-7843 -7842 -7827 0
7843 -7842 7827 0
7843 7842 -7827 0
-7844 7843 7828 0
-7844 -7843 -7828 0
7844 -7843 7828 0
7844 7843 -7828 0
-7845 7844 7829 0
-7845 -7844 -7829 0
7845 -7844 7829 0
7845 7844 -7829 0
-7845 0
-7846 7730 0
-7846 36 0
7846 -7730 -36 0
-7847 7732 0
-7847 35 0
7847 -7732 -35 0
-7848 7734 0
-7848 34 0
7848 -7734 -34 0
-7849 7736 0
-7849 45 0
7849 -7736 -45 0
-7850 7738 0
-7850 41 0
7850 -7738 -41 0
-7851 7740 0
-7851 37 0
7851 -7740 -37 0
-7852 7742 0
-7852 84 0
7852 -7742 -84 0
-7853 7744 0
-7853 83 0
7853 -7744 -83 0
-7854 7746 0
-7854 82 0
7854 -7746 -82 0
-7855 7748 0
-7855 93 0
7855 -7748 -93 0
-7856 7750 0
-7856 89 0
7856 -7750 -89 0
-7857 7752 0
-7857 85 0
7857 -7752 -85 0
-7858 7754 0
-7858 132 0
7858 -7754 -132 0
-7859 7756 0
-7859 130 0
7859 -7756 -130 0
-7860 7758 0
-7860 141 0
7860 -7758 -141 0
-7861 7760 0
-7861 133 0
7861 -7760 -133 0
-7862 7762 0
-7862 180 0
7862 -7762 -180 0
-7863 7846 7847 0
-7863 -7846 -7847 0
7863 -7846 7847 0
7863 7846 -7847 0
-7864 7863 7848 0
-7864 -7863 -7848 0
7864 -7863 7848 0
7864 7863 -7848 0
-7865 7864 7849 0
-7865 -7864 -7849 0
7865 -7864 7849 0
7865 7864 -7849 0
-7866 7865 7850 0
-7866 -7865 -7850 0
7866 -7865 7850 0
7866 7865 -7850 0
-7867 7866 7851 0
-7867 -7866 -7851 0
7867 -7866 7851 0
7867 7866 -7851 0
-7868 7867 7852 0
-7868 -7867 -7852 0
7868 -7867 7852 0
7868 7867 -7852 0
-7869 7868 7853 0
-7869 -7868 -7853 0
7869 -7868 7853 0
7869 7868 -7853 0
-7870 7869 7854 0
-7870 -7869 -7854 0
7870 -7869 7854 0
7870 7869 -7854 0
-7871 7870 7855 0
-7871 -7870 -7855 0
7871 -7870 7855 0
7871 7870 -7855 0
-7872 7871 7856 0
-7872 -7871 -7856 0
7872 -7871 7856 0
7872 7871 -7856 0
-7873 7872 7857 0
-7873 -7872 -7857 0
7873 -7872 7857 0
7873 7872 -7857 0
-7874 7873 7858 0
-7874 -7873 -7858 0
7874 -7873 7858 0
7874 7873 -7858 0
-7875 7874 7859 0
-7875 -7874 -7859 0
7875 -7874 7859 0
7875 7874 -7859 0
-7876 7875 7860 0
-7876 -7875 -7860 0
7876 -7875 7860 0
7876 7875 -7860 0
-7877 7876 7861 0
-7877 -7876 -7861 0
7877 -7876 7861 0
7877 7876 -7861 0
-7878 7877 7862 0
-7878 -7877 -7862 0
7878 -7877 7862 0
7878 7877 -7862 0
-7878 0
-7879 7730 0
-7879 37 0
7879 -7730 -37 0
-7880 7732 0
-7880 37 0
7880 -7732 -37 0
-7881 7734 0
-7881 41 0
7881 -7734 -41 0
-7882 7736 0
-7882 34 0
7882 -7736 -34 0
-7883 7738 0
-7883 34 0
7883 -7738 -34 0
-7884 7740 0
-7884 35 0
7884 -7740 -35 0
-7885 7742 0
-7885 85 0
7885 -7742 -85 0
-7886 7744 0
-7886 85 0
7886 -7744 -85 0
-7887 7746 0
-7887 89 0
7887 -7746 -89 0
-7888 7748 0
-7888 82 0
7888 -7748 -82 0
-7889 7750 0
-7889 82 0
7889 -7750 -82 0
-7890 7752 0
-7890 83 0
7890 -7752 -83 0
-7891 7754 0
-7891 133 0
7891 -7754 -133 0
-7892 7756 0
-7892 141 0
7892 -7756 -141 0
-7893 7758 0
-7893 130 0
7893 -7758 -130 0
-7894 7760 0
-7894 132 0
7894 -7760 -132 0
-7895 7762 0
-7895 181 0
7895 -7762 -181 0
-7896 7879 7880 0
-7896 -7879 -7880 0
7896 -7879 7880 0
7896 7879 -7880 0
-7897 7896 7881 0
-7897 -7896 -7881 0
7897 -7896 7881 0
7897 7896 -7881 0
-7898 7897 7882 0
-7898 -7897 -7882 0
7898 -7897 7882 0
7898 7897 -7882 0
-7899 7898 7883 0
-7899 -7898 -7883 0
7899 -7898 7883 0
7899 7898 -7883 0
-7900 7899 7884 0
-7900 -7899 -7884 0
7900 -7899 7884 0
7900 7899 -7884 0
-7901 7900 7885 0
-7901 -7900 -7885 0
7901 -7900 7885 0
7901 7900 -7885 0
-7902 7901 7886 0
-7902 -7901 -7886 0
7902 -7901 7886 0
7902 7901 -7886 0
-7903 7902 7887 0
-7903 -7902 -7887 0
7903 -7902 7887 0
7903 7902 -7887 0
-7904 7903 7888 0
-7904 -7903 -7888 0
7904 -7903 7888 0
7904 7903 -7888 0
-7905 7904 7889 0
-7905 -7904 -7889 0
7905 -7904 7889 0
7905 7904 -7889 0
-7906 7905 7890 0
-7906 -7905 -7890 0
7906 -7905 7890 0
7906 7905 -7890 0
-7907 7906 7891 0
-7907 -7906 -7891 0
7907 -7906 7891 0
7907 7906 -7891 0
-7908 7907 7892 0
-7908 -7907 -7892 0
7908 -7907 7892 0
7908 7907 -7892 0
-7909 7908 7893 0
-7909 -7908 -7893 0
7909 -7908 7893 0
7909 7908 -7893 0
-7910 7909 7894 0
-7910 -7909 -7894 0
7910 -7909 7894 0
7910 7909 -7894 0
-7911 7910 7895 0
-7911 -7910 -7895 0
7911 -7910 7895 0
7911 7910 -7895 0
-7911 0
-7912 7730 0
-7912 38 0
7912 -7730 -38 0
-7913 7732 0
-7913 38 0
7913 -7732 -38 0
-7914 7734 0
-7914 43 0
7914 -7734 -43 0
-7915 7736 0
-7915 38 0
7915 -7736 -38 0
-7916 7738 0
-7916 38 0
7916 -7738 -38 0
-7917 7740 0
-7917 43 0
7917 -7740 -43 0
-7918 7742 0
-7918 86 0
7918 -7742 -86 0
-7919 7744 0
-7919 86 0
7919 -7744 -86 0
-7920 7746 0
-7920 91 0
7920 -7746 -91 0
-7921 7748 0
-7921 86 0
7921 -7748 -86 0
-7922 7750 0
-7922 86 0
7922 -7750 -86 0
-7923 7752 0
-7923 91 0
7923 -7752 -91 0
-7924 7754 0
-7924 134 0
7924 -7754 -134 0
-7925 7756 0
-7925 144 0
7925 -7756 -144 0
-7926 7758 0
-7926 134 0
7926 -7758 -134 0
-7927 7760 0
-7927 144 0
7927 -7760 -144 0
-7928 7762 0
-7928 182 0
7928 -7762 -182 0
-7929 7912 7913 0
-7929 -7912 -7913 0
7929 -7912 7913 0
7929 7912 -7913 0
-7930 7929 7914 0
-7930 -7929 -7914 0
7930 -7929 7914 0
7930 7929 -7914 0
-7931 7930 7915 0
-7931 -7930 -7915 0
7931 -7930 7915 0
7931 7930 -7915 0
-7932 7931 7916 0
-7932 -7931 -7916 0
7932 -7931 7916 0
7932 7931 -7916 0
-7933 7932 7917 0
-7933 -7932 -7917 0
7933 -7932 7917 0
7933 7932 -7917 0
-7934 7933 7918 0
-7934 -7933 -7918 0
7934 -7933 7918 0
7934 7933 -7918 0
-7935 7934 7919 0
-7935 -7934 -7919 0
7935 -7934 7919 0
7935 7934 -7919 0
-7936 7935 7920 0
-7936 -7935 -7920 0
7936 -7935 7920 0
7936 7935 -7920 0
-7937 7936 7921 0
-7937 -7936 -7921 0
7937 -7936 7921 0
7937 7936 -7921 0
-7938 7937 7922 0
-7938 -7937 -7922 0
7938 -7937 7922 0
7938 7937 -7922 0
-7939 7938 7923 0
-7939 -7938 -7923 0
7939 -7938 7923 0
7939 7938 -7923 0
-7940 7939 7924 0
-7940 -7939 -7924 0
7940 -7939 7924 0
7940 7939 -7924 0
-7941 7940 7925 0
-7941 -7940 -7925 0
7941 -7940 7925 0
7941 7940 -7925 0
-7942 7941 7926 0
-7942 -7941 -7926 0
7942 -7941 7926 0
7942 7941 -7926 0
-7943 7942 7927 0
-7943 -7942 -7927 0
7943 -7942 7927 0
7943 7942 -7927 0
-7944 7943 7928 0
-7944 -7943 -7928 0
7944 -7943 7928 0
7944 7943 -7928 0
-7944 0
-7945 7730 0
-7945 39 0
7945 -7730 -39 0
-7946 7732 0
-7946 40 0
7946 -7732 -40 0
-7947 7734 0
-7947 44 0
7947 -7734 -44 0
-7948 7736 0
-7948 42 0
7948 -7736 -42 0
-7949 7738 0
-7949 46 0
7949 -7738 -46 0
-7950 7740 0
-7950 47 0
7950 -7740 -47 0
-7951 7742 0
-7951 87 0
7951 -7742 -87 0
-7952 7744 0
-7952 88 0
7952 -7744 -88 0
-7953 7746 0
-7953 92 0
7953 -7746 -92 0
-7954 7748 0
-7954 90 0
7954 -7748 -90 0
-7955 7750 0
-7955 94 0
7955 -7750 -94 0
-7956 7752 0
-7956 95 0
7956 -7752 -95 0
-7957 7754 0
-7957 135 0
7957 -7754 -135 0
-7958 7756 0
-7958 143 0
7958 -7756 -143 0
-7959 7758 0
-7959 138 0
7959 -7758 -138 0
-7960 7760 0
-7960 140 0
7960 -7760 -140 0
-7961 7762 0
-7961 183 0
7961 -7762 -183 0
-7962 7945 7946 0
-7962 -7945 -7946 0
7962 -7945 7946 0
7962 7945 -7946 0
-7963 7962 7947 0
-7963 -7962 -7947 0
7963 -7962 7947 0
7963 7962 -7947 0
-7964 7963 7948 0
-7964 -7963 -7948 0
7964 -7963 7948 0
7964 7963 -7948 0
-7965 7964 7949 0
-7965 -7964 -7949 0
7965 -7964 7949 0
7965 7964 -7949 0
-7966 7965 7950 0
-7966 -7965 -7950 0
7966 -7965 7950 0
7966 7965 -7950 0
-7967 7966 7951 0
-7967 -7966 -7951 0
7967 -7966 7951 0
7967 7966 -7951 0
-7968 7967 7952 0
-7968 -7967 -7952 0
7968 -7967 7952 0
7968 7967 -7952 0
-7969 7968 7953 0
-7969 -7968 -7953 0
7969 -7968 7953 0
7969 7968 -7953 0
-7970 7969 7954 0
-7970 -7969 -7954 0
7970 -7969 7954 0
7970 7969 -7954 0
-7971 7970 7955 0
-7971 -7970 -7955 0
7971 -7970 7955 0
7971 7970 -7955 0
-7972 7971 7956 0
-7972 -7971 -7956 0
7972 -7971 7956 0
7972 7971 -7956 0
-7973 7972 7957 0
-7973 -7972 -7957 0
7973 -7972 7957 0
7973 7972 -7957 0
-7974 7973 7958 0
-7974 -7973 -7958 0
7974 -7973 7958 0
7974 7973 -7958 0
-7975 7974 7959 0
-7975 -7974 -7959 0
7975 -7974 7959 0
7975 7974 -7959 0
-7976 7975 7960 0
-7976 -7975 -7960 0
7976 -7975 7960 0
7976 7975 -7960 0
-7977 7976 7961 0
-7977 -7976 -7961 0
7977 -7976 7961 0
7977 7976 -7961 0
-7977 0
-7978 7730 0
-7978 40 0
7978 -7730 -40 0
-7979 7732 0
-7979 39 0
7979 -7732 -39 0
-7980 7734 0
-7980 42 0
7980 -7734 -42 0
-7981 7736 0
-7981 46 0
7981 -7736 -46 0
-7982 7738 0
-7982 42 0
7982 -7738 -42 0
-7983 7740 0
-7983 39 0
7983 -7740 -39 0
-7984 7742 0
-7984 88 0
7984 -7742 -88 0
-7985 7744 0
-7985 87 0
7985 -7744 -87 0
-7986 7746 0
-7986 90 0
7986 -7746 -90 0
-7987 7748 0
-7987 94 0
7987 -7748 -94 0
-7988 7750 0
-7988 90 0
7988 -7750 -90 0
-7989 7752 0
-7989 87 0
7989 -7752 -87 0
-7990 7754 0
-7990 136 0
7990 -7754 -136 0
-7991 7756 0
-7991 142 0
7991 -7756 -142 0
-7992 7758 0
-7992 142 0
7992 -7758 -142 0
-7993 7760 0
-7993 136 0
7993 -7760 -136 0
-7994 7762 0
-7994 184 0
7994 -7762 -184 0
-7995 7978 7979 0
-7995 -7978 -7979 0
7995 -7978 7979 0
7995 7978 -7979 0
-7996 7995 7980 0
-7996 -7995 -7980 0
7996 -7995 7980 0
7996 7995 -7980 0
-7997 7996 7981 0
-7997 -7996 -7981 0
7997 -7996 7981 0
7997 7996 -7981 0
-7998 7997 7982 0
-7998 -7997 -7982 0
7998 -7997 7982 0
7998 7997 -7982 0
-7999 7998 7983 0
-7999 -7998 -7983 0
7999 -7998 7983 0
7999 7998 -7983 0
-8000 7999 7984 0
-8000 -7999 -7984 0
8000 -7999 7984 0
8000 7999 -7984 0
-8001 8000 7985 0
-8001 -8000 -7985 0
8001 -8000 7985 0
8001 8000 -7985 0
-8002 8001 7986 0
-8002 -8001 -7986 0
8002 -8001 7986 0
8002 8001 -7986 0
-8003 8002 7987 0
-8003 -8002 -7987 0
8003 -8002 7987 0
8003 8002 -7987 0
-8004 8003 7988 0
-8004 -8003 -7988 0
8004 -8003 7988 0
8004 8003 -7988 0
-8005 8004 7989 0
-8005 -8004 -7989 0
8005 -8004 7989 0
8005 8004 -7989 0
-8006 8005 7990 0
-8006 -8005 -7990 0
8006 -8005 7990 0
8006 8005 -7990 0
-8007 8006 7991 0
-8007 -8006 -7991 0
8007 -8006 7991 0
8007 8006 -7991 0
-8008 8007 7992 0
-8008 -8007 -7992 0
8008 -8007 7992 0
8008 8007 -7992 0
-8009 8008 7993 0
-8009 -8008 -7993 0
8009 -8008 7993 0
8009 8008 -7993 0
-8010 8009 7994 0
-8010 -8009 -7994 0
8010 -8009 7994 0
8010 8009 -7994 0
-8010 0
-8011 7730 0
-8011 41 0
8011 -7730 -41 0
-8012 7732 0
-8012 45 0
8012 -7732 -45 0
-8013 7734 0
-8013 45 0
8013 -7734 -45 0
-8014 7736 0
-8014 35 0
8014 -7736 -35 0
-8015 7738 0
-8015 36 0
8015 -7738 -36 0
-8016 7740 0
-8016 36 0
8016 -7740 -36 0
-8017 7742 0
-8017 89 0
8017 -7742 -89 0
-8018 7744 0
-8018 93 0
8018 -7744 -93 0
-8019 7746 0
-8019 93 0
8019 -7746 -93 0
-8020 7748 0
-8020 83 0
8020 -7748 -83 0
-8021 7750 0
-8021 84 0
8021 -7750 -84 0
-8022 7752 0
-8022 84 0
8022 -7752 -84 0
-8023 7754 0
-8023 137 0
8023 -7754 -137 0
-8024 7756 0
-8024 137 0
8024 -7756 -137 0
-8025 7758 0
-8025 131 0
8025 -7758 -131 0
-8026 7760 0
-8026 131 0
8026 -7760 -131 0
-8027 7762 0
-8027 185 0
8027 -7762 -185 0
-8028 8011 8012 0
-8028 -8011 -8012 0
8028 -8011 8012 0
8028 8011 -8012 0
-8029 8028 8013 0
-8029 -8028 -8013 0
8029 -8028 8013 0
8029 8028 -8013 0
-8030 8029 8014 0
-8030 -8029 -8014 0
8030 -8029 8014 0
8030 8029 -8014 0
-8031 8030 8015 0
-8031 -8030 -8015 0
8031 -8030 8015 0
8031 8030 -8015 0
-8032 8031 8016 0
-8032 -8031 -8016 0
8032 -8031 8016 0
8032 8031 -8016 0
-8033 8032 8017 0
-8033 -8032 -8017 0
8033 -8032 8017 0
8033 8032 -8017 0
-8034 8033 8018 0
-8034 -8033 -8018 0
8034 -8033 8018 0
8034 8033 -8018 0
-8035 8034 8019 0
-8035 -8034 -8019 0
8035 -8034 8019 0
8035 8034 -8019 0
-8036 8035 8020 0
-8036 -8035 -8020 0
8036 -8035 8020 0
8036 8035 -8020 0
-8037 8036 8021 0
-8037 -8036 -8021 0
8037 -8036 8021 0
8037 8036 -8021 0
-8038 8037 8022 0
-8038 -8037 -8022 0
8038 -8037 8022 0
8038 8037 -8022 0
-8039 8038 8023 0
-8039 -8038 -8023 0
8039 -8038 8023 0
8039 8038 -8023 0
-8040 8039 8024 0
-8040 -8039 -8024 0
8040 -8039 8024 0
8040 8039 -8024 0
-8041 8040 8025 0
-8041 -8040 -8025 0
8041 -8040 8025 0
8041 8040 -8025 0
-8042 8041 8026 0
-8042 -8041 -8026 0
8042 -8041 8026 0
8042 8041 -8026 0
-8043 8042 8027 0
-8043 -8042 -8027 0
8043 -8042 8027 0
8043 8042 -8027 0
-8043 0
-8044 7730 0
-8044 42 0
8044 -7730 -42 0
-8045 7732 0
-8045 46 0
8045 -7732 -46 0
-8046 7734 0
-8046 47 0
8046 -7734 -47 0
-8047 7736 0
-8047 39 0
8047 -7736 -39 0
-8048 7738 0
-8048 40 0
8048 -7738 -40 0
-8049 7740 0
-8049 44 0
8049 -7740 -44 0
-8050 7742 0
-8050 90 0
8050 -7742 -90 0
-8051 7744 0
-8051 94 0
8051 -7744 -94 0
-8052 7746 0
-8052 95 0
8052 -7746 -95 0
-8053 7748 0
-8053 87 0
8053 -7748 -87 0
-8054 7750 0
-8054 88 0
8054 -7750 -88 0
-8055 7752 0
-8055 92 0
8055 -7752 -92 0
-8056 7754 0
-8056 138 0
8056 -7754 -138 0
-8057 7756 0
-8057 140 0
8057 -7756 -140 0
-8058 7758 0
-8058 135 0
8058 -7758 -135 0
-8059 7760 0
-8059 143 0
8059 -7760 -143 0
-8060 7762 0
-8060 186 0
8060 -7762 -186 0
-8061 8044 8045 0
-8061 -8044 -8045 0
8061 -8044 8045 0
8061 8044 -8045 0
-8062 8061 8046 0
-8062 -8061 -8046 0
8062 -8061 8046 0
8062 8061 -8046 0
-8063 8062 8047 0
-8063 -8062 -8047 0
8063 -8062 8047 0
8063 8062 -8047 0
-8064 8063 8048 0
-8064 -8063 -8048 0
8064 -8063 8048 0
8064 8063 -8048 0
-8065 8064 8049 0
-8065 -8064 -8049 0
8065 -8064 8049 0
8065 8064 -8049 0
-8066 8065 8050 0
-8066 -8065 -8050 0
8066 -8065 8050 0
8066 8065 -8050 0
-8067 8066 8051 0
-8067 -8066 -8051 0
8067 -8066 8051 0
8067 8066 -8051 0
-8068 8067 8052 0
-8068 -8067 -8052 0
8068 -8067 8052 0
8068 8067 -8052 0
-8069 8068 8053 0
-8069 -8068 -8053 0
8069 -8068 8053 0
8069 8068 -8053 0
-8070 8069 8054 0
-8070 -8069 -8054 0
8070 -8069 8054 0
8070 8069 -8054 0
-8071 8070 8055 0
-8071 -8070 -8055 0
8071 -8070 8055 0
8071 8070 -8055 0
-8072 8071 8056 0
-8072 -8071 -8056 0
8072 -8071 8056 0
8072 8071 -8056 0
-8073 8072 8057 0
-8073 -8072 -8057 0
8073 -8072 8057 0
8073 8072 -8057 0
-8074 8073 8058 0
-8074 -8073 -8058 0
8074 -8073 8058 0
8074 8073 -8058 0
-8075 8074 8059 0
-8075 -8074 -8059 0
8075 -8074 8059 0
8075 8074 -8059 0
-8076 8075 8060 0
-8076 -8075 -8060 0
8076 -8075 8060 0
8076 8075 -8060 0
-8076 0
-8077 7730 0
-8077 43 0
8077 -7730 -43 0
-8078 7732 0
-8078 48 0
8078 -7732 -48 0
-8079 7734 0
-8079 48 0
8079 -7734 -48 0
-8080 7736 0
-8080 43 0
8080 -7736 -43 0
-8081 7738 0
-8081 48 0
8081 -7738 -48 0
-8082 7740 0
-8082 48 0
8082 -7740 -48 0
-8083 7742 0
-8083 91 0
8083 -7742 -91 0
-8084 7744 0
-8084 96 0
8084 -7744 -96 0
-8085 7746 0
-8085 96 0
8085 -7746 -96 0
-8086 7748 0
-8086 91 0
8086 -7748 -91 0
-8087 7750 0
-8087 96 0
8087 -7750 -96 0
-8088 7752 0
-8088 96 0
8088 -7752 -96 0
-8089 7754 0
-8089 139 0
8089 -7754 -139 0
-8090 7756 0
-8090 139 0
8090 -7756 -139 0
-8091 7758 0
-8091 139 0
8091 -7758 -139 0
-8092 7760 0
-8092 139 0
8092 -7760 -139 0
-8093 7762 0
-8093 187 0
8093 -7762 -187 0
-8094 8077 8078 0
-8094 -8077 -8078 0
8094 -8077 8078 0
8094 8077 -8078 0
-8095 8094 8079 0
-8095 -8094 -8079 0
8095 -8094 8079 0
8095 8094 -8079 0
-8096 8095 8080 0
-8096 -8095 -8080 0
8096 -8095 8080 0
8096 8095 -8080 0
-8097 8096 8081 0
-8097 -8096 -8081 0
8097 -8096 8081 0
8097 8096 -8081 0
-8098 8097 8082 0
-8098 -8097 -8082 0
8098 -8097 8082 0
8098 8097 -8082 0
-8099 8098 8083 0
-8099 -8098 -8083 0
8099 -8098 8083 0
8099 8098 -8083 0
-8100 8099 8084 0
-8100 -8099 -8084 0
8100 -8099 8084 0
8100 8099 -8084 0
-8101 8100 8085 0
-8101 -8100 -8085 0
8101 -8100 8085 0
8101 8100 -8085 0
-8102 8101 8086 0
-8102 -8101 -8086 0
8102 -8101 8086 0
8102 8101 -8086 0
-8103 8102 8087 0
-8103 -8102 -8087 0
8103 -8102 8087 0
8103 8102 -8087 0
-8104 8103 8088 0
-8104 -8103 -8088 0
8104 -8103 8088 0
8104 8103 -8088 0
-8105 8104 8089 0
-8105 -8104 -8089 0
8105 -8104 8089 0
8105 8104 -8089 0
-8106 8105 8090 0
-8106 -8105 -8090 0
8106 -8105 8090 0
8106 8105 -8090 0
-8107 8106 8091 0
-8107 -8106 -8091 0
8107 -8106 8091 0
8107 8106 -8091 0
-8108 8107 8092 0
-8108 -8107 -8092 0
8108 -8107 8092 0
8108 8107 -8092 0
-8109 8108 8093 0
-8109 -8108 -8093 0
8109 -8108 8093 0
8109 8108 -8093 0
-8109 0
-8110 7730 0
-8110 44 0
8110 -7730 -44 0
-8111 7732 0
-8111 47 0
8111 -7732 -47 0
-8112 7734 0
-8112 46 0
8112 -7734 -46 0
-8113 7736 0
-8113 47 0
8113 -7736 -47 0
-8114 7738 0
-8114 44 0
8114 -7738 -44 0
-8115 7740 0
-8115 40 0
8115 -7740 -40 0
-8116 7742 0
-8116 92 0
8116 -7742 -92 0
-8117 7744 0
-8117 95 0
8117 -7744 -95 0
-8118 7746 0
-8118 94 0
8118 -7746 -94 0
-8119 7748 0
-8119 95 0
8119 -7748 -95 0
-8120 7750 0
-8120 92 0
8120 -7750 -92 0
-8121 7752 0
-8121 88 0
8121 -7752 -88 0
-8122 7754 0
-8122 140 0
8122 -7754 -140 0
-8123 7756 0
-8123 138 0
8123 -7756 -138 0
-8124 7758 0
-8124 143 0
8124 -7758 -143 0
-8125 7760 0
-8125 135 0
8125 -7760 -135 0
-8126 7762 0
-8126 188 0
8126 -7762 -188 0
-8127 8110 8111 0
-8127 -8110 -8111 0
8127 -8110 8111 0
8127 8110 -8111 0
-8128 8127 8112 0
-8128 -8127 -8112 0
8128 -8127 8112 0
8128 8127 -8112 0
-8129 8128 8113 0
-8129 -8128 -8113 0
8129 -8128 8113 0
8129 8128 -8113 0
-8130 8129 8114 0
-8130 -8129 -8114 0
8130 -8129 8114 0
8130 8129 -8114 0
-8131 8130 8115 0
-8131 -8130 -8115 0
8131 -8130 8115 0
8131 8130 -8115 0
-8132 8131 8116 0
-8132 -8131 -8116 0
8132 -8131 8116 0
8132 8131 -8116 0
-8133 8132 8117 0
-8133 -8132 -8117 0
8133 -8132 8117 0
8133 8132 -8117 0
-8134 8133 8118 0
-8134 -8133 -8118 0
8134 -8133 8118 0
8134 8133 -8118 0
-8135 8134 8119 0
-8135 -8134 -8119 0
8135 -8134 8119 0
8135 8134 -8119 0
-8136 8135 8120 0
-8136 -8135 -8120 0
8136 -8135 8120 0
8136 8135 -8120 0
-8137 8136 8121 0
-8137 -8136 -8121 0
8137 -8136 8121 0
8137 8136 -8121 0
-8138 8137 8122 0
-8138 -8137 -8122 0
8138 -8137 8122 0
8138 8137 -8122 0
-8139 8138 8123 0
-8139 -8138 -8123 0
8139 -8138 8123 0
8139 8138 -8123 0
-8140 8139 8124 0
-8140 -8139 -8124 0
8140 -8139 8124 0
8140 8139 -8124 0
-8141 8140 8125 0
-8141 -8140 -8125 0
8141 -8140 8125 0
8141 8140 -8125 0
-8142 8141 8126 0
-8142 -8141 -8126 0
8142 -8141 8126 0
8142 8141 -8126 0
-8142 0
-8143 7730 0
-8143 45 0
8143 -7730 -45 0
-8144 7732 0
-8144 41 0
8144 -7732 -41 0
-8145 7734 0
-8145 37 0
8145 -7734 -37 0
-8146 7736 0
-8146 36 0
8146 -7736 -36 0
-8147 7738 0
-8147 35 0
8147 -7738 -35 0
-8148 7740 0
-8148 34 0
8148 -7740 -34 0
-8149 7742 0
-8149 93 0
8149 -7742 -93 0
-8150 7744 0
-8150 89 0
8150 -7744 -89 0
-8151 7746 0
-8151 85 0
8151 -7746 -85 0
-8152 7748 0
-8152 84 0
8152 -7748 -84 0
-8153 7750 0
-8153 83 0
8153 -7750 -83 0
-8154 7752 0
-8154 82 0
8154 -7752 -82 0
-8155 7754 0
-8155 141 0
8155 -7754 -141 0
-8156 7756 0
-8156 133 0
8156 -7756 -133 0
-8157 7758 0
-8157 132 0
8157 -7758 -132 0
-8158 7760 0
-8158 130 0
8158 -7760 -130 0
-8159 7762 0
-8159 189 0
8159 -7762 -189 0
-8160 8143 8144 0
-8160 -8143 -8144 0
8160 -8143 8144 0
8160 8143 -8144 0
-8161 8160 8145 0
-8161 -8160 -8145 0
8161 -8160 8145 0
8161 8160 -8145 0
-8162 8161 8146 0
-8162 -8161 -8146 0
8162 -8161 8146 0
8162 8161 -8146 0
-8163 8162 8147 0
-8163 -8162 -8147 0
8163 -8162 8147 0
8163 8162 -8147 0
-8164 8163 8148 0
-8164 -8163 -8148 0
8164 -8163 8148 0
8164 8163 -8148 0
-8165 8164 8149 0
-8165 -8164 -8149 0
8165 -8164 8149 0
8165 8164 -8149 0
-8166 8165 8150 0
-8166 -8165 -8150 0
8166 -8165 8150 0
8166 8165 -8150 0
-8167 8166 8151 0
-8167 -8166 -8151 0
8167 -8166 8151 0
8167 8166 -8151 0
-8168 8167 8152 0
-8168 -8167 -8152 0
8168 -8167 8152 0
8168 8167 -8152 0
-8169 8168 8153 0
-8169 -8168 -8153 0
8169 -8168 8153 0
8169 8168 -8153 0
-8170 8169 8154 0
-8170 -8169 -8154 0
8170 -8169 8154 0
8170 8169 -8154 0
-8171 8170 8155 0
-8171 -8170 -8155 0
8171 -8170 8155 0
8171 8170 -8155 0
-8172 8171 8156 0
-8172 -8171 -8156 0
8172 -8171 8156 0
8172 8171 -8156 0
-8173 8172 8157 0
-8173 -8172 -8157 0
8173 -8172 8157 0
8173 8172 -8157 0
-8174 8173 8158 0
-8174 -8173 -8158 0
8174 -8173 8158 0
8174 8173 -8158 0
-8175 8174 8159 0
-8175 -8174 -8159 0
8175 -8174 8159 0
8175 8174 -8159 0
-8175 0
-8176 7730 0
-8176 46 0
8176 -7730 -46 0
-8177 7732 0
-8177 42 0
8177 -7732 -42 0
-8178 7734 0
-8178 39 0
8178 -7734 -39 0
-8179 7736 0
-8179 40 0
8179 -7736 -40 0
-8180 7738 0
-8180 39 0
8180 -7738 -39 0
-8181 7740 0
-8181 42 0
8181 -7740 -42 0
-8182 7742 0
-8182 94 0
8182 -7742 -94 0
-8183 7744 0
-8183 90 0
8183 -7744 -90 0
-8184 7746 0
-8184 87 0
8184 -7746 -87 0
-8185 7748 0
-8185 88 0
8185 -7748 -88 0
-8186 7750 0
-8186 87 0
8186 -7750 -87 0
-8187 7752 0
-8187 90 0
8187 -7752 -90 0
-8188 7754 0
-8188 142 0
8188 -7754 -142 0
-8189 7756 0
-8189 136 0
8189 -7756 -136 0
-8190 7758 0
-8190 136 0
8190 -7758 -136 0
-8191 7760 0
-8191 142 0
8191 -7760 -142 0
-8192 7762 0
-8192 190 0
8192 -7762 -190 0
-8193 8176 8177 0
-8193 -8176 -8177 0
8193 -8176 8177 0
8193 8176 -8177 0
-8194 8193 8178 0
-8194 -8193 -8178 0
8194 -8193 8178 0
8194 8193 -8178 0
-8195 8194 8179 0
-8195 -8194 -8179 0
8195 -8194 8179 0
8195 8194 -8179 0
-8196 8195 8180 0
-8196 -8195 -8180 0
8196 -8195 8180 0
8196 8195 -8180 0
-8197 8196 8181 0
-8197 -8196 -8181 0
8197 -8196 8181 0
8197 8196 -8181 0
-8198 8197 8182 0
-8198 -8197 -8182 0
8198 -8197 8182 0
8198 8197 -8182 0
-8199 8198 8183 0
-8199 -8198 -8183 0
8199 -8198 8183 0
8199 8198 -8183 0
-8200 8199 8184 0
-8200 -8199 -8184 0
8200 -8199 8184 0
8200 8199 -8184 0
-8201 8200 8185 0
-8201 -8200 -8185 0
8201 -8200 8185 0
8201 8200 -8185 0
-8202 8201 8186 0
-8202 -8201 -8186 0
8202 -8201 8186 0
8202 8201 -8186 0
-8203 8202 8187 0
-8203 -8202 -8187 0
8203 -8202 8187 0
8203 8202 -8187 0
-8204 8203 8188 0
-8204 -8203 -8188 0
8204 -8203 8188 0
8204 8203 -8188 0
-8205 8204 8189 0
-8205 -8204 -8189 0
8205 -8204 8189 0
8205 8204 -8189 0
-8206 8205 8190 0
-8206 -8205 -8190 0
8206 -8205 8190 0
8206 8205 -8190 0
-8207 8206 8191 0
-8207 -8206 -8191 0
8207 -8206 8191 0
8207 8206 -8191 0
-8208 8207 8192 0
-8208 -8207 -8192 0
8208 -8207 8192 0
8208 8207 -8192 0
-8208 0
-8209 7730 0
-8209 47 0
8209 -7730 -47 0
-8210 7732 0
-8210 44 0
8210 -7732 -44 0
-8211 7734 0
-8211 40 0
8211 -7734 -40 0
-8212 7736 0
-8212 44 0
8212 -7736 -44 0
-8213 7738 0
-8213 47 0
8213 -7738 -47 0
-8214 7740 0
-8214 46 0
8214 -7740 -46 0
-8215 7742 0
-8215 95 0
8215 -7742 -95 0
-8216 7744 0
-8216 92 0
8216 -7744 -92 0
-8217 7746 0
-8217 88 0
8217 -7746 -88 0
-8218 7748 0
-8218 92 0
8218 -7748 -92 0
-8219 7750 0
-8219 95 0
8219 -7750 -95 0
-8220 7752 0
-8220 94 0
8220 -7752 -94 0
-8221 7754 0
-8221 143 0
8221 -7754 -143 0
-8222 7756 0
-8222 135 0
8222 -7756 -135 0
-8223 7758 0
-8223 140 0
8223 -7758 -140 0
-8224 7760 0
-8224 138 0
8224 -7760 -138 0
-8225 7762 0
-8225 191 0
8225 -7762 -191 0
-8226 8209 8210 0
-8226 -8209 -8210 0
8226 -8209 8210 0
8226 8209 -8210 0
-8227 8226 8211 0
-8227 -8226 -8211 0
8227 -8226 8211 0
8227 8226 -8211 0
-8228 8227 8212 0
-8228 -8227 -8212 0
8228 -8227 8212 0
8228 8227 -8212 0
-8229 8228 8213 0
-8229 -8228 -8213 0
8229 -8228 8213 0
8229 8228 -8213 0
-8230 8229 8214 0
-8230 -8229 -8214 0
8230 -8229 8214 0
8230 8229 -8214 0
-8231 8230 8215 0
-8231 -8230 -8215 0
8231 -8230 8215 0
8231 8230 -8215 0
-8232 8231 8216 0
-8232 -8231 -8216 0
8232 -8231 8216 0
8232 8231 -8216 0
-8233 8232 8217 0
-8233 -8232 -8217 0
8233 -8232 8217 0
8233 8232 -8217 0
-8234 8233 8218 0
-8234 -8233 -8218 0
8234 -8233 8218 0
8234 8233 -8218 0
-8235 8234 8219 0
-8235 -8234 -8219 0
8235 -8234 8219 0
8235 8234 -8219 0
-8236 8235 8220 0
-8236 -8235 -8220 0
8236 -8235 8220 0
8236 8235 -8220 0
-8237 8236 8221 0
-8237 -8236 -8221 0
8237 -8236 8221 0
8237 8236 -8221 0
-8238 8237 8222 0
-8238 -8237 -8222 0
8238 -8237 8222 0
8238 8237 -8222 0
-8239 8238 8223 0
-8239 -8238 -8223 0
8239 -8238 8223 0
8239 8238 -8223 0
-8240 8239 8224 0
-8240 -8239 -8224 0
8240 -8239 8224 0
8240 8239 -8224 0
-8241 8240 8225 0
-8241 -8240 -8225 0
8241 -8240 8225 0
8241 8240 -8225 0
-8241 0
-8242 7730 0
-8242 48 0
8242 -7730 -48 0
-8243 7732 0
-8243 43 0
8243 -7732 -43 0
-8244 7734 0
-8244 38 0
8244 -7734 -38 0
-8245 7736 0
-8245 48 0
8245 -7736 -48 0
-8246 7738 0
-8246 43 0
8246 -7738 -43 0
-8247 7740 0
-8247 38 0
8247 -7740 -38 0
-8248 7742 0
-8248 96 0
8248 -7742 -96 0
-8249 7744 0
-8249 91 0
8249 -7744 -91 0
-8250 7746 0
-8250 86 0
8250 -7746 -86 0
-8251 7748 0
-8251 96 0
8251 -7748 -96 0
-8252 7750 0
-8252 91 0
8252 -7750 -91 0
-8253 7752 0
-8253 86 0
8253 -7752 -86 0
-8254 7754 0
-8254 144 0
8254 -7754 -144 0
-8255 7756 0
-8255 134 0
8255 -7756 -134 0
-8256 7758 0
-8256 144 0
8256 -7758 -144 0
-8257 7760 0
-8257 134 0
8257 -7760 -134 0
-8258 7762 0
-8258 192 0
8258 -7762 -192 0
-8259 8242 8243 0
-8259 -8242 -8243 0
8259 -8242 8243 0
8259 8242 -8243 0
-8260 8259 8244 0
-8260 -8259 -8244 0
8260 -8259 8244 0
8260 8259 -8244 0
-8261 8260 8245 0
-8261 -8260 -8245 0
8261 -8260 8245 0
8261 8260 -8245 0
-8262 8261 8246 0
-8262 -8261 -8246 0
8262 -8261 8246 0
8262 8261 -8246 0
-8263 8262 8247 0
-8263 -8262 -8247 0
8263 -8262 8247 0
8263 8262 -8247 0
-8264 8263 8248 0
-8264 -8263 -8248 0
8264 -8263 8248 0
8264 8263 -8248 0
-8265 8264 8249 0
-8265 -8264 -8249 0
8265 -8264 8249 0
8265 8264 -8249 0
-8266 8265 8250 0
-8266 -8265 -8250 0
8266 -8265 8250 0
8266 8265 -8250 0
-8267 8266 8251 0
-8267 -8266 -8251 0
8267 -8266 8251 0
8267 8266 -8251 0
-8268 8267 8252 0
-8268 -8267 -8252 0
8268 -8267 8252 0
8268 8267 -8252 0
-8269 8268 8253 0
-8269 -8268 -8253 0
8269 -8268 8253 0
8269 8268 -8253 0
-8270 8269 8254 0
-8270 -8269 -8254 0
8270 -8269 8254 0
8270 8269 -8254 0
-8271 8270 8255 0
-8271 -8270 -8255 0
8271 -8270 8255 0
8271 8270 -8255 0
-8272 8271 8256 0
-8272 -8271 -8256 0
8272 -8271 8256 0
8272 8271 -8256 0
-8273 8272 8257 0
-8273 -8272 -8257 0
8273 -8272 8257 0
8273 8272 -8257 0
-8274 8273 8258 0
-8274 -8273 -8258 0
8274 -8273 8258 0
8274 8273 -8258 0
-8274 0
-8275 5 0
-8275 26 0
8275 -5 -26 0
-8276 8275 0
-8276 33 0
8276 -8275 -33 0
-8277 6 0
-8277 26 0
8277 -6 -26 0
-8278 8277 0
-8278 33 0
8278 -8277 -33 0
-8279 10 0
-8279 19 0
8279 -10 -19 0
-8280 8279 0
-8280 33 0
8280 -8279 -33 0
-8281 18 0
-8281 7 0
8281 -18 -7 0
-8282 8281 0
-8282 33 0
8282 -8281 -33 0
-8283 22 0
-8283 7 0
8283 -22 -7 0
-8284 8283 0
-8284 33 0
8284 -8283 -33 0
-8285 23 0
-8285 9 0
8285 -23 -9 0
-8286 8285 0
-8286 33 0
8286 -8285 -33 0
-8287 53 0
-8287 74 0
8287 -53 -74 0
-8288 8287 0
-8288 81 0
8288 -8287 -81 0
-8289 54 0
-8289 74 0
8289 -54 -74 0
-8290 8289 0
-8290 81 0
8290 -8289 -81 0
-8291 58 0
-8291 67 0
8291 -58 -67 0
-8292 8291 0
-8292 81 0
8292 -8291 -81 0
-8293 66 0
-8293 55 0
8293 -66 -55 0
-8294 8293 0
-8294 81 0
8294 -8293 -81 0
-8295 70 0
-8295 55 0
8295 -70 -55 0
-8296 8295 0
-8296 81 0
8296 -8295 -81 0
-8297 71 0
-8297 57 0
8297 -71 -57 0
-8298 8297 0
-8298 81 0
8298 -8297 -81 0
-8299 101 0
-8299 122 0
8299 -101 -122 0
-8300 8299 0
-8300 129 0
8300 -8299 -129 0
-8301 109 0
-8301 120 0
8301 -109 -120 0
-8302 8301 0
-8302 129 0
8302 -8301 -129 0
-8303 114 0
-8303 103 0
8303 -114 -103 0
-8304 8303 0
-8304 129 0
8304 -8303 -129 0
-8305 116 0
-8305 110 0
8305 -116 -110 0
-8306 8305 0
-8306 129 0
8306 -8305 -129 0
-8307 149 0
-8307 170 0
8307 -149 -170 0
-8308 8307 0
-8308 177 0
8308 -8307 -177 0
-8309 8276 8278 0
-8309 -8276 -8278 0
8309 -8276 8278 0
8309 8276 -8278 0
-8310 8309 8280 0
-8310 -8309 -8280 0
8310 -8309 8280 0
8310 8309 -8280 0
-8311 8310 8282 0
-8311 -8310 -8282 0
8311 -8310 8282 0
8311 8310 -8282 0
-8312 8311 8284 0
-8312 -8311 -8284 0
8312 -8311 8284 0
8312 8311 -8284 0
-8313 8312 8286 0
-8313 -8312 -8286 0
8313 -8312 8286 0
8313 8312 -8286 0
-8314 8313 8288 0
-8314 -8313 -8288 0
8314 -8313 8288 0
8314 8313 -8288 0
-8315 8314 8290 0
-8315 -8314 -8290 0
8315 -8314 8290 0
8315 8314 -8290 0
-8316 8315 8292 0
-8316 -8315 -8292 0
8316 -8315 8292 0
8316 8315 -8292 0
-8317 8316 8294 0
-8317 -8316 -8294 0
8317 -8316 8294 0
8317 8316 -8294 0
-8318 8317 8296 0
-8318 -8317 -8296 0
8318 -8317 8296 0
8318 8317 -8296 0
-8319 8318 8298 0
-8319 -8318 -8298 0
8319 -8318 8298 0
8319 8318 -8298 0
-8320 8319 8300 0
-8320 -8319 -8300 0
8320 -8319 8300 0
8320 8319 -8300 0
-8321 8320 8302 0
-8321 -8320 -8302 0
8321 -8320 8302 0
8321 8320 -8302 0
-8322 8321 8304 0
-8322 -8321 -8304 0
8322 -8321 8304 0
8322 8321 -8304 0
-8323 8322 8306 0
-8323 -8322 -8306 0
8323 -8322 8306 0
8323 8322 -8306 0
-8324 8323 8308 0
-8324 -8323 -8308 0
8324 -8323 8308 0
8324 8323 -8308 0
-8324 0
-8325 8275 0
-8325 34 0
8325 -8275 -34 0
-8326 8277 0
-8326 34 0
8326 -8277 -34 0
-8327 8279 0
-8327 35 0
8327 -8279 -35 0
-8328 8281 0
-8328 37 0
8328 -8281 -37 0
-8329 8283 0
-8329 37 0
8329 -8283 -37 0
-8330 8285 0
-8330 41 0
8330 -8285 -41 0
-8331 8287 0
-8331 82 0
8331 -8287 -82 0
-8332 8289 0
-8332 82 0
8332 -8289 -82 0
-8333 8291 0
-8333 83 0
8333 -8291 -83 0
-8334 8293 0
-8334 85 0
8334 -8293 -85 0
-8335 8295 0
-8335 85 0
8335 -8295 -85 0
-8336 8297 0
-8336 89 0
8336 -8297 -89 0
-8337 8299 0
-8337 130 0
8337 -8299 -130 0
-8338 8301 0
-8338 132 0
8338 -8301 -132 0
-8339 8303 0
-8339 133 0
8339 -8303 -133 0
-8340 8305 0
-8340 141 0
8340 -8305 -141 0
-8341 8307 0
-8341 178 0
8341 -8307 -178 0
-8342 8325 8326 0
-8342 -8325 -8326 0
8342 -8325 8326 0
8342 8325 -8326 0
-8343 8342 8327 0
-8343 -8342 -8327 0
8343 -8342 8327 0
8343 8342 -8327 0
-8344 8343 8328 0
-8344 -8343 -8328 0
8344 -8343 8328 0
8344 8343 -8328 0
-8345 8344 8329 0
-8345 -8344 -8329 0
8345 -8344 8329 0
8345 8344 -8329 0
-8346 8345 8330 0
-8346 -8345 -8330 0
8346 -8345 8330 0
8346 8345 -8330 0
-8347 8346 8331 0
-8347 -8346 -8331 0
8347 -8346 8331 0
8347 8346 -8331 0
-8348 8347 8332 0
-8348 -8347 -8332 0
8348 -8347 8332 0
8348 8347 -8332 0
-8349 8348 8333 0
-8349 -8348 -8333 0
8349 -8348 8333 0
8349 8348 -8333 0
-8350 8349 8334 0
-8350 -8349 -8334 0
8350 -8349 8334 0
8350 8349 -8334 0
-8351 8350 8335 0
-8351 -8350 -8335 0
8351 -8350 8335 0
8351 8350 -8335 0
-8352 8351 8336 0
-8352 -8351 -8336 0
8352 -8351 8336 0
8352 8351 -8336 0
-8353 8352 8337 0
-8353 -8352 -8337 0
8353 -8352 8337 0
8353 8352 -8337 0
-8354 8353 8338 0
-8354 -8353 -8338 0
8354 -8353 8338 0
8354 8353 -8338 0
-8355 8354 8339 0
-8355 -8354 -8339 0
8355 -8354 8339 0
8355 8354 -8339 0
-8356 8355 8340 0
-8356 -8355 -8340 0
8356 -8355 8340 0
8356 8355 -8340 0
-8357 8356 8341 0
-8357 -8356 -8341 0
8357 -8356 8341 0
8357 8356 -8341 0
-8357 0
-8358 8275 0
-8358 35 0
8358 -8275 -35 0
-8359 8277 0
-8359 36 0
8359 -8277 -36 0
-8360 8279 0
-8360 36 0
8360 -8279 -36 0
-8361 8281 0
-8361 41 0
8361 -8281 -41 0
-8362 8283 0
-8362 45 0
8362 -8283 -45 0
-8363 8285 0
-8363 45 0
8363 -8285 -45 0
-8364 8287 0
-8364 83 0
8364 -8287 -83 0
-8365 8289 0
-8365 84 0
8365 -8289 -84 0
-8366 8291 0
-8366 84 0
8366 -8291 -84 0
-8367 8293 0
-8367 89 0
8367 -8293 -89 0
-8368 8295 0
-8368 93 0
8368 -8295 -93 0
-8369 8297 0
-8369 93 0
8369 -8297 -93 0
-8370 8299 0
-8370 131 0
8370 -8299 -131 0
-8371 8301 0
-8371 131 0
8371 -8301 -131 0
-8372 8303 0
-8372 137 0
8372 -8303 -137 0
-8373 8305 0
-8373 137 0
8373 -8305 -137 0
-8374 8307 0
-8374 179 0
8374 -8307 -179 0
-8375 8358 8359 0
-8375 -8358 -8359 0
8375 -8358 8359 0
8375 8358 -8359 0
-8376 8375 8360 0
-8376 -8375 -8360 0
8376 -8375 8360 0
8376 8375 -8360 0
-8377 8376 8361 0
-8377 -8376 -8361 0
8377 -8376 8361 0
8377 8376 -8361 0
-8378 8377 8362 0
-8378 -8377 -8362 0
8378 -8377 8362 0
8378 8377 -8362 0
-8379 8378 8363 0
-8379 -8378 -8363 0
8379 -8378 8363 0
8379 8378 -8363 0
-8380 8379 8364 0
-8380 -8379 -8364 0
8380 -8379 8364 0
8380 8379 -8364 0
-8381 8380 8365 0
-8381 -8380 -8365 0
8381 -8380 8365 0
8381 8380 -8365 0
-8382 8381 8366 0
-8382 -8381 -8366 0
8382 -8381 8366 0
8382 8381 -8366 0
-8383 8382 8367 0
-8383 -8382 -8367 0
8383 -8382 8367 0
8383 8382 -8367 0
-8384 8383 8368 0
-8384 -8383 -8368 0
8384 -8383 8368 0
8384 8383 -8368 0
-8385 8384 8369 0
-8385 -8384 -8369 0
8385 -8384 8369 0
8385 8384 -8369 0
-8386 8385 8370 0
-8386 -8385 -8370 0
8386 -8385 8370 0
8386 8385 -8370 0
-8387 8386 8371 0
-8387 -8386 -8371 0
8387 -8386 8371 0
8387 8386 -8371 0
-8388 8387 8372 0
-8388 -8387 -8372 0
8388 -8387 8372 0
8388 8387 -8372 0
-8389 8388 8373 0
-8389 -8388 -8373 0
8389 -8388 8373 0
8389 8388 -8373 0
-8390 8389 8374 0
-8390 -8389 -8374 0
8390 -8389 8374 0
8390 8389 -8374 0
-8390 0
-8391 8275 0
-8391 36 0
8391 -8275 -36 0
-8392 8277 0
-8392 35 0
8392 -8277 -35 0
-8393 8279 0
-8393 34 0
8393 -8279 -34 0
-8394 8281 0
-8394 45 0
8394 -8281 -45 0
-8395 8283 0
-8395 41 0
8395 -8283 -41 0
-8396 8285 0
-8396 37 0
8396 -8285 -37 0
-8397 8287 0
-8397 84 0
8397 -8287 -84 0
-8398 8289 0
-8398 83 0
8398 -8289 -83 0
-8399 8291 0
-8399 82 0
8399 -8291 -82 0
-8400 8293 0
-8400 93 0
8400 -8293 -93 0
-8401 8295 0
-8401 89 0
8401 -8295 -89 0
-8402 8297 0
-8402 85 0
8402 -8297 -85 0
-8403 8299 0
-8403 132 0
8403 -8299 -132 0
-8404 8301 0
-8404 130 0
8404 -8301 -130 0
-8405 8303 0
-8405 141 0
8405 -8303 -141 0
-8406 8305 0
-8406 133 0
8406 -8305 -133 0
-8407 8307 0
-8407 180 0
8407 -8307 -180 0
-8408 8391 8392 0
-8408 -8391 -8392 0
8408 -8391 8392 0
8408 8391 -8392 0
-8409 8408 8393 0
-8409 -8408 -8393 0
8409 -8408 8393 0
8409 8408 -8393 0
-8410 8409 8394 0
-8410 -8409 -8394 0
8410 -8409 8394 0
8410 8409 -8394 0
-8411 8410 8395 0
-8411 -8410 -8395 0
8411 -8410 8395 0
8411 8410 -8395 0
-8412 8411 8396 0
-8412 -8411 -8396 0
8412 -8411 8396 0
8412 8411 -8396 0
-8413 8412 8397 0
-8413 -8412 -8397 0
8413 -8412 8397 0
8413 8412 -8397 0
-8414 8413 8398 0
-8414 -8413 -8398 0
8414 -8413 8398 0
8414 8413 -8398 0
-8415 8414 8399 0
-8415 -8414 -8399 0
8415 -8414 8399 0
8415 8414 -8399 0
-8416 8415 8400 0
-8416 -8415 -8400 0
8416 -8415 8400 0
8416 8415 -8400 0
-8417 8416 8401 0
-8417 -8416 -8401 0
8417 -8416 8401 0
8417 8416 -8401 0
-8418 8417 8402 0
-8418 -8417 -8402 0
8418 -8417 8402 0
8418 8417 -8402 0
-8419 8418 8403 0
-8419 -8418 -8403 0
8419 -8418 8403 0
8419 8418 -8403 0
-8420 8419 8404 0
-8420 -8419 -8404 0
8420 -8419 8404 0
8420 8419 -8404 0
-8421 8420 8405 0
-8421 -8420 -8405 0
8421 -8420 8405 0
8421 8420 -8405 0
-8422 8421 8406 0
-8422 -8421 -8406 0
8422 -8421 8406 0
8422 8421 -8406 0
-8423 8422 8407 0
-8423 -8422 -8407 0
8423 -8422 8407 0
8423 8422 -8407 0
-8423 0
-8424 8275 0
-8424 37 0
8424 -8275 -37 0
-8425 8277 0
-8425 37 0
8425 -8277 -37 0
-8426 8279 0
-8426 41 0
8426 -8279 -41 0
-8427 8281 0
-8427 34 0
8427 -8281 -34 0
-8428 8283 0
-8428 34 0
8428 -8283 -34 0
-8429 8285 0
-8429 35 0
8429 -8285 -35 0
-8430 8287 0
-8430 85 0
8430 -8287 -85 0
-8431 8289 0
-8431 85 0
8431 -8289 -85 0
-8432 8291 0
-8432 89 0
8432 -8291 -89 0
-8433 8293 0
-8433 82 0
8433 -8293 -82 0
-8434 8295 0
-8434 82 0
8434 -8295 -82 0
-8435 8297 0
-8435 83 0
8435 -8297 -83 0
-8436 8299 0
-8436 133 0
8436 -8299 -133 0
-8437 8301 0
-8437 141 0
8437 -8301 -141 0
-8438 8303 0
-8438 130 0
8438 -8303 -130 0
-8439 8305 0
-8439 132 0
8439 -8305 -132 0
-8440 8307 0
-8440 181 0
8440 -8307 -181 0
-8441 8424 8425 0
-8441 -8424 -8425 0
8441 -8424 8425 0
8441 8424 -8425 0
-8442 8441 8426 0
-8442 -8441 -8426 0
8442 -8441 8426 0
8442 8441 -8426 0
-8443 8442 8427 0
-8443 -8442 -8427 0
8443 -8442 8427 0
8443 8442 -8427 0
-8444 8443 8428 0
-8444 -8443 -8428 0
8444 -8443 8428 0
8444 8443 -8428 0
-8445 8444 8429 0
-8445 -8444 -8429 0
8445 -8444 8429 0
8445 8444 -8429 0
-8446 8445 8430 0
-8446 -8445 -8430 0
8446 -8445 8430 0
8446 8445 -8430 0
-8447 8446 8431 0
-8447 -8446 -8431 0
8447 -8446 8431 0
8447 8446 -8431 0
-8448 8447 8432 0
-8448 -8447 -8432 0
8448 -8447 8432 0
8448 8447 -8432 0
-8449 8448 8433 0
-8449 -8448 -8433 0
8449 -8448 8433 0
8449 8448 -8433 0
-8450 8449 8434 0
-8450 -8449 -8434 0
8450 -8449 8434 0
8450 8449 -8434 0
-8451 8450 8435 0
-8451 -8450 -8435 0
8451 -8450 8435 0
8451 8450 -8435 0
-8452 8451 8436 0
-8452 -8451 -8436 0
8452 -8451 8436 0
8452 8451 -8436 0
-8453 8452 8437 0
-8453 -8452 -8437 0
8453 -8452 8437 0
8453 8452 -8437 0
-8454 8453 8438 0
-8454 -8453 -8438 0
8454 -8453 8438 0
8454 8453 -8438 0
-8455 8454 8439 0
-8455 -8454 -8439 0
8455 -8454 8439 0
8455 8454 -8439 0
-8456 8455 8440 0
-8456 -8455 -8440 0
8456 -8455 8440 0
8456 8455 -8440 0
-8456 0
-8457 8275 0
-8457 38 0
8457 -8275 -38 0
-8458 8277 0
-8458 38 0
8458 -8277 -38 0
-8459 8279 0
-8459 43 0
8459 -8279 -43 0
-8460 8281 0
-8460 38 0
8460 -8281 -38 0
-8461 8283 0
-8461 38 0
8461 -8283 -38 0
-8462 8285 0
-8462 43 0
8462 -8285 -43 0
-8463 8287 0
-8463 86 0
8463 -8287 -86 0
-8464 8289 0
-8464 86 0
8464 -8289 -86 0
-8465 8291 0
-8465 91 0
8465 -8291 -91 0
-8466 8293 0
-8466 86 0
8466 -8293 -86 0
-8467 8295 0
-8467 86 0
8467 -8295 -86 0
-8468 8297 0
-8468 91 0
8468 -8297 -91 0
-8469 8299 0
-8469 134 0
8469 -8299 -134 0
-8470 8301 0
-8470 144 0
8470 -8301 -144 0
-8471 8303 0
-8471 134 0
8471 -8303 -134 0
-8472 8305 0
-8472 144 0
8472 -8305 -144 0
-8473 8307 0
-8473 182 0
8473 -8307 -182 0
-8474 8457 8458 0
-8474 -8457 -8458 0
8474 -8457 8458 0
8474 8457 -8458 0
-8475 8474 8459 0
-8475 -8474 -8459 0
8475 -8474 8459 0
8475 8474 -8459 0
-8476 8475 8460 0
-8476 -8475 -8460 0
8476 -8475 8460 0
8476 8475 -8460 0
-8477 8476 8461 0
-8477 -8476 -8461 0
8477 -8476 8461 0
8477 8476 -8461 0
-8478 8477 8462 0
-8478 -8477 -8462 0
8478 -8477 8462 0
8478 8477 -8462 0
-8479 8478 8463 0
-8479 -8478 -8463 0
8479 -8478 8463 0
8479 8478 -8463 0
-8480 8479 8464 0
-8480 -8479 -8464 0
8480 -8479 8464 0
8480 8479 -8464 0
-8481 8480 8465 0
-8481 -8480 -8465 0
8481 -8480 8465 0
8481 8480 -8465 0
-8482 8481 8466 0
-8482 -8481 -8466 0
8482 -8481 8466 0
8482 8481 -8466 0
-8483 8482 8467 0
-8483 -8482 -8467 0
8483 -8482 8467 0
8483 8482 -8467 0
-8484 8483 8468 0
-8484 -8483 -8468 0
8484 -8483 8468 0
8484 8483 -8468 0
-8485 8484 8469 0
-8485 -8484 -8469 0
8485 -8484 8469 0
8485 8484 -8469 0
-8486 8485 8470 0
-8486 -8485 -8470 0
8486 -8485 8470 0
8486 8485 -8470 0
-8487 8486 8471 0
-8487 -8486 -8471 0
8487 -8486 8471 0
8487 8486 -8471 0
-8488 8487 8472 0
-8488 -8487 -8472 0
8488 -8487 8472 0
8488 8487 -8472 0
-8489 8488 8473 0
-8489 -8488 -8473 0
8489 -8488 8473 0
8489 8488 -8473 0
-8489 0
-8490 8275 0
-8490 39 0
8490 -8275 -39 0
-8491 8277 0
-8491 40 0
8491 -8277 -40 0
-8492 8279 0
-8492 44 0
8492 -8279 -44 0
-8493 8281 0
-8493 42 0
8493 -8281 -42 0
-8494 8283 0
-8494 46 0
8494 -8283 -46 0
-8495 8285 0
-8495 47 0
8495 -8285 -47 0
-8496 8287 0
-8496 87 0
8496 -8287 -87 0
-8497 8289 0
-8497 88 0
8497 -8289 -88 0
-8498 8291 0
-8498 92 0
8498 -8291 -92 0
-8499 8293 0
-8499 90 0
8499 -8293 -90 0
-8500 8295 0
-8500 94 0
8500 -8295 -94 0
-8501 8297 0
-8501 95 0
8501 -8297 -95 0
-8502 8299 0
-8502 135 0
8502 -8299 -135 0
-8503 8301 0
-8503 143 0
8503 -8301 -143 0
-8504 8303 0
-8504 138 0
8504 -8303 -138 0
-8505 8305 0
-8505 140 0
8505 -8305 -140 0
-8506 8307 0
-8506 183 0
8506 -8307 -183 0
-8507 8490 8491 0
-8507 -8490 -8491 0
8507 -8490 8491 0
8507 8490 -8491 0
-8508 8507 8492 0
-8508 -8507 -8492 0
8508 -8507 8492 0
8508 8507 -8492 0
-8509 8508 8493 0
-8509 -8508 -8493 0
8509 -8508 8493 0
8509 8508 -8493 0
-8510 8509 8494 0
-8510 -8509 -8494 0
8510 -8509 8494 0
8510 8509 -8494 0
-8511 8510 8495 0
-8511 -8510 -8495 0
8511 -8510 8495 0
8511 8510 -8495 0
-8512 8511 8496 0
-8512 -8511 -8496 0
8512 -8511 8496 0
8512 8511 -8496 0
-8513 8512 8497 0
-8513 -8512 -8497 0
8513 -8512 8497 0
8513 8512 -8497 0
-8514 8513 8498 0
-8514 -8513 -8498 0
8514 -8513 8498 0
8514 8513 -8498 0
-8515 8514 8499 0
-8515 -8514 -8499 0
8515 -8514 8499 0
8515 8514 -8499 0
-8516 8515 8500 0
-8516 -8515 -8500 0
8516 -8515 8500 0
8516 8515 -8500 0
-8517 8516 8501 0
-8517 -8516 -8501 0
8517 -8516 8501 0
8517 8516 -8501 0
-8518 8517 8502 0
-8518 -8517 -8502 0
8518 -8517 8502 0
8518 8517 -8502 0
-8519 8518 8503 0
-8519 -8518 -8503 0
8519 -8518 8503 0
8519 8518 -8503 0
-8520 8519 8504 0
-8520 -8519 -8504 0
8520 -8519 8504 0
8520 8519 -8504 0
-8521 8520 8505 0
-8521 -8520 -8505 0
8521 -8520 8505 0
8521 8520 -8505 0
-8522 8521 8506 0
-8522 -8521 -8506 0
8522 -8521 8506 0
8522 8521 -8506 0
-8522 0
-8523 8275 0
-8523 40 0
8523 -8275 -40 0
-8524 8277 0
-8524 39 0
8524 -8277 -39 0
-8525 8279 0
-8525 42 0
8525 -8279 -42 0
-8526 8281 0
-8526 46 0
8526 -8281 -46 0
-8527 8283 0
-8527 42 0
8527 -8283 -42 0
-8528 8285 0
-8528 39 0
8528 -8285 -39 0
-8529 8287 0
-8529 88 0
8529 -8287 -88 0
-8530 8289 0
-8530 87 0
8530 -8289 -87 0
-8531 8291 0
-8531 90 0
8531 -8291 -90 0
-8532 8293 0
-8532 94 0
8532 -8293 -94 0
-8533 8295 0
-8533 90 0
8533 -8295 -90 0
-8534 8297 0
-8534 87 0
8534 -8297 -87 0
-8535 8299 0
-8535 136 0
8535 -8299 -136 0
-8536 8301 0
-8536 142 0
8536 -8301 -142 0
-8537 8303 0
-8537 142 0
8537 -8303 -142 0
-8538 8305 0
-8538 136 0
8538 -8305 -136 0
-8539 8307 0
-8539 184 0
8539 -8307 -184 0
-8540 8523 8524 0
-8540 -8523 -8524 0
8540 -8523 8524 0
8540 8523 -8524 0
-8541 8540 8525 0
-8541 -8540 -8525 0
8541 -8540 8525 0
8541 8540 -8525 0
-8542 8541 8526 0
-8542 -8541 -8526 0
8542 -8541 8526 0
8542 8541 -8526 0
-8543 8542 8527 0
-8543 -8542 -8527 0
8543 -8542 8527 0
8543 8542 -8527 0
-8544 8543 8528 0
-8544 -8543 -8528 0
8544 -8543 8528 0
8544 8543 -8528 0
-8545 8544 8529 0
-8545 -8544 -8529 0
8545 -8544 8529 0
8545 8544 -8529 0
-8546 8545 8530 0
-8546 -8545 -8530 0
8546 -8545 8530 0
8546 8545 -8530 0
-8547 8546 8531 0
-8547 -8546 -8531 0
8547 -8546 8531 0
8547 8546 -8531 0
-8548 8547 8532 0
-8548 -8547 -8532 0
8548 -8547 8532 0
8548 8547 -8532 0
-8549 8548 8533 0
-8549 -8548 -8533 0
8549 -8548 8533 0
8549 8548 -8533 0
-8550 8549 8534 0
-8550 -8549 -8534 0
8550 -8549 8534 0
8550 8549 -8534 0
-8551 8550 8535 0
-8551 -8550 -8535 0
8551 -8550 8535 0
8551 8550 -8535 0
-8552 8551 8536 0
-8552 -8551 -8536 0
8552 -8551 8536 0
8552 8551 -8536 0
-8553 8552 8537 0
-8553 -8552 -8537 0
8553 -8552 8537 0
8553 8552 -8537 0
-8554 8553 8538 0
-8554 -8553 -8538 0
8554 -8553 8538 0
8554 8553 -8538 0
-8555 8554 8539 0
-8555 -8554 -8539 0
8555 -8554 8539 0
8555 8554 -8539 0
-8555 0
-8556 8275 0
-8556 41 0
8556 -8275 -41 0
-8557 8277 0
-8557 45 0
8557 -8277 -45 0
-8558 8279 0
-8558 45 0
8558 -8279 -45 0
-8559 8281 0
-8559 35 0
8559 -8281 -35 0
-8560 8283 0
-8560 36 0
8560 -8283 -36 0
-8561 8285 0
-8561 36 0
8561 -8285 -36 0
-8562 8287 0
-8562 89 0
8562 -8287 -89 0
-8563 8289 0
-8563 93 0
8563 -8289 -93 0
-8564 8291 0
-8564 93 0
8564 -8291 -93 0
-8565 8293 0
-8565 83 0
8565 -8293 -83 0
-8566 8295 0
-8566 84 0
8566 -8295 -84 0
-8567 8297 0
-8567 84 0
8567 -8297 -84 0
-8568 8299 0
-8568 137 0
8568 -8299 -137 0
-8569 8301 0
-8569 137 0
8569 -8301 -137 0
-8570 8303 0
-8570 131 0
8570 -8303 -131 0
-8571 8305 0
-8571 131 0
8571 -8305 -131 0
-8572 8307 0
-8572 185 0
8572 -8307 -185 0
-8573 8556 8557 0
-8573 -8556 -8557 0
8573 -8556 8557 0
8573 8556 -8557 0
-8574 8573 8558 0
-8574 -8573 -8558 0
8574 -8573 8558 0
8574 8573 -8558 0
-8575 8574 8559 0
-8575 -8574 -8559 0
8575 -8574 8559 0
8575 8574 -8559 0
-8576 8575 8560 0
-8576 -8575 -8560 0
8576 -8575 8560 0
8576 8575 -8560 0
-8577 8576 8561 0
-8577 -8576 -8561 0
8577 -8576 8561 0
8577 8576 -8561 0
-8578 8577 8562 0
-8578 -8577 -8562 0
8578 -8577 8562 0
8578 8577 -8562 0
-8579 8578 8563 0
-8579 -8578 -8563 0
8579 -8578 8563 0
8579 8578 -8563 0
-8580 8579 8564 0
-8580 -8579 -8564 0
8580 -8579 8564 0
8580 8579 -8564 0
-8581 8580 8565 0
-8581 -8580 -8565 0
8581 -8580 8565 0
8581 8580 -8565 0
-8582 8581 8566 0
-8582 -8581 -8566 0
8582 -8581 8566 0
8582 8581 -8566 0
-8583 8582 8567 0
-8583 -8582 -8567 0
8583 -8582 8567 0
8583 8582 -8567 0
-8584 8583 8568 0
-8584 -8583 -8568 0
8584 -8583 8568 0
8584 8583 -8568 0
-8585 8584 8569 0
-8585 -8584 -8569 0
8585 -8584 8569 0
8585 8584 -8569 0
-8586 8585 8570 0
-8586 -8585 -8570 0
8586 -8585 8570 0
8586 8585 -8570 0
-8587 8586 8571 0
-8587 -8586 -8571 0
8587 -8586 8571 0
8587 8586 -8571 0
-8588 8587 8572 0
-8588 -8587 -8572 0
8588 -8587 8572 0
8588 8587 -8572 0
-8588 0
-8589 8275 0
-8589 42 0
8589 -8275 -42 0
-8590 8277 0
-8590 46 0
8590 -8277 -46 0
-8591 8279 0
-8591 47 0
8591 -8279 -47 0
-8592 8281 0
-8592 39 0
8592 -8281 -39 0
-8593 8283 0
-8593 40 0
8593 -8283 -40 0
-8594 8285 0
-8594 44 0
8594 -8285 -44 0
-8595 8287 0
-8595 90 0
8595 -8287 -90 0
-8596 8289 0
-8596 94 0
8596 -8289 -94 0
-8597 8291 0
-8597 95 0
8597 -8291 -95 0
-8598 8293 0
-8598 87 0
8598 -8293 -87 0
-8599 8295 0
-8599 88 0
8599 -8295 -88 0
-8600 8297 0
-8600 92 0
8600 -8297 -92 0
-8601 8299 0
-8601 138 0
8601 -8299 -138 0
-8602 8301 0
-8602 140 0
8602 -8301 -140 0
-8603 8303 0
-8603 135 0
8603 -8303 -135 0
-8604 8305 0
-8604 143 0
8604 -8305 -143 0
-8605 8307 0
-8605 186 0
8605 -8307 -186 0
-8606 8589 8590 0
-8606 -8589 -8590 0
8606 -8589 8590 0
8606 8589 -8590 0
-8607 8606 8591 0
-8607 -8606 -8591 0
8607 -8606 8591 0
8607 8606 -8591 0
-8608 8607 8592 0
-8608 -8607 -8592 0
8608 -8607 8592 0
8608 8607 -8592 0
-8609 8608 8593 0
-8609 -8608 -8593 0
8609 -8608 8593 0
8609 8608 -8593 0
-8610 8609 8594 0
-8610 -8609 -8594 0
8610 -8609 8594 0
8610 8609 -8594 0
-8611 8610 8595 0
-8611 -8610 -8595 0
8611 -8610 8595 0
8611 8610 -8595 0
-8612 8611 8596 0
-8612 -8611 -8596 0
8612 -8611 8596 0
8612 8611 -8596 0
-8613 8612 8597 0
-8613 -8612 -8597 0
8613 -8612 8597 0
8613 8612 -8597 0
-8614 8613 8598 0
-8614 -8613 -8598 0
8614 -8613 8598 0
8614 8613 -8598 0
-8615 8614 8599 0
-8615 -8614 -8599 0
8615 -8614 8599 0
8615 8614 -8599 0
-8616 8615 8600 0
-8616 -8615 -8600 0
8616 -8615 8600 0
8616 8615 -8600 0
-8617 8616 8601 0
-8617 -8616 -8601 0
8617 -8616 8601 0
8617 8616 -8601 0
-8618 8617 8602 0
-8618 -8617 -8602 0
8618 -8617 8602 0
8618 8617 -8602 0
-8619 8618 8603 0
-8619 -8618 -8603 0
8619 -8618 8603 0
8619 8618 -8603 0
-8620 8619 8604 0
-8620 -8619 -8604 0
8620 -8619 8604 0
8620 8619 -8604 0
-8621 8620 8605 0
-8621 -8620 -8605 0
8621 -8620 8605 0
8621 8620 -8605 0
-8621 0
-8622 8275 0
-8622 43 0
8622 -8275 -43 0
-8623 8277 0
-8623 48 0
8623 -8277 -48 0
-8624 8279 0
-8624 48 0
8624 -8279 -48 0
-8625 8281 0
-8625 43 0
8625 -8281 -43 0
-8626 8283 0
-8626 48 0
8626 -8283 -48 0
-8627 8285 0
-8627 48 0
8627 -8285 -48 0
-8628 8287 0
-8628 91 0
8628 -8287 -91 0
-8629 8289 0
-8629 96 0
8629 -8289 -96 0
-8630 8291 0
-8630 96 0
8630 -8291 -96 0
-8631 8293 0
-8631 91 0
8631 -8293 -91 0
-8632 8295 0
-8632 96 0
8632 -8295 -96 0
-8633 8297 0
-8633 96 0
8633 -8297 -96 0
-8634 8299 0
-8634 139 0
8634 -8299 -139 0
-8635 8301 0
-8635 139 0
8635 -8301 -139 0
-8636 8303 0
-8636 139 0
8636 -8303 -139 0
-8637 8305 0
-8637 139 0
8637 -8305 -139 0
-8638 8307 0
-8638 187 0
8638 -8307 -187 0
-8639 8622 8623 0
-8639 -8622 -8623 0
8639 -8622 8623 0
8639 8622 -8623 0
-8640 8639 8624 0
-8640 -8639 -8624 0
8640 -8639 8624 0
8640 8639 -8624 0
-8641 8640 8625 0
-8641 -8640 -8625 0
8641 -8640 8625 0
8641 8640 -8625 0
-8642 8641 8626 0
-8642 -8641 -8626 0
8642 -8641 8626 0
8642 8641 -8626 0
-8643 8642 8627 0
-8643 -8642 -8627 0
8643 -8642 8627 0
8643 8642 -8627 0
-8644 8643 8628 0
-8644 -8643 -8628 0
8644 -8643 8628 0
8644 8643 -8628 0
-8645 8644 8629 0
-8645 -8644 -8629 0
8645 -8644 8629 0
8645 8644 -8629 0
-8646 8645 8630 0
-8646 -8645 -8630 0
8646 -8645 8630 0
8646 8645 -8630 0
-8647 8646 8631 0
-8647 -8646 -8631 0
8647 -8646 8631 0
8647 8646 -8631 0
-8648 8647 8632 0
-8648 -8647 -8632 0
8648 -8647 8632 0
8648 8647 -8632 0
-8649 8648 8633 0
-8649 -8648 -8633 0
8649 -8648 8633 0
8649 8648 -8633 0
-8650 8649 8634 0
-8650 -8649 -8634 0
8650 -8649 8634 0
8650 8649 -8634 0
-8651 8650 8635 0
-8651 -8650 -8635 0
8651 -8650 8635 0
8651 8650 -8635 0
-8652 8651 8636 0
-8652 -8651 -8636 0
8652 -8651 8636 0
8652 8651 -8636 0
-8653 8652 8637 0
-8653 -8652 -8637 0
8653 -8652 8637 0
8653 8652 -8637 0
-8654 8653 8638 0
-8654 -8653 -8638 0
8654 -8653 8638 0
8654 8653 -8638 0
-8654 0
-8655 8275 0
-8655 44 0
8655 -8275 -44 0
-8656 8277 0
-8656 47 0
8656 -8277 -47 0
-8657 8279 0
-8657 46 0
8657 -8279 -46 0
-8658 8281 0
-8658 47 0
8658 -8281 -47 0
-8659 8283 0
-8659 44 0
8659 -8283 -44 0
-8660 8285 0
-8660 40 0
8660 -8285 -40 0
-8661 8287 0
-8661 92 0
8661 -8287 -92 0
-8662 8289 0
-8662 95 0
8662 -8289 -95 0
-8663 8291 0
-8663 94 0
8663 -8291 -94 0
-8664 8293 0
-8664 95 0
8664 -8293 -95 0
-8665 8295 0
-8665 92 0
8665 -8295 -92 0
-8666 8297 0
-8666 88 0
8666 -8297 -88 0
-8667 8299 0
-8667 140 0
8667 -8299 -140 0
-8668 8301 0
-8668 138 0
8668 -8301 -138 0
-8669 8303 0
-8669 143 0
8669 -8303 -143 0
-8670 8305 0
-8670 135 0
8670 -8305 -135 0
-8671 8307 0
-8671 188 0
8671 -8307 -188 0
-8672 8655 8656 0
-8672 -8655 -8656 0
8672 -8655 8656 0
8672 8655 -8656 0
-8673 8672 8657 0
-8673 -8672 -8657 0
8673 -8672 8657 0
8673 8672 -8657 0
-8674 8673 8658 0
-8674 -8673 -8658 0
8674 -8673 8658 0
8674 8673 -8658 0
-8675 8674 8659 0
-8675 -8674 -8659 0
8675 -8674 8659 0
8675 8674 -8659 0
-8676 8675 8660 0
-8676 -8675 -8660 0
8676 -8675 8660 0
8676 8675 -8660 0
-8677 8676 8661 0
-8677 -8676 -8661 0
8677 -8676 8661 0
8677 8676 -8661 0
-8678 8677 8662 0
-8678 -8677 -8662 0
8678 -8677 8662 0
8678 8677 -8662 0
-8679 8678 8663 0
-8679 -8678 -8663 0
8679 -8678 8663 0
8679 8678 -8663 0
-8680 8679 8664 0
-8680 -8679 -8664 0
8680 -8679 8664 0
8680 8679 -8664 0
-8681 8680 8665 0
-8681 -8680 -8665 0
8681 -8680 8665 0
8681 8680 -8665 0
-8682 8681 8666 0
-8682 -8681 -8666 0
8682 -8681 8666 0
8682 8681 -8666 0
-8683 8682 8667 0
-8683 -8682 -8667 0
8683 -8682 8667 0
8683 8682 -8667 0
-8684 8683 8668 0
-8684 -8683 -8668 0
8684 -8683 8668 0
8684 8683 -8668 0
-8685 8684 8669 0
-8685 -8684 -8669 0
8685 -8684 8669 0
8685 8684 -8669 0
-8686 8685 8670 0
-8686 -8685 -8670 0
8686 -8685 8670 0
8686 8685 -8670 0
-8687 8686 8671 0
-8687 -8686 -8671 0
8687 -8686 8671 0
8687 8686 -8671 0
-8687 0
-8688 8275 0
-8688 45 0
8688 -8275 -45 0
-8689 8277 0
-8689 41 0
8689 -8277 -41 0
-8690 8279 0
-8690 37 0
8690 -8279 -37 0
-8691 8281 0
-8691 36 0
8691 -8281 -36 0
-8692 8283 0
-8692 35 0
8692 -8283 -35 0
-8693 8285 0
-8693 34 0
8693 -8285 -34 0
-8694 8287 0
-8694 93 0
8694 -8287 -93 0
-8695 8289 0
-8695 89 0
8695 -8289 -89 0
-8696 8291 0
-8696 85 0
8696 -8291 -85 0
-8697 8293 0
-8697 84 0
8697 -8293 -84 0
-8698 8295 0
-8698 83 0
8698 -8295 -83 0
-8699 8297 0
-8699 82 0
8699 -8297 -82 0
-8700 8299 0
-8700 141 0
8700 -8299 -141 0
-8701 8301 0
-8701 133 0
8701 -8301 -133 0
-8702 8303 0
-8702 132 0
8702 -8303 -132 0
-8703 8305 0
-8703 130 0
8703 -8305 -130 0
-8704 8307 0
-8704 189 0
8704 -8307 -189 0
-8705 8688 8689 0
-8705 -8688 -8689 0
8705 -8688 8689 0
8705 8688 -8689 0
-8706 8705 8690 0
-8706 -8705 -8690 0
8706 -8705 8690 0
8706 8705 -8690 0
-8707 8706 8691 0
-8707 -8706 -8691 0
8707 -8706 8691 0
8707 8706 -8691 0
-8708 8707 8692 0
-8708 -8707 -8692 0
8708 -8707 8692 0
8708 8707 -8692 0
-8709 8708 8693 0
-8709 -8708 -8693 0
8709 -8708 8693 0
8709 8708 -8693 0
-8710 8709 8694 0
-8710 -8709 -8694 0
8710 -8709 8694 0
8710 8709 -8694 0
-8711 8710 8695 0
-8711 -8710 -8695 0
8711 -8710 8695 0
8711 8710 -8695 0
-8712 8711 8696 0
-8712 -8711 -8696 0
8712 -8711 8696 0
8712 8711 -8696 0
-8713 8712 8697 0
-8713 -8712 -8697 0
8713 -8712 8697 0
8713 8712 -8697 0
-8714 8713 8698 0
-8714 -8713 -8698 0
8714 -8713 8698 0
8714 8713 -8698 0
-8715 8714 8699 0
-8715 -8714 -8699 0
8715 -8714 8699 0
8715 8714 -8699 0
-8716 8715 8700 0
-8716 -8715 -8700 0
8716 -8715 8700 0
8716 8715 -8700 0
-8717 8716 8701 0
-8717 -8716 -8701 0
8717 -8716 8701 0
8717 8716 -8701 0
-8718 8717 8702 0
-8718 -8717 -8702 0
8718 -8717 8702 0
8718 8717 -8702 0
-8719 8718 8703 0
-8719 -8718 -8703 0
8719 -8718 8703 0
8719 8718 -8703 0
-8720 8719 8704 0
-8720 -8719 -8704 0
8720 -8719 8704 0
8720 8719 -8704 0
-8720 0
-8721 8275 0
-8721 46 0
8721 -8275 -46 0
-8722 8277 0
-8722 42 0
8722 -8277 -42 0
-8723 8279 0
-8723 39 0
8723 -8279 -39 0
-8724 8281 0
-8724 40 0
8724 -8281 -40 0
-8725 8283 0
-8725 39 0
8725 -8283 -39 0
-8726 8285 0
-8726 42 0
8726 -8285 -42 0
-8727 8287 0
-8727 94 0
8727 -8287 -94 0
-8728 8289 0
-8728 90 0
8728 -8289 -90 0
-8729 8291 0
-8729 87 0
8729 -8291 -87 0
-8730 8293 0
-8730 88 0
8730 -8293 -88 0
-8731 8295 0
-8731 87 0
8731 -8295 -87 0
-8732 8297 0
-8732 90 0
8732 -8297 -90 0
-8733 8299 0
-8733 142 0
8733 -8299 -142 0
-8734 8301 0
-8734 136 0
8734 -8301 -136 0
-8735 8303 0
-8735 136 0
8735 -8303 -136 0
-8736 8305 0
-8736 142 0
8736 -8305 -142 0
-8737 8307 0
-8737 190 0
8737 -8307 -190 0
-8738 8721 8722 0
-8738 -8721 -8722 0
8738 -8721 8722 0
8738 8721 -8722 0
-8739 8738 8723 0
-8739 -8738 -8723 0
8739 -8738 8723 0
8739 8738 -8723 0
-8740 8739 8724 0
-8740 -8739 -8724 0
8740 -8739 8724 0
8740 8739 -8724 0
-8741 8740 8725 0
-8741 -8740 -8725 0
8741 -8740 8725 0
8741 8740 -8725 0
-8742 8741 8726 0
-8742 -8741 -8726 0
8742 -8741 8726 0
8742 8741 -8726 0
-8743 8742 8727 0
-8743 -8742 -8727 0
8743 -8742 8727 0
8743 8742 -8727 0
-8744 8743 8728 0
-8744 -8743 -8728 0
8744 -8743 8728 0
8744 8743 -8728 0
-8745 8744 8729 0
-8745 -8744 -8729 0
8745 -8744 8729 0
8745 8744 -8729 0
-8746 8745 8730 0
-8746 -8745 -8730 0
8746 -8745 8730 0
8746 8745 -8730 0
-8747 8746 8731 0
-8747 -8746 -8731 0
8747 -8746 8731 0
8747 8746 -8731 0
-8748 8747 8732 0
-8748 -8747 -8732 0
8748 -8747 8732 0
8748 8747 -8732 0
-8749 8748 8733 0
-8749 -8748 -8733 0
8749 -8748 8733 0
8749 8748 -8733 0
-8750 8749 8734 0
-8750 -8749 -8734 0
8750 -8749 8734 0
8750 8749 -8734 0
-8751 8750 8735 0
-8751 -8750 -8735 0
8751 -8750 8735 0
8751 8750 -8735 0
-8752 8751 8736 0
-8752 -8751 -8736 0
8752 -8751 8736 0
8752 8751 -8736 0
-8753 8752 8737 0
-8753 -8752 -8737 0
8753 -8752 8737 0
8753 8752 -8737 0
-8753 0
-8754 8275 0
-8754 47 0
8754 -8275 -47 0
-8755 8277 0
-8755 44 0
8755 -8277 -44 0
-8756 8279 0
-8756 40 0
8756 -8279 -40 0
-8757 8281 0
-8757 44 0
8757 -8281 -44 0
-8758 8283 0
-8758 47 0
8758 -8283 -47 0
-8759 8285 0
-8759 46 0
8759 -8285 -46 0
-8760 8287 0
-8760 95 0
8760 -8287 -95 0
-8761 8289 0
-8761 92 0
8761 -8289 -92 0
-8762 8291 0
-8762 88 0
8762 -8291 -88 0
-8763 8293 0
-8763 92 0
8763 -8293 -92 0
-8764 8295 0
-8764 95 0
8764 -8295 -95 0
-8765 8297 0
-8765 94 0
8765 -8297 -94 0
-8766 8299 0
-8766 143 0
8766 -8299 -143 0
-8767 8301 0
-8767 135 0
8767 -8301 -135 0
-8768 8303 0
-8768 140 0
8768 -8303 -140 0
-8769 8305 0
-8769 138 0
8769 -8305 -138 0
-8770 8307 0
-8770 191 0
8770 -8307 -191 0
-8771 8754 8755 0
-8771 -8754 -8755 0
8771 -8754 8755 0
8771 8754 -8755 0
-8772 8771 8756 0
-8772 -8771 -8756 0
8772 -8771 8756 0
8772 8771 -8756 0
-8773 8772 8757 0
-8773 -8772 -8757 0
8773 -8772 8757 0
8773 8772 -8757 0
-8774 8773 8758 0
-8774 -8773 -8758 0
8774 -8773 8758 0
8774 8773 -8758 0
-8775 8774 8759 0
-8775 -8774 -8759 0
8775 -8774 8759 0
8775 8774 -8759 0
-8776 8775 8760 0
-8776 -8775 -8760 0
8776 -8775 8760 0
8776 8775 -8760 0
-8777 8776 8761 0
-8777 -8776 -8761 0
8777 -8776 8761 0
8777 8776 -8761 0
-8778 8777 8762 0
-8778 -8777 -8762 0
8778 -8777 8762 0
8778 8777 -8762 0
-8779 8778 8763 0
-8779 -8778 -8763 0
8779 -8778 8763 0
8779 8778 -8763 0
-8780 8779 8764 0
-8780 -8779 -8764 0
8780 -8779 8764 0
8780 8779 -8764 0
-8781 8780 8765 0
-8781 -8780 -8765 0
8781 -8780 8765 0
8781 8780 -8765 0
-8782 8781 8766 0
-8782 -8781 -8766 0
8782 -8781 8766 0
8782 8781 -8766 0
-8783 8782 8767 0
-8783 -8782 -8767 0
8783 -8782 8767 0
8783 8782 -8767 0
-8784 8783 8768 0
-8784 -8783 -8768 0
8784 -8783 8768 0
8784 8783 -8768 0
-8785 8784 8769 0
-8785 -8784 -8769 0
8785 -8784 8769 0
8785 8784 -8769 0
-8786 8785 8770 0
-8786 -8785 -8770 0
8786 -8785 8770 0
8786 8785 -8770 0
-8786 0
-8787 8275 0
-8787 48 0
8787 -8275 -48 0
-8788 8277 0
-8788 43 0
8788 -8277 -43 0
-8789 8279 0
-8789 38 0
8789 -8279 -38 0
-8790 8281 0
-8790 48 0
8790 -8281 -48 0
-8791 8283 0
-8791 43 0
8791 -8283 -43 0
-8792 8285 0
-8792 38 0
8792 -8285 -38 0
-8793 8287 0
-8793 96 0
8793 -8287 -96 0
-8794 8289 0
-8794 91 0
8794 -8289 -91 0
-8795 8291 0
-8795 86 0
8795 -8291 -86 0
-8796 8293 0
-8796 96 0
8796 -8293 -96 0
-8797 8295 0
-8797 91 0
8797 -8295 -91 0
-8798 8297 0
-8798 86 0
8798 -8297 -86 0
-8799 8299 0
-8799 144 0
8799 -8299 -144 0
-8800 8301 0
-8800 134 0
8800 -8301 -134 0
-8801 8303 0
-8801 144 0
8801 -8303 -144 0
-8802 8305 0
-8802 134 0
8802 -8305 -134 0
-8803 8307 0
-8803 192 0
8803 -8307 -192 0
-8804 8787 8788 0
-8804 -8787 -8788 0
8804 -8787 8788 0
8804 8787 -8788 0
-8805 8804 8789 0
-8805 -8804 -8789 0
8805 -8804 8789 0
8805 8804 -8789 0
-8806 8805 8790 0
-8806 -8805 -8790 0
8806 -8805 8790 0
8806 8805 -8790 0
-8807 8806 8791 0
-8807 -8806 -8791 0
8807 -8806 8791 0
8807 8806 -8791 0
-8808 8807 8792 0
-8808 -8807 -8792 0
8808 -8807 8792 0
8808 8807 -8792 0
-8809 8808 8793 0
-8809 -8808 -8793 0
8809 -8808 8793 0
8809 8808 -8793 0
-8810 8809 8794 0
-8810 -8809 -8794 0
8810 -8809 8794 0
8810 8809 -8794 0
-8811 8810 8795 0
-8811 -8810 -8795 0
8811 -8810 8795 0
8811 8810 -8795 0
-8812 8811 8796 0
-8812 -8811 -8796 0
8812 -8811 8796 0
8812 8811 -8796 0
-8813 8812 8797 0
-8813 -8812 -8797 0
8813 -8812 8797 0
8813 8812 -8797 0
-8814 8813 8798 0
-8814 -8813 -8798 0
8814 -8813 8798 0
8814 8813 -8798 0
-8815 8814 8799 0
-8815 -8814 -8799 0
8815 -8814 8799 0
8815 8814 -8799 0
-8816 8815 8800 0
-8816 -8815 -8800 0
8816 -8815 8800 0
8816 8815 -8800 0
-8817 8816 8801 0
-8817 -8816 -8801 0
8817 -8816 8801 0
8817 8816 -8801 0
-8818 8817 8802 0
-8818 -8817 -8802 0
8818 -8817 8802 0
8818 8817 -8802 0
-8819 8818 8803 0
-8819 -8818 -8803 0
8819 -8818 8803 0
8819 8818 -8803 0
-8819 0
-8820 5 0
-8820 27 0
8820 -5 -27 0
-8821 8820 0
-8821 33 0
8821 -8820 -33 0
-8822 6 0
-8822 28 0
8822 -6 -28 0
-8823 8822 0
-8823 33 0
8823 -8822 -33 0
-8824 10 0
-8824 20 0
8824 -10 -20 0
-8825 8824 0
-8825 33 0
8825 -8824 -33 0
-8826 18 0
-8826 11 0
8826 -18 -11 0
-8827 8826 0
-8827 33 0
8827 -8826 -33 0
-8828 22 0
-8828 15 0
8828 -22 -15 0
-8829 8828 0
-8829 33 0
8829 -8828 -33 0
-8830 23 0
-8830 13 0
8830 -23 -13 0
-8831 8830 0
-8831 33 0
8831 -8830 -33 0
-8832 53 0
-8832 75 0
8832 -53 -75 0
-8833 8832 0
-8833 81 0
8833 -8832 -81 0
-8834 54 0
-8834 76 0
8834 -54 -76 0
-8835 8834 0
-8835 81 0
8835 -8834 -81 0
-8836 58 0
-8836 68 0
8836 -58 -68 0
-8837 8836 0
-8837 81 0
8837 -8836 -81 0
-8838 66 0
-8838 59 0
8838 -66 -59 0
-8839 8838 0
-8839 81 0
8839 -8838 -81 0
-8840 70 0
-8840 63 0
8840 -70 -63 0
-8841 8840 0
-8841 81 0
8841 -8840 -81 0
-8842 71 0
-8842 61 0
8842 -71 -61 0
-8843 8842 0
-8843 81 0
8843 -8842 -81 0
-8844 101 0
-8844 123 0
8844 -101 -123 0
-8845 8844 0
-8845 129 0
8845 -8844 -129 0
-8846 109 0
-8846 119 0
8846 -109 -119 0
-8847 8846 0
-8847 129 0
8847 -8846 -129 0
-8848 114 0
-8848 107 0
8848 -114 -107 0
-8849 8848 0
-8849 129 0
8849 -8848 -129 0
-8850 116 0
-8850 106 0
8850 -116 -106 0
-8851 8850 0
-8851 129 0
8851 -8850 -129 0
-8852 149 0
-8852 171 0
8852 -149 -171 0
-8853 8852 0
-8853 177 0
8853 -8852 -177 0
-8854 8821 8823 0
-8854 -8821 -8823 0
8854 -8821 8823 0
8854 8821 -8823 0
-8855 8854 8825 0
-8855 -8854 -8825 0
8855 -8854 8825 0
8855 8854 -8825 0
-8856 8855 8827 0
-8856 -8855 -8827 0
8856 -8855 8827 0
8856 8855 -8827 0
-8857 8856 8829 0
-8857 -8856 -8829 0
8857 -8856 8829 0
8857 8856 -8829 0
-8858 8857 8831 0
-8858 -8857 -8831 0
8858 -8857 8831 0
8858 8857 -8831 0
-8859 8858 8833 0
-8859 -8858 -8833 0
8859 -8858 8833 0
8859 8858 -8833 0
-8860 8859 8835 0
-8860 -8859 -8835 0
8860 -8859 8835 0
8860 8859 -8835 0
-8861 8860 8837 0
-8861 -8860 -8837 0
8861 -8860 8837 0
8861 8860 -8837 0
-8862 8861 8839 0
-8862 -8861 -8839 0
8862 -8861 8839 0
8862 8861 -8839 0
-8863 8862 8841 0
-8863 -8862 -8841 0
8863 -8862 8841 0
8863 8862 -8841 0
-8864 8863 8843 0
-8864 -8863 -8843 0
8864 -8863 8843 0
8864 8863 -8843 0
-8865 8864 8845 0
-8865 -8864 -8845 0
8865 -8864 8845 0
8865 8864 -8845 0
-8866 8865 8847 0
-8866 -8865 -8847 0
8866 -8865 8847 0
8866 8865 -8847 0
-8867 8866 8849 0
-8867 -8866 -8849 0
8867 -8866 8849 0
8867 8866 -8849 0
-8868 8867 8851 0
-8868 -8867 -8851 0
8868 -8867 8851 0
8868 8867 -8851 0
-8869 8868 8853 0
-8869 -8868 -8853 0
8869 -8868 8853 0
8869 8868 -8853 0
-8869 0
-8870 8820 0
-8870 34 0
8870 -8820 -34 0
-8871 8822 0
-8871 34 0
8871 -8822 -34 0
-8872 8824 0
-8872 35 0
8872 -8824 -35 0
-8873 8826 0
-8873 37 0
8873 -8826 -37 0
-8874 8828 0
-8874 37 0
8874 -8828 -37 0
-8875 8830 0
-8875 41 0
8875 -8830 -41 0
-8876 8832 0
-8876 82 0
8876 -8832 -82 0
-8877 8834 0
-8877 82 0
8877 -8834 -82 0
-8878 8836 0
-8878 83 0
8878 -8836 -83 0
-8879 8838 0
-8879 85 0
8879 -8838 -85 0
-8880 8840 0
-8880 85 0
8880 -8840 -85 0
-8881 8842 0
-8881 89 0
8881 -8842 -89 0
-8882 8844 0
-8882 130 0
8882 -8844 -130 0
-8883 8846 0
-8883 132 0
8883 -8846 -132 0
-8884 8848 0
-8884 133 0
8884 -8848 -133 0
-8885 8850 0
-8885 141 0
8885 -8850 -141 0
-8886 8852 0
-8886 178 0
8886 -8852 -178 0
-8887 8870 8871 0
-8887 -8870 -8871 0
8887 -8870 8871 0
8887 8870 -8871 0
-8888 8887 8872 0
-8888 -8887 -8872 0
8888 -8887 8872 0
8888 8887 -8872 0
-8889 8888 8873 0
-8889 -8888 -8873 0
8889 -8888 8873 0
8889 8888 -8873 0
-8890 8889 8874 0
-8890 -8889 -8874 0
8890 -8889 8874 0
8890 8889 -8874 0
-8891 8890 8875 0
-8891 -8890 -8875 0
8891 -8890 8875 0
8891 8890 -8875 0
-8892 8891 8876 0
-8892 -8891 -8876 0
8892 -8891 8876 0
8892 8891 -8876 0
-8893 8892 8877 0
-8893 -8892 -8877 0
8893 -8892 8877 0
8893 8892 -8877 0
-8894 8893 8878 0
-8894 -8893 -8878 0
8894 -8893 8878 0
8894 8893 -8878 0
-8895 8894 8879 0
-8895 -8894 -8879 0
8895 -8894 8879 0
8895 8894 -8879 0
-8896 8895 8880 0
-8896 -8895 -8880 0
8896 -8895 8880 0
8896 8895 -8880 0
-8897 8896 8881 0
-8897 -8896 -8881 0
8897 -8896 8881 0
8897 8896 -8881 0
-8898 8897 8882 0
-8898 -8897 -8882 0
8898 -8897 8882 0
8898 8897 -8882 0
-8899 8898 8883 0
-8899 -8898 -8883 0
8899 -8898 8883 0
8899 8898 -8883 0
-8900 8899 8884 0
-8900 -8899 -8884 0
8900 -8899 8884 0
8900 8899 -8884 0
-8901 8900 8885 0
-8901 -8900 -8885 0
8901 -8900 8885 0
8901 8900 -8885 0
-8902 8901 8886 0
-8902 -8901 -8886 0
8902 -8901 8886 0
8902 8901 -8886 0
8902 0
-8903 8820 0
-8903 35 0
8903 -8820 -35 0
-8904 8822 0
-8904 36 0
8904 -8822 -36 0
-8905 8824 0
-8905 36 0
8905 -8824 -36 0
-8906 8826 0
-8906 41 0
8906 -8826 -41 0
-8907 8828 0
-8907 45 0
8907 -8828 -45 0
-8908 8830 0
-8908 45 0
8908 -8830 -45 0
-8909 8832 0
-8909 83 0
8909 -8832 -83 0
-8910 8834 0
-8910 84 0
8910 -8834 -84 0
-8911 8836 0
-8911 84 0
8911 -8836 -84 0
-8912 8838 0
-8912 89 0
8912 -8838 -89 0
-8913 8840 0
-8913 93 0
8913 -8840 -93 0
-8914 8842 0
-8914 93 0
8914 -8842 -93 0
-8915 8844 0
-8915 131 0
8915 -8844 -131 0
-8916 8846 0
-8916 131 0
8916 -8846 -131 0
-8917 8848 0
-8917 137 0
8917 -8848 -137 0
-8918 8850 0
-8918 137 0
8918 -8850 -137 0
-8919 8852 0
-8919 179 0
8919 -8852 -179 0
-8920 8903 8904 0
-8920 -8903 -8904 0
8920 -8903 8904 0
8920 8903 -8904 0
-8921 8920 8905 0
-8921 -8920 -8905 0
8921 -8920 8905 0
8921 8920 -8905 0
-8922 8921 8906 0
-8922 -8921 -8906 0
8922 -8921 8906 0
8922 8921 -8906 0
-8923 8922 8907 0
-8923 -8922 -8907 0
8923 -8922 8907 0
8923 8922 -8907 0
-8924 8923 8908 0
-8924 -8923 -8908 0
8924 -8923 8908 0
8924 8923 -8908 0
-8925 8924 8909 0
-8925 -8924 -8909 0
8925 -8924 8909 0
8925 8924 -8909 0
-8926 8925 8910 0
-8926 -8925 -8910 0
8926 -8925 8910 0
8926 8925 -8910 0
-8927 8926 8911 0
-8927 -8926 -8911 0
8927 -8926 8911 0
8927 8926 -8911 0
-8928 8927 8912 0
-8928 -8927 -8912 0
8928 -8927 8912 0
8928 8927 -8912 0
-8929 8928 8913 0
-8929 -8928 -8913 0
8929 -8928 8913 0
8929 8928 -8913 0
-8930 8929 8914 0
-8930 -8929 -8914 0
8930 -8929 8914 0
8930 8929 -8914 0
-8931 8930 8915 0
-8931 -8930 -8915 0
8931 -8930 8915 0
8931 8930 -8915 0
-8932 8931 8916 0
-8932 -8931 -8916 0
8932 -8931 8916 0
8932 8931 -8916 0
-8933 8932 8917 0
-8933 -8932 -8917 0
8933 -8932 8917 0
8933 8932 -8917 0
-8934 8933 8918 0
-8934 -8933 -8918 0
8934 -8933 8918 0
8934 8933 -8918 0
-8935 8934 8919 0
-8935 -8934 -8919 0
8935 -8934 8919 0
8935 8934 -8919 0
-8935 0
-8936 8820 0
-8936 36 0
8936 -8820 -36 0
-8937 8822 0
-8937 35 0
8937 -8822 -35 0
-8938 8824 0
-8938 34 0
8938 -8824 -34 0
-8939 8826 0
-8939 45 0
8939 -8826 -45 0
-8940 8828 0
-8940 41 0
8940 -8828 -41 0
-8941 8830 0
-8941 37 0
8941 -8830 -37 0
-8942 8832 0
-8942 84 0
8942 -8832 -84 0
-8943 8834 0
-8943 83 0
8943 -8834 -83 0
-8944 8836 0
-8944 82 0
8944 -8836 -82 0
-8945 8838 0
-8945 93 0
8945 -8838 -93 0
-8946 8840 0
-8946 89 0
8946 -8840 -89 0
-8947 8842 0
-8947 85 0
8947 -8842 -85 0
-8948 8844 0
-8948 132 0
8948 -8844 -132 0
-8949 8846 0
-8949 130 0
8949 -8846 -130 0
-8950 8848 0
-8950 141 0
8950 -8848 -141 0
-8951 8850 0
-8951 133 0
8951 -8850 -133 0
-8952 8852 0
-8952 180 0
8952 -8852 -180 0
-8953 8936 8937 0
-8953 -8936 -8937 0
8953 -8936 8937 0
8953 8936 -8937 0
-8954 8953 8938 0
-8954 -8953 -8938 0
8954 -8953 8938 0
8954 8953 -8938 0
-8955 8954 8939 0
-8955 -8954 -8939 0
8955 -8954 8939 0
8955 8954 -8939 0
-8956 8955 8940 0
-8956 -8955 -8940 0
8956 -8955 8940 0
8956 8955 -8940 0
-8957 8956 8941 0
-8957 -8956 -8941 0
8957 -8956 8941 0
8957 8956 -8941 0
-8958 8957 8942 0
-8958 -8957 -8942 0
8958 -8957 8942 0
8958 8957 -8942 0
-8959 8958 8943 0
-8959 -8958 -8943 0
8959 -8958 8943 0
8959 8958 -8943 0
-8960 8959 8944 0
-8960 -8959 -8944 0
8960 -8959 8944 0
8960 8959 -8944 0
-8961 8960 8945 0
-8961 -8960 -8945 0
8961 -8960 8945 0
8961 8960 -8945 0
-8962 8961 8946 0
-8962 -8961 -8946 0
8962 -8961 8946 0
8962 8961 -8946 0
-8963 8962 8947 0
-8963 -8962 -8947 0
8963 -8962 8947 0
8963 8962 -8947 0
-8964 8963 8948 0
-8964 -8963 -8948 0
8964 -8963 8948 0
8964 8963 -8948 0
-8965 8964 8949 0
-8965 -8964 -8949 0
8965 -8964 8949 0
8965 8964 -8949 0
-8966 8965 8950 0
-8966 -8965 -8950 0
8966 -8965 8950 0
8966 8965 -8950 0
-8967 8966 8951 0
-8967 -8966 -8951 0
8967 -8966 8951 0
8967 8966 -8951 0
-8968 8967 8952 0
-8968 -8967 -8952 0
8968 -8967 8952 0
8968 8967 -8952 0
-8968 0
-8969 8820 0
-8969 38 0
8969 -8820 -38 0
-8970 8822 0
-8970 38 0
8970 -8822 -38 0
-8971 8824 0
-8971 43 0
8971 -8824 -43 0
-8972 8826 0
-8972 38 0
8972 -8826 -38 0
-8973 8828 0
-8973 38 0
8973 -8828 -38 0
-8974 8830 0
-8974 43 0
8974 -8830 -43 0
-8975 8832 0
-8975 86 0
8975 -8832 -86 0
-8976 8834 0
-8976 86 0
8976 -8834 -86 0
-8977 8836 0
-8977 91 0
8977 -8836 -91 0
-8978 8838 0
-8978 86 0
8978 -8838 -86 0
-8979 8840 0
-8979 86 0
8979 -8840 -86 0
-8980 8842 0
-8980 91 0
8980 -8842 -91 0
-8981 8844 0
-8981 134 0
8981 -8844 -134 0
-8982 8846 0
-8982 144 0
8982 -8846 -144 0
-8983 8848 0
-8983 134 0
8983 -8848 -134 0
-8984 8850 0
-8984 144 0
8984 -8850 -144 0
-8985 8852 0
-8985 182 0
8985 -8852 -182 0
-8986 8969 8970 0
-8986 -8969 -8970 0
8986 -8969 8970 0
8986 8969 -8970 0
-8987 8986 8971 0
-8987 -8986 -8971 0
8987 -8986 8971 0
8987 8986 -8971 0
-8988 8987 8972 0
-8988 -8987 -8972 0
8988 -8987 8972 0
8988 8987 -8972 0
-8989 8988 8973 0
-8989 -8988 -8973 0
8989 -8988 8973 0
8989 8988 -8973 0
-8990 8989 8974 0
-8990 -8989 -8974 0
8990 -8989 8974 0
8990 8989 -8974 0
-8991 8990 8975 0
-8991 -8990 -8975 0
8991 -8990 8975 0
8991 8990 -8975 0
-8992 8991 8976 0
-8992 -8991 -8976 0
8992 -8991 8976 0
8992 8991 -8976 0
-8993 8992 8977 0
-8993 -8992 -8977 0
8993 -8992 8977 0
8993 8992 -8977 0
-8994 8993 8978 0
-8994 -8993 -8978 0
8994 -8993 8978 0
8994 8993 -8978 0
-8995 8994 8979 0
-8995 -8994 -8979 0
8995 -8994 8979 0
8995 8994 -8979 0
-8996 8995 8980 0
-8996 -8995 -8980 0
8996 -8995 8980 0
8996 8995 -8980 0
-8997 8996 8981 0
-8997 -8996 -8981 0
8997 -8996 8981 0
8997 8996 -8981 0
-8998 8997 8982 0
-8998 -8997 -8982 0
8998 -8997 8982 0
8998 8997 -8982 0
-8999 8998 8983 0
-8999 -8998 -8983 0
8999 -8998 8983 0
8999 8998 -8983 0
-9000 8999 8984 0
-9000 -8999 -8984 0
9000 -8999 8984 0
9000 8999 -8984 0
-9001 9000 8985 0
-9001 -9000 -8985 0
9001 -9000 8985 0
9001 9000 -8985 0
9001 0
-9002 8820 0
-9002 39 0
9002 -8820 -39 0
-9003 8822 0
-9003 40 0
9003 -8822 -40 0
-9004 8824 0
-9004 44 0
9004 -8824 -44 0
-9005 8826 0
-9005 42 0
9005 -8826 -42 0
-9006 8828 0
-9006 46 0
9006 -8828 -46 0
-9007 8830 0
-9007 47 0
9007 -8830 -47 0
-9008 8832 0
-9008 87 0
9008 -8832 -87 0
-9009 8834 0
-9009 88 0
9009 -8834 -88 0
-9010 8836 0
-9010 92 0
9010 -8836 -92 0
-9011 8838 0
-9011 90 0
9011 -8838 -90 0
-9012 8840 0
-9012 94 0
9012 -8840 -94 0
-9013 8842 0
-9013 95 0
9013 -8842 -95 0
-9014 8844 0
-9014 135 0
9014 -8844 -135 0
-9015 8846 0
-9015 143 0
9015 -8846 -143 0
-9016 8848 0
-9016 138 0
9016 -8848 -138 0
-9017 8850 0
-9017 140 0
9017 -8850 -140 0
-9018 8852 0
-9018 183 0
9018 -8852 -183 0
-9019 9002 9003 0
-9019 -9002 -9003 0
9019 -9002 9003 0
9019 9002 -9003 0
-9020 9019 9004 0
-9020 -9019 -9004 0
9020 -9019 9004 0
9020 9019 -9004 0
-9021 9020 9005 0
-9021 -9020 -9005 0
9021 -9020 9005 0
9021 9020 -9005 0
-9022 9021 9006 0
-9022 -9021 -9006 0
9022 -9021 9006 0
9022 9021 -9006 0
-9023 9022 9007 0
-9023 -9022 -9007 0
9023 -9022 9007 0
9023 9022 -9007 0
-9024 9023 9008 0
-9024 -9023 -9008 0
9024 -9023 9008 0
9024 9023 -9008 0
-9025 9024 9009 0
-9025 -9024 -9009 0
9025 -9024 9009 0
9025 9024 -9009 0
-9026 9025 9010 0
-9026 -9025 -9010 0
9026 -9025 9010 0
9026 9025 -9010 0
-9027 9026 9011 0
-9027 -9026 -9011 0
9027 -9026 9011 0
9027 9026 -9011 0
-9028 9027 9012 0
-9028 -9027 -9012 0
9028 -9027 9012 0
9028 9027 -9012 0
-9029 9028 9013 0
-9029 -9028 -9013 0
9029 -9028 9013 0
9029 9028 -9013 0
-9030 9029 9014 0
-9030 -9029 -9014 0
9030 -9029 9014 0
9030 9029 -9014 0
-9031 9030 9015 0
-9031 -9030 -9015 0
9031 -9030 9015 0
9031 9030 -9015 0
-9032 9031 9016 0
-9032 -9031 -9016 0
9032 -9031 9016 0
9032 9031 -9016 0
-9033 9032 9017 0
-9033 -9032 -9017 0
9033 -9032 9017 0
9033 9032 -9017 0
-9034 9033 9018 0
-9034 -9033 -9018 0
9034 -9033 9018 0
9034 9033 -9018 0
-9034 0
-9035 8820 0
-9035 40 0
9035 -8820 -40 0
-9036 8822 0
-9036 39 0
9036 -8822 -39 0
-9037 8824 0
-9037 42 0
9037 -8824 -42 0
-9038 8826 0
-9038 46 0
9038 -8826 -46 0
-9039 8828 0
-9039 42 0
9039 -8828 -42 0
-9040 8830 0
-9040 39 0
9040 -8830 -39 0
-9041 8832 0
-9041 88 0
9041 -8832 -88 0
-9042 8834 0
-9042 87 0
9042 -8834 -87 0
-9043 8836 0
-9043 90 0
9043 -8836 -90 0
-9044 8838 0
-9044 94 0
9044 -8838 -94 0
-9045 8840 0
-9045 90 0
9045 -8840 -90 0
-9046 8842 0
-9046 87 0
9046 -8842 -87 0
-9047 8844 0
-9047 136 0
9047 -8844 -136 0
-9048 8846 0
-9048 142 0
9048 -8846 -142 0
-9049 8848 0
-9049 142 0
9049 -8848 -142 0
-9050 8850 0
-9050 136 0
9050 -8850 -136 0
-9051 8852 0
-9051 184 0
9051 -8852 -184 0
-9052 9035 9036 0
-9052 -9035 -9036 0
9052 -9035 9036 0
9052 9035 -9036 0
-9053 9052 9037 0
-9053 -9052 -9037 0
9053 -9052 9037 0
9053 9052 -9037 0
-9054 9053 9038 0
-9054 -9053 -9038 0
9054 -9053 9038 0
9054 9053 -9038 0
-9055 9054 9039 0
-9055 -9054 -9039 0
9055 -9054 9039 0
9055 9054 -9039 0
-9056 9055 9040 0
-9056 -9055 -9040 0
9056 -9055 9040 0
9056 9055 -9040 0
-9057 9056 9041 0
-9057 -9056 -9041 0
9057 -9056 9041 0
9057 9056 -9041 0
-9058 9057 9042 0
-9058 -9057 -9042 0
9058 -9057 9042 0
9058 9057 -9042 0
-9059 9058 9043 0
-9059 -9058 -9043 0
9059 -9058 9043 0
9059 9058 -9043 0
-9060 9059 9044 0
-9060 -9059 -9044 0
9060 -9059 9044 0
9060 9059 -9044 0
-9061 9060 9045 0
-9061 -9060 -9045 0
9061 -9060 9045 0
9061 9060 -9045 0
-9062 9061 9046 0
-9062 -9061 -9046 0
9062 -9061 9046 0
9062 9061 -9046 0
-9063 9062 9047 0
-9063 -9062 -9047 0
9063 -9062 9047 0
9063 9062 -9047 0
-9064 9063 9048 0
-9064 -9063 -9048 0
9064 -9063 9048 0
9064 9063 -9048 0
-9065 9064 9049 0
-9065 -9064 -9049 0
9065 -9064 9049 0
9065 9064 -9049 0
-9066 9065 9050 0
-9066 -9065 -9050 0
9066 -9065 9050 0
9066 9065 -9050 0
-9067 9066 9051 0
-9067 -9066 -9051 0
9067 -9066 9051 0
9067 9066 -9051 0
-9067 0
-9068 8820 0
-9068 42 0
9068 -8820 -42 0
-9069 8822 0
-9069 46 0
9069 -8822 -46 0
-9070 8824 0
-9070 47 0
9070 -8824 -47 0
-9071 8826 0
-9071 39 0
9071 -8826 -39 0
-9072 8828 0
-9072 40 0
9072 -8828 -40 0
-9073 8830 0
-9073 44 0
9073 -8830 -44 0
-9074 8832 0
-9074 90 0
9074 -8832 -90 0
-9075 8834 0
-9075 94 0
9075 -8834 -94 0
-9076 8836 0
-9076 95 0
9076 -8836 -95 0
-9077 8838 0
-9077 87 0
9077 -8838 -87 0
-9078 8840 0
-9078 88 0
9078 -8840 -88 0
-9079 8842 0
-9079 92 0
9079 -8842 -92 0
-9080 8844 0
-9080 138 0
9080 -8844 -138 0
-9081 8846 0
-9081 140 0
9081 -8846 -140 0
-9082 8848 0
-9082 135 0
9082 -8848 -135 0
-9083 8850 0
-9083 143 0
9083 -8850 -143 0
-9084 8852 0
-9084 186 0
9084 -8852 -186 0
-9085 9068 9069 0
-9085 -9068 -9069 0
9085 -9068 9069 0
9085 9068 -9069 0
-9086 9085 9070 0
-9086 -9085 -9070 0
9086 -9085 9070 0
9086 9085 -9070 0
-9087 9086 9071 0
-9087 -9086 -9071 0
9087 -9086 9071 0
9087 9086 -9071 0
-9088 9087 9072 0
-9088 -9087 -9072 0
9088 -9087 9072 0
9088 9087 -9072 0
-9089 9088 9073 0
-9089 -9088 -9073 0
9089 -9088 9073 0
9089 9088 -9073 0
-9090 9089 9074 0
-9090 -9089 -9074 0
9090 -9089 9074 0
9090 9089 -9074 0
-9091 9090 9075 0
-9091 -9090 -9075 0
9091 -9090 9075 0
9091 9090 -9075 0
-9092 9091 9076 0
-9092 -9091 -9076 0
9092 -9091 9076 0
9092 9091 -9076 0
-9093 9092 9077 0
-9093 -9092 -9077 0
9093 -9092 9077 0
9093 9092 -9077 0
-9094 9093 9078 0
-9094 -9093 -9078 0
9094 -9093 9078 0
9094 9093 -9078 0
-9095 9094 9079 0
-9095 -9094 -9079 0
9095 -9094 9079 0
9095 9094 -9079 0
-9096 9095 9080 0
-9096 -9095 -9080 0
9096 -9095 9080 0
9096 9095 -9080 0
-9097 9096 9081 0
-9097 -9096 -9081 0
9097 -9096 9081 0
9097 9096 -9081 0
-9098 9097 9082 0
-9098 -9097 -9082 0
9098 -9097 9082 0
9098 9097 -9082 0
-9099 9098 9083 0
-9099 -9098 -9083 0
9099 -9098 9083 0
9099 9098 -9083 0
-9100 9099 9084 0
-9100 -9099 -9084 0
9100 -9099 9084 0
9100 9099 -9084 0
-9100 0
-9101 8820 0
-9101 44 0
9101 -8820 -44 0
-9102 8822 0
-9102 47 0
9102 -8822 -47 0
-9103 8824 0
-9103 46 0
9103 -8824 -46 0
-9104 8826 0
-9104 47 0
9104 -8826 -47 0
-9105 8828 0
-9105 44 0
9105 -8828 -44 0
-9106 8830 0
-9106 40 0
9106 -8830 -40 0
-9107 8832 0
-9107 92 0
9107 -8832 -92 0
-9108 8834 0
-9108 95 0
9108 -8834 -95 0
-9109 8836 0
-9109 94 0
9109 -8836 -94 0
-9110 8838 0
-9110 95 0
9110 -8838 -95 0
-9111 8840 0
-9111 92 0
9111 -8840 -92 0
-9112 8842 0
-9112 88 0
9112 -8842 -88 0
-9113 8844 0
-9113 140 0
9113 -8844 -140 0
-9114 8846 0
-9114 138 0
9114 -8846 -138 0
-9115 8848 0
-9115 143 0
9115 -8848 -143 0
-9116 8850 0
-9116 135 0
9116 -8850 -135 0
-9117 8852 0
-9117 188 0
9117 -8852 -188 0
-9118 9101 9102 0
-9118 -9101 -9102 0
9118 -9101 9102 0
9118 9101 -9102 0
-9119 9118 9103 0
-9119 -9118 -9103 0
9119 -9118 9103 0
9119 9118 -9103 0
-9120 9119 9104 0
-9120 -9119 -9104 0
9120 -9119 9104 0
9120 9119 -9104 0
-9121 9120 9105 0
-9121 -9120 -9105 0
9121 -9120 9105 0
9121 9120 -9105 0
-9122 9121 9106 0
-9122 -9121 -9106 0
9122 -9121 9106 0
9122 9121 -9106 0
-9123 9122 9107 0
-9123 -9122 -9107 0
9123 -9122 9107 0
9123 9122 -9107 0
-9124 9123 9108 0
-9124 -9123 -9108 0
9124 -9123 9108 0
9124 9123 -9108 0
-9125 9124 9109 0
-9125 -9124 -9109 0
9125 -9124 9109 0
9125 9124 -9109 0
-9126 9125 9110 0
-9126 -9125 -9110 0
9126 -9125 9110 0
9126 9125 -9110 0
-9127 9126 9111 0
-9127 -9126 -9111 0
9127 -9126 9111 0
9127 9126 -9111 0
-9128 9127 9112 0
-9128 -9127 -9112 0
9128 -9127 9112 0
9128 9127 -9112 0
-9129 9128 9113 0
-9129 -9128 -9113 0
9129 -9128 9113 0
9129 9128 -9113 0
-9130 9129 9114 0
-9130 -9129 -9114 0
9130 -9129 9114 0
9130 9129 -9114 0
-9131 9130 9115 0
-9131 -9130 -9115 0
9131 -9130 9115 0
9131 9130 -9115 0
-9132 9131 9116 0
-9132 -9131 -9116 0
9132 -9131 9116 0
9132 9131 -9116 0
-9133 9132 9117 0
-9133 -9132 -9117 0
9133 -9132 9117 0
9133 9132 -9117 0
-9133 0
-9134 8820 0
-9134 48 0
9134 -8820 -48 0
-9135 8822 0
-9135 43 0
9135 -8822 -43 0
-9136 8824 0
-9136 38 0
9136 -8824 -38 0
-9137 8826 0
-9137 48 0
9137 -8826 -48 0
-9138 8828 0
-9138 43 0
9138 -8828 -43 0
-9139 8830 0
-9139 38 0
9139 -8830 -38 0
-9140 8832 0
-9140 96 0
9140 -8832 -96 0
-9141 8834 0
-9141 91 0
9141 -8834 -91 0
-9142 8836 0
-9142 86 0
9142 -8836 -86 0
-9143 8838 0
-9143 96 0
9143 -8838 -96 0
-9144 8840 0
-9144 91 0
9144 -8840 -91 0
-9145 8842 0
-9145 86 0
9145 -8842 -86 0
-9146 8844 0
-9146 144 0
9146 -8844 -144 0
-9147 8846 0
-9147 134 0
9147 -8846 -134 0
-9148 8848 0
-9148 144 0
9148 -8848 -144 0
-9149 8850 0
-9149 134 0
9149 -8850 -134 0
-9150 8852 0
-9150 192 0
9150 -8852 -192 0
-9151 9134 9135 0
-9151 -9134 -9135 0
9151 -9134 9135 0
9151 9134 -9135 0
-9152 9151 9136 0
-9152 -9151 -9136 0
9152 -9151 9136 0
9152 9151 -9136 0
-9153 9152 9137 0
-9153 -9152 -9137 0
9153 -9152 9137 0
9153 9152 -9137 0
-9154 9153 9138 0
-9154 -9153 -9138 0
9154 -9153 9138 0
9154 9153 -9138 0
-9155 9154 9139 0
-9155 -9154 -9139 0
9155 -9154 9139 0
9155 9154 -9139 0
-9156 9155 9140 0
-9156 -9155 -9140 0
9156 -9155 9140 0
9156 9155 -9140 0
-9157 9156 9141 0
-9157 -9156 -9141 0
9157 -9156 9141 0
9157 9156 -9141 0
-9158 9157 9142 0
-9158 -9157 -9142 0
9158 -9157 9142 0
9158 9157 -9142 0
-9159 9158 9143 0
-9159 -9158 -9143 0
9159 -9158 9143 0
9159 9158 -9143 0
-9160 9159 9144 0
-9160 -9159 -9144 0
9160 -9159 9144 0
9160 9159 -9144 0
-9161 9160 9145 0
-9161 -9160 -9145 0
9161 -9160 9145 0
9161 9160 -9145 0
-9162 9161 9146 0
-9162 -9161 -9146 0
9162 -9161 9146 0
9162 9161 -9146 0
-9163 9162 9147 0
-9163 -9162 -9147 0
9163 -9162 9147 0
9163 9162 -9147 0
-9164 9163 9148 0
-9164 -9163 -9148 0
9164 -9163 9148 0
9164 9163 -9148 0
-9165 9164 9149 0
-9165 -9164 -9149 0
9165 -9164 9149 0
9165 9164 -9149 0
-9166 9165 9150 0
-9166 -9165 -9150 0
9166 -9165 9150 0
9166 9165 -9150 0
-9166 0
-9167 5 0
-9167 30 0
9167 -5 -30 0
-9168 9167 0
-9168 33 0
9168 -9167 -33 0
-9169 6 0
-9169 30 0
9169 -6 -30 0
-9170 9169 0
-9170 33 0
9170 -9169 -33 0
-9171 10 0
-9171 31 0
9171 -10 -31 0
-9172 9171 0
-9172 33 0
9172 -9171 -33 0
-9173 18 0
-9173 8 0
9173 -18 -8 0
-9174 9173 0
-9174 33 0
9174 -9173 -33 0
-9175 22 0
-9175 8 0
9175 -22 -8 0
-9176 9175 0
-9176 33 0
9176 -9175 -33 0
-9177 23 0
-9177 12 0
9177 -23 -12 0
-9178 9177 0
-9178 33 0
9178 -9177 -33 0
-9179 53 0
-9179 78 0
9179 -53 -78 0
-9180 9179 0
-9180 81 0
9180 -9179 -81 0
-9181 54 0
-9181 78 0
9181 -54 -78 0
-9182 9181 0
-9182 81 0
9182 -9181 -81 0
-9183 58 0
-9183 79 0
9183 -58 -79 0
-9184 9183 0
-9184 81 0
9184 -9183 -81 0
-9185 66 0
-9185 56 0
9185 -66 -56 0
-9186 9185 0
-9186 81 0
9186 -9185 -81 0
-9187 70 0
-9187 56 0
9187 -70 -56 0
-9188 9187 0
-9188 81 0
9188 -9187 -81 0
-9189 71 0
-9189 60 0
9189 -71 -60 0
-9190 9189 0
-9190 81 0
9190 -9189 -81 0
-9191 101 0
-9191 126 0
9191 -101 -126 0
-9192 9191 0
-9192 129 0
9192 -9191 -129 0
-9193 109 0
-9193 128 0
9193 -109 -128 0
-9194 9193 0
-9194 129 0
9194 -9193 -129 0
-9195 114 0
-9195 104 0
9195 -114 -104 0
-9196 9195 0
-9196 129 0
9196 -9195 -129 0
-9197 116 0
-9197 112 0
9197 -116 -112 0
-9198 9197 0
-9198 129 0
9198 -9197 -129 0
-9199 149 0
-9199 174 0
9199 -149 -174 0
-9200 9199 0
-9200 177 0
9200 -9199 -177 0
-9201 9168 9170 0
-9201 -9168 -9170 0
9201 -9168 9170 0
9201 9168 -9170 0
-9202 9201 9172 0
-9202 -9201 -9172 0
9202 -9201 9172 0
9202 9201 -9172 0
-9203 9202 9174 0
-9203 -9202 -9174 0
9203 -9202 9174 0
9203 9202 -9174 0
-9204 9203 9176 0
-9204 -9203 -9176 0
9204 -9203 9176 0
9204 9203 -9176 0
-9205 9204 9178 0
-9205 -9204 -9178 0
9205 -9204 9178 0
9205 9204 -9178 0
-9206 9205 9180 0
-9206 -9205 -9180 0
9206 -9205 9180 0
9206 9205 -9180 0
-9207 9206 9182 0
-9207 -9206 -9182 0
9207 -9206 9182 0
9207 9206 -9182 0
-9208 9207 9184 0
-9208 -9207 -9184 0
9208 -9207 9184 0
9208 9207 -9184 0
-9209 9208 9186 0
-9209 -9208 -9186 0
9209 -9208 9186 0
9209 9208 -9186 0
-9210 9209 9188 0
-9210 -9209 -9188 0
9210 -9209 9188 0
9210 9209 -9188 0
-9211 9210 9190 0
-9211 -9210 -9190 0
9211 -9210 9190 0
9211 9210 -9190 0
-9212 9211 9192 0
-9212 -9211 -9192 0
9212 -9211 9192 0
9212 9211 -9192 0
-9213 9212 9194 0
-9213 -9212 -9194 0
9213 -9212 9194 0
9213 9212 -9194 0
-9214 9213 9196 0
-9214 -9213 -9196 0
9214 -9213 9196 0
9214 9213 -9196 0
-9215 9214 9198 0
-9215 -9214 -9198 0
9215 -9214 9198 0
9215 9214 -9198 0
-9216 9215 9200 0
-9216 -9215 -9200 0
9216 -9215 9200 0
9216 9215 -9200 0
-9216 0
-9217 9167 0
-9217 34 0
9217 -9167 -34 0
-9218 9169 0
-9218 34 0
9218 -9169 -34 0
-9219 9171 0
-9219 35 0
9219 -9171 -35 0
-9220 9173 0
-9220 37 0
9220 -9173 -37 0
-9221 9175 0
-9221 37 0
9221 -9175 -37 0
-9222 9177 0
-9222 41 0
9222 -9177 -41 0
-9223 9179 0
-9223 82 0
9223 -9179 -82 0
-9224 9181 0
-9224 82 0
9224 -9181 -82 0
-9225 9183 0
-9225 83 0
9225 -9183 -83 0
-9226 9185 0
-9226 85 0
9226 -9185 -85 0
-9227 9187 0
-9227 85 0
9227 -9187 -85 0
-9228 9189 0
-9228 89 0
9228 -9189 -89 0
-9229 9191 0
-9229 130 0
9229 -9191 -130 0
-9230 9193 0
-9230 132 0
9230 -9193 -132 0
-9231 9195 0
-9231 133 0
9231 -9195 -133 0
-9232 9197 0
-9232 141 0
9232 -9197 -141 0
-9233 9199 0
-9233 178 0
9233 -9199 -178 0
-9234 9217 9218 0
-9234 -9217 -9218 0
9234 -9217 9218 0
9234 9217 -9218 0
-9235 9234 9219 0
-9235 -9234 -9219 0
9235 -9234 9219 0
9235 9234 -9219 0
-9236 9235 9220 0
-9236 -9235 -9220 0
9236 -9235 9220 0
9236 9235 -9220 0
-9237 9236 9221 0
-9237 -9236 -9221 0
9237 -9236 9221 0
9237 9236 -9221 0
-9238 9237 9222 0
-9238 -9237 -9222 0
9238 -9237 9222 0
9238 9237 -9222 0
-9239 9238 9223 0
-9239 -9238 -9223 0
9239 -9238 9223 0
9239 9238 -9223 0
-9240 9239 9224 0
-9240 -9239 -9224 0
9240 -9239 9224 0
9240 9239 -9224 0
-9241 9240 9225 0
-9241 -9240 -9225 0
9241 -9240 9225 0
9241 9240 -9225 0
-9242 9241 9226 0
-9242 -9241 -9226 0
9242 -9241 9226 0
9242 9241 -9226 0
-9243 9242 9227 0
-9243 -9242 -9227 0
9243 -9242 9227 0
9243 9242 -9227 0
-9244 9243 9228 0
-9244 -9243 -9228 0
9244 -9243 9228 0
9244 9243 -9228 0
-9245 9244 9229 0
-9245 -9244 -9229 0
9245 -9244 9229 0
9245 9244 -9229 0
-9246 9245 9230 0
-9246 -9245 -9230 0
9246 -9245 9230 0
9246 9245 -9230 0
-9247 9246 9231 0
-9247 -9246 -9231 0
9247 -9246 9231 0
9247 9246 -9231 0
-9248 9247 9232 0
-9248 -9247 -9232 0
9248 -9247 9232 0
9248 9247 -9232 0
-9249 9248 9233 0
-9249 -9248 -9233 0
9249 -9248 9233 0
9249 9248 -9233 0
-9249 0
-9250 9167 0
-9250 35 0
9250 -9167 -35 0
-9251 9169 0
-9251 36 0
9251 -9169 -36 0
-9252 9171 0
-9252 36 0
9252 -9171 -36 0
-9253 9173 0
-9253 41 0
9253 -9173 -41 0
-9254 9175 0
-9254 45 0
9254 -9175 -45 0
-9255 9177 0
-9255 45 0
9255 -9177 -45 0
-9256 9179 0
-9256 83 0
9256 -9179 -83 0
-9257 9181 0
-9257 84 0
9257 -9181 -84 0
-9258 9183 0
-9258 84 0
9258 -9183 -84 0
-9259 9185 0
-9259 89 0
9259 -9185 -89 0
-9260 9187 0
-9260 93 0
9260 -9187 -93 0
-9261 9189 0
-9261 93 0
9261 -9189 -93 0
-9262 9191 0
-9262 131 0
9262 -9191 -131 0
-9263 9193 0
-9263 131 0
9263 -9193 -131 0
-9264 9195 0
-9264 137 0
9264 -9195 -137 0
-9265 9197 0
-9265 137 0
9265 -9197 -137 0
-9266 9199 0
-9266 179 0
9266 -9199 -179 0
-9267 9250 9251 0
-9267 -9250 -9251 0
9267 -9250 9251 0
9267 9250 -9251 0
-9268 9267 9252 0
-9268 -9267 -9252 0
9268 -9267 9252 0
9268 9267 -9252 0
-9269 9268 9253 0
-9269 -9268 -9253 0
9269 -9268 9253 0
9269 9268 -9253 0
-9270 9269 9254 0
-9270 -9269 -9254 0
9270 -9269 9254 0
9270 9269 -9254 0
-9271 9270 9255 0
-9271 -9270 -9255 0
9271 -9270 9255 0
9271 9270 -9255 0
-9272 9271 9256 0
-9272 -9271 -9256 0
9272 -9271 9256 0
9272 9271 -9256 0
-9273 9272 9257 0
-9273 -9272 -9257 0
9273 -9272 9257 0
9273 9272 -9257 0
-9274 9273 9258 0
-9274 -9273 -9258 0
9274 -9273 9258 0
9274 9273 -9258 0
-9275 9274 9259 0
-9275 -9274 -9259 0
9275 -9274 9259 0
9275 9274 -9259 0
-9276 9275 9260 0
-9276 -9275 -9260 0
9276 -9275 9260 0
9276 9275 -9260 0
-9277 9276 9261 0
-9277 -9276 -9261 0
9277 -9276 9261 0
9277 9276 -9261 0
-9278 9277 9262 0
-9278 -9277 -9262 0
9278 -9277 9262 0
9278 9277 -9262 0
-9279 9278 9263 0
-9279 -9278 -9263 0
9279 -9278 9263 0
9279 9278 -9263 0
-9280 9279 9264 0
-9280 -9279 -9264 0
9280 -9279 9264 0
9280 9279 -9264 0
-9281 9280 9265 0
-9281 -9280 -9265 0
9281 -9280 9265 0
9281 9280 -9265 0
-9282 9281 9266 0
-9282 -9281 -9266 0
9282 -9281 9266 0
9282 9281 -9266 0
-9282 0
-9283 9167 0
-9283 36 0
9283 -9167 -36 0
-9284 9169 0
-9284 35 0
9284 -9169 -35 0
-9285 9171 0
-9285 34 0
9285 -9171 -34 0
-9286 9173 0
-9286 45 0
9286 -9173 -45 0
-9287 9175 0
-9287 41 0
9287 -9175 -41 0
-9288 9177 0
-9288 37 0
9288 -9177 -37 0
-9289 9179 0
-9289 84 0
9289 -9179 -84 0
-9290 9181 0
-9290 83 0
9290 -9181 -83 0
-9291 9183 0
-9291 82 0
9291 -9183 -82 0
-9292 9185 0
-9292 93 0
9292 -9185 -93 0
-9293 9187 0
-9293 89 0
9293 -9187 -89 0
-9294 9189 0
-9294 85 0
9294 -9189 -85 0
-9295 9191 0
-9295 132 0
9295 -9191 -132 0
-9296 9193 0
-9296 130 0
9296 -9193 -130 0
-9297 9195 0
-9297 141 0
9297 -9195 -141 0
-9298 9197 0
-9298 133 0
9298 -9197 -133 0
-9299 9199 0
-9299 180 0
9299 -9199 -180 0
-9300 9283 9284 0
-9300 -9283 -9284 0
9300 -9283 9284 0
9300 9283 -9284 0
-9301 9300 9285 0
-9301 -9300 -9285 0
9301 -9300 9285 0
9301 9300 -9285 0
-9302 9301 9286 0
-9302 -9301 -9286 0
9302 -9301 9286 0
9302 9301 -9286 0
-9303 9302 9287 0
-9303 -9302 -9287 0
9303 -9302 9287 0
9303 9302 -9287 0
-9304 9303 9288 0
-9304 -9303 -9288 0
9304 -9303 9288 0
9304 9303 -9288 0
-9305 9304 9289 0
-9305 -9304 -9289 0
9305 -9304 9289 0
9305 9304 -9289 0
-9306 9305 9290 0
-9306 -9305 -9290 0
9306 -9305 9290 0
9306 9305 -9290 0
-9307 9306 9291 0
-9307 -9306 -9291 0
9307 -9306 9291 0
9307 9306 -9291 0
-9308 9307 9292 0
-9308 -9307 -9292 0
9308 -9307 9292 0
9308 9307 -9292 0
-9309 9308 9293 0
-9309 -9308 -9293 0
9309 -9308 9293 0
9309 9308 -9293 0
-9310 9309 9294 0
-9310 -9309 -9294 0
9310 -9309 9294 0
9310 9309 -9294 0
-9311 9310 9295 0
-9311 -9310 -9295 0
9311 -9310 9295 0
9311 9310 -9295 0
-9312 9311 9296 0
-9312 -9311 -9296 0
9312 -9311 9296 0
9312 9311 -9296 0
-9313 9312 9297 0
-9313 -9312 -9297 0
9313 -9312 9297 0
9313 9312 -9297 0
-9314 9313 9298 0
-9314 -9313 -9298 0
9314 -9313 9298 0
9314 9313 -9298 0
-9315 9314 9299 0
-9315 -9314 -9299 0
9315 -9314 9299 0
9315 9314 -9299 0
-9315 0
-9316 9167 0
-9316 37 0
9316 -9167 -37 0
-9317 9169 0
-9317 37 0
9317 -9169 -37 0
-9318 9171 0
-9318 41 0
9318 -9171 -41 0
-9319 9173 0
-9319 34 0
9319 -9173 -34 0
-9320 9175 0
-9320 34 0
9320 -9175 -34 0
-9321 9177 0
-9321 35 0
9321 -9177 -35 0
-9322 9179 0
-9322 85 0
9322 -9179 -85 0
-9323 9181 0
-9323 85 0
9323 -9181 -85 0
-9324 9183 0
-9324 89 0
9324 -9183 -89 0
-9325 9185 0
-9325 82 0
9325 -9185 -82 0
-9326 9187 0
-9326 82 0
9326 -9187 -82 0
-9327 9189 0
-9327 83 0
9327 -9189 -83 0
-9328 9191 0
-9328 133 0
9328 -9191 -133 0
-9329 9193 0
-9329 141 0
9329 -9193 -141 0
-9330 9195 0
-9330 130 0
9330 -9195 -130 0
-9331 9197 0
-9331 132 0
9331 -9197 -132 0
-9332 9199 0
-9332 181 0
9332 -9199 -181 0
-9333 9316 9317 0
-9333 -9316 -9317 0
9333 -9316 9317 0
9333 9316 -9317 0
-9334 9333 9318 0
-9334 -9333 -9318 0
9334 -9333 9318 0
9334 9333 -9318 0
-9335 9334 9319 0
-9335 -9334 -9319 0
9335 -9334 9319 0
9335 9334 -9319 0
-9336 9335 9320 0
-9336 -9335 -9320 0
9336 -9335 9320 0
9336 9335 -9320 0
-9337 9336 9321 0
-9337 -9336 -9321 0
9337 -9336 9321 0
9337 9336 -9321 0
-9338 9337 9322 0
-9338 -9337 -9322 0
9338 -9337 9322 0
9338 9337 -9322 0
-9339 9338 9323 0
-9339 -9338 -9323 0
9339 -9338 9323 0
9339 9338 -9323 0
-9340 9339 9324 0
-9340 -9339 -9324 0
9340 -9339 9324 0
9340 9339 -9324 0
-9341 9340 9325 0
-9341 -9340 -9325 0
9341 -9340 9325 0
9341 9340 -9325 0
-9342 9341 9326 0
-9342 -9341 -9326 0
9342 -9341 9326 0
9342 9341 -9326 0
-9343 9342 9327 0
-9343 -9342 -9327 0
9343 -9342 9327 0
9343 9342 -9327 0
-9344 9343 9328 0
-9344 -9343 -9328 0
9344 -9343 9328 0
9344 9343 -9328 0
-9345 9344 9329 0
-9345 -9344 -9329 0
9345 -9344 9329 0
9345 9344 -9329 0
-9346 9345 9330 0
-9346 -9345 -9330 0
9346 -9345 9330 0
9346 9345 -9330 0
-9347 9346 9331 0
-9347 -9346 -9331 0
9347 -9346 9331 0
9347 9346 -9331 0
-9348 9347 9332 0
-9348 -9347 -9332 0
9348 -9347 9332 0
9348 9347 -9332 0
-9348 0
-9349 9167 0
-9349 38 0
9349 -9167 -38 0
-9350 9169 0
-9350 38 0
9350 -9169 -38 0
-9351 9171 0
-9351 43 0
9351 -9171 -43 0
-9352 9173 0
-9352 38 0
9352 -9173 -38 0
-9353 9175 0
-9353 38 0
9353 -9175 -38 0
-9354 9177 0
-9354 43 0
9354 -9177 -43 0
-9355 9179 0
-9355 86 0
9355 -9179 -86 0
-9356 9181 0
-9356 86 0
9356 -9181 -86 0
-9357 9183 0
-9357 91 0
9357 -9183 -91 0
-9358 9185 0
-9358 86 0
9358 -9185 -86 0
-9359 9187 0
-9359 86 0
9359 -9187 -86 0
-9360 9189 0
-9360 91 0
9360 -9189 -91 0
-9361 9191 0
-9361 134 0
9361 -9191 -134 0
-9362 9193 0
-9362 144 0
9362 -9193 -144 0
-9363 9195 0
-9363 134 0
9363 -9195 -134 0
-9364 9197 0
-9364 144 0
9364 -9197 -144 0
-9365 9199 0
-9365 182 0
9365 -9199 -182 0
-9366 9349 9350 0
-9366 -9349 -9350 0
9366 -9349 9350 0
9366 9349 -9350 0
-9367 9366 9351 0
-9367 -9366 -9351 0
9367 -9366 9351 0
9367 9366 -9351 0
-9368 9367 9352 0
-9368 -9367 -9352 0
9368 -9367 9352 0
9368 9367 -9352 0
-9369 9368 9353 0
-9369 -9368 -9353 0
9369 -9368 9353 0
9369 9368 -9353 0
-9370 9369 9354 0
-9370 -9369 -9354 0
9370 -9369 9354 0
9370 9369 -9354 0
-9371 9370 9355 0
-9371 -9370 -9355 0
9371 -9370 9355 0
9371 9370 -9355 0
-9372 9371 9356 0
-9372 -9371 -9356 0
9372 -9371 9356 0
9372 9371 -9356 0
-9373 9372 9357 0
-9373 -9372 -9357 0
9373 -9372 9357 0
9373 9372 -9357 0
-9374 9373 9358 0
-9374 -9373 -9358 0
9374 -9373 9358 0
9374 9373 -9358 0
-9375 9374 9359 0
-9375 -9374 -9359 0
9375 -9374 9359 0
9375 9374 -9359 0
-9376 9375 9360 0
-9376 -9375 -9360 0
9376 -9375 9360 0
9376 9375 -9360 0
-9377 9376 9361 0
-9377 -9376 -9361 0
9377 -9376 9361 0
9377 9376 -9361 0
-9378 9377 9362 0
-9378 -9377 -9362 0
9378 -9377 9362 0
9378 9377 -9362 0
-9379 9378 9363 0
-9379 -9378 -9363 0
9379 -9378 9363 0
9379 9378 -9363 0
-9380 9379 9364 0
-9380 -9379 -9364 0
9380 -9379 9364 0
9380 9379 -9364 0
-9381 9380 9365 0
-9381 -9380 -9365 0
9381 -9380 9365 0
9381 9380 -9365 0
-9381 0
-9382 9167 0
-9382 39 0
9382 -9167 -39 0
-9383 9169 0
-9383 40 0
9383 -9169 -40 0
-9384 9171 0
-9384 44 0
9384 -9171 -44 0
-9385 9173 0
-9385 42 0
9385 -9173 -42 0
-9386 9175 0
-9386 46 0
9386 -9175 -46 0
-9387 9177 0
-9387 47 0
9387 -9177 -47 0
-9388 9179 0
-9388 87 0
9388 -9179 -87 0
-9389 9181 0
-9389 88 0
9389 -9181 -88 0
-9390 9183 0
-9390 92 0
9390 -9183 -92 0
-9391 9185 0
-9391 90 0
9391 -9185 -90 0
-9392 9187 0
-9392 94 0
9392 -9187 -94 0
-9393 9189 0
-9393 95 0
9393 -9189 -95 0
-9394 9191 0
-9394 135 0
9394 -9191 -135 0
-9395 9193 0
-9395 143 0
9395 -9193 -143 0
-9396 9195 0
-9396 138 0
9396 -9195 -138 0
-9397 9197 0
-9397 140 0
9397 -9197 -140 0
-9398 9199 0
-9398 183 0
9398 -9199 -183 0
-9399 9382 9383 0
-9399 -9382 -9383 0
9399 -9382 9383 0
9399 9382 -9383 0
-9400 9399 9384 0
-9400 -9399 -9384 0
9400 -9399 9384 0
9400 9399 -9384 0
-9401 9400 9385 0
-9401 -9400 -9385 0
9401 -9400 9385 0
9401 9400 -9385 0
-9402 9401 9386 0
-9402 -9401 -9386 0
9402 -9401 9386 0
9402 9401 -9386 0
-9403 9402 9387 0
-9403 -9402 -9387 0
9403 -9402 9387 0
9403 9402 -9387 0
-9404 9403 9388 0
-9404 -9403 -9388 0
9404 -9403 9388 0
9404 9403 -9388 0
-9405 9404 9389 0
-9405 -9404 -9389 0
9405 -9404 9389 0
9405 9404 -9389 0
-9406 9405 9390 0
-9406 -9405 -9390 0
9406 -9405 9390 0
9406 9405 -9390 0
-9407 9406 9391 0
-9407 -9406 -9391 0
9407 -9406 9391 0
9407 9406 -9391 0
-9408 9407 9392 0
-9408 -9407 -9392 0
9408 -9407 9392 0
9408 9407 -9392 0
-9409 9408 9393 0
-9409 -9408 -9393 0
9409 -9408 9393 0
9409 9408 -9393 0
-9410 9409 9394 0
-9410 -9409 -9394 0
9410 -9409 9394 0
9410 9409 -9394 0
-9411 9410 9395 0
-9411 -9410 -9395 0
9411 -9410 9395 0
9411 9410 -9395 0
-9412 9411 9396 0
-9412 -9411 -9396 0
9412 -9411 9396 0
9412 9411 -9396 0
-9413 9412 9397 0
-9413 -9412 -9397 0
9413 -9412 9397 0
9413 9412 -9397 0
-9414 9413 9398 0
-9414 -9413 -9398 0
9414 -9413 9398 0
9414 9413 -9398 0
-9414 0
-9415 9167 0
-9415 40 0
9415 -9167 -40 0
-9416 9169 0
-9416 39 0
9416 -9169 -39 0
-9417 9171 0
-9417 42 0
9417 -9171 -42 0
-9418 9173 0
-9418 46 0
9418 -9173 -46 0
-9419 9175 0
-9419 42 0
9419 -9175 -42 0
-9420 9177 0
-9420 39 0
9420 -9177 -39 0
-9421 9179 0
-9421 88 0
9421 -9179 -88 0
-9422 9181 0
-9422 87 0
9422 -9181 -87 0
-9423 9183 0
-9423 90 0
9423 -9183 -90 0
-9424 9185 0
-9424 94 0
9424 -9185 -94 0
-9425 9187 0
-9425 90 0
9425 -9187 -90 0
-9426 9189 0
-9426 87 0
9426 -9189 -87 0
-9427 9191 0
-9427 136 0
9427 -9191 -136 0
-9428 9193 0
-9428 142 0
9428 -9193 -142 0
-9429 9195 0
-9429 142 0
9429 -9195 -142 0
-9430 9197 0
-9430 136 0
9430 -9197 -136 0
-9431 9199 0
-9431 184 0
9431 -9199 -184 0
-9432 9415 9416 0
-9432 -9415 -9416 0
9432 -9415 9416 0
9432 9415 -9416 0
-9433 9432 9417 0
-9433 -9432 -9417 0
9433 -9432 9417 0
9433 9432 -9417 0
-9434 9433 9418 0
-9434 -9433 -9418 0
9434 -9433 9418 0
9434 9433 -9418 0
-9435 9434 9419 0
-9435 -9434 -9419 0
9435 -9434 9419 0
9435 9434 -9419 0
-9436 9435 9420 0
-9436 -9435 -9420 0
9436 -9435 9420 0
9436 9435 -9420 0
-9437 9436 9421 0
-9437 -9436 -9421 0
9437 -9436 9421 0
9437 9436 -9421 0
-9438 9437 9422 0
-9438 -9437 -9422 0
9438 -9437 9422 0
9438 9437 -9422 0
-9439 9438 9423 0
-9439 -9438 -9423 0
9439 -9438 9423 0
9439 9438 -9423 0
-9440 9439 9424 0
-9440 -9439 -9424 0
9440 -9439 9424 0
9440 9439 -9424 0
-9441 9440 9425 0
-9441 -9440 -9425 0
9441 -9440 9425 0
9441 9440 -9425 0
-9442 9441 9426 0
-9442 -9441 -9426 0
9442 -9441 9426 0
9442 9441 -9426 0
-9443 9442 9427 0
-9443 -9442 -9427 0
9443 -9442 9427 0
9443 9442 -9427 0
-9444 9443 9428 0
-9444 -9443 -9428 0
9444 -9443 9428 0
9444 9443 -9428 0
-9445 9444 9429 0
-9445 -9444 -9429 0
9445 -9444 9429 0
9445 9444 -9429 0
-9446 9445 9430 0
-9446 -9445 -9430 0
9446 -9445 9430 0
9446 9445 -9430 0
-9447 9446 9431 0
-9447 -9446 -9431 0
9447 -9446 9431 0
9447 9446 -9431 0
-9447 0
-9448 9167 0
-9448 41 0
9448 -9167 -41 0
-9449 9169 0
-9449 45 0
9449 -9169 -45 0
-9450 9171 0
-9450 45 0
9450 -9171 -45 0
-9451 9173 0
-9451 35 0
9451 -9173 -35 0
-9452 9175 0
-9452 36 0
9452 -9175 -36 0
-9453 9177 0
-9453 36 0
9453 -9177 -36 0
-9454 9179 0
-9454 89 0
9454 -9179 -89 0
-9455 9181 0
-9455 93 0
9455 -9181 -93 0
-9456 9183 0
-9456 93 0
9456 -9183 -93 0
-9457 9185 0
-9457 83 0
9457 -9185 -83 0
-9458 9187 0
-9458 84 0
9458 -9187 -84 0
-9459 9189 0
-9459 84 0
9459 -9189 -84 0
-9460 9191 0
-9460 137 0
9460 -9191 -137 0
-9461 9193 0
-9461 137 0
9461 -9193 -137 0
-9462 9195 0
-9462 131 0
9462 -9195 -131 0
-9463 9197 0
-9463 131 0
9463 -9197 -131 0
-9464 9199 0
-9464 185 0
9464 -9199 -185 0
-9465 9448 9449 0
-9465 -9448 -9449 0
9465 -9448 9449 0
9465 9448 -9449 0
-9466 9465 9450 0
-9466 -9465 -9450 0
9466 -9465 9450 0
9466 9465 -9450 0
-9467 9466 9451 0
-9467 -9466 -9451 0
9467 -9466 9451 0
9467 9466 -9451 0
-9468 9467 9452 0
-9468 -9467 -9452 0
9468 -9467 9452 0
9468 9467 -9452 0
-9469 9468 9453 0
-9469 -9468 -9453 0
9469 -9468 9453 0
9469 9468 -9453 0
-9470 9469 9454 0
-9470 -9469 -9454 0
9470 -9469 9454 0
9470 9469 -9454 0
-9471 9470 9455 0
-9471 -9470 -9455 0
9471 -9470 9455 0
9471 9470 -9455 0
-9472 9471 9456 0
-9472 -9471 -9456 0
9472 -9471 9456 0
9472 9471 -9456 0
-9473 9472 9457 0
-9473 -9472 -9457 0
9473 -9472 9457 0
9473 9472 -9457 0
-9474 9473 9458 0
-9474 -9473 -9458 0
9474 -9473 9458 0
9474 9473 -9458 0
-9475 9474 9459 0
-9475 -9474 -9459 0
9475 -9474 9459 0
9475 9474 -9459 0
-9476 9475 9460 0
-9476 -9475 -9460 0
9476 -9475 9460 0
9476 9475 -9460 0
-9477 9476 9461 0
-9477 -9476 -9461 0
9477 -9476 9461 0
9477 9476 -9461 0
-9478 9477 9462 0
-9478 -9477 -9462 0
9478 -9477 9462 0
9478 9477 -9462 0
-9479 9478 9463 0
-9479 -9478 -9463 0
9479 -9478 9463 0
9479 9478 -9463 0
-9480 9479 9464 0
-9480 -9479 -9464 0
9480 -9479 9464 0
9480 9479 -9464 0
-9480 0
-9481 9167 0
-9481 42 0
9481 -9167 -42 0
-9482 9169 0
-9482 46 0
9482 -9169 -46 0
-9483 9171 0
-9483 47 0
9483 -9171 -47 0
-9484 9173 0
-9484 39 0
9484 -9173 -39 0
-9485 9175 0
-9485 40 0
9485 -9175 -40 0
-9486 9177 0
-9486 44 0
9486 -9177 -44 0
-9487 9179 0
-9487 90 0
9487 -9179 -90 0
-9488 9181 0
-9488 94 0
9488 -9181 -94 0
-9489 9183 0
-9489 95 0
9489 -9183 -95 0
-9490 9185 0
-9490 87 0
9490 -9185 -87 0
-9491 9187 0
-9491 88 0
9491 -9187 -88 0
-9492 9189 0
-9492 92 0
9492 -9189 -92 0
-9493 9191 0
-9493 138 0
9493 -9191 -138 0
-9494 9193 0
-9494 140 0
9494 -9193 -140 0
-9495 9195 0
-9495 135 0
9495 -9195 -135 0
-9496 9197 0
-9496 143 0
9496 -9197 -143 0
-9497 9199 0
-9497 186 0
9497 -9199 -186 0
-9498 9481 9482 0
-9498 -9481 -9482 0
9498 -9481 9482 0
9498 9481 -9482 0
-9499 9498 9483 0
-9499 -9498 -9483 0
9499 -9498 9483 0
9499 9498 -9483 0
-9500 9499 9484 0
-9500 -9499 -9484 0
9500 -9499 9484 0
9500 9499 -9484 0
-9501 9500 9485 0
-9501 -9500 -9485 0
9501 -9500 9485 0
9501 9500 -9485 0
-9502 9501 9486 0
-9502 -9501 -9486 0
9502 -9501 9486 0
9502 9501 -9486 0
-9503 9502 9487 0
-9503 -9502 -9487 0
9503 -9502 9487 0
9503 9502 -9487 0
-9504 9503 9488 0
-9504 -9503 -9488 0
9504 -9503 9488 0
9504 9503 -9488 0
-9505 9504 9489 0
-9505 -9504 -9489 0
9505 -9504 9489 0
9505 9504 -9489 0
-9506 9505 9490 0
-9506 -9505 -9490 0
9506 -9505 9490 0
9506 9505 -9490 0
-9507 9506 9491 0
-9507 -9506 -9491 0
9507 -9506 9491 0
9507 9506 -9491 0
-9508 9507 9492 0
-9508 -9507 -9492 0
9508 -9507 9492 0
9508 9507 -9492 0
-9509 9508 9493 0
-9509 -9508 -9493 0
9509 -9508 9493 0
9509 9508 -9493 0
-9510 9509 9494 0
-9510 -9509 -9494 0
9510 -9509 9494 0
9510 9509 -9494 0
-9511 9510 9495 0
-9511 -9510 -9495 0
9511 -9510 9495 0
9511 9510 -9495 0
-9512 9511 9496 0
-9512 -9511 -9496 0
9512 -9511 9496 0
9512 9511 -9496 0
-9513 9512 9497 0
-9513 -9512 -9497 0
9513 -9512 9497 0
9513 9512 -9497 0
-9513 0
-9514 9167 0
-9514 43 0
9514 -9167 -43 0
-9515 9169 0
-9515 48 0
9515 -9169 -48 0
-9516 9171 0
-9516 48 0
9516 -9171 -48 0
-9517 9173 0
-9517 43 0
9517 -9173 -43 0
-9518 9175 0
-9518 48 0
9518 -9175 -48 0
-9519 9177 0
-9519 48 0
9519 -9177 -48 0
-9520 9179 0
-9520 91 0
9520 -9179 -91 0
-9521 9181 0
-9521 96 0
9521 -9181 -96 0
-9522 9183 0
-9522 96 0
9522 -9183 -96 0
-9523 9185 0
-9523 91 0
9523 -9185 -91 0
-9524 9187 0
-9524 96 0
9524 -9187 -96 0
-9525 9189 0
-9525 96 0
9525 -9189 -96 0
-9526 9191 0
-9526 139 0
9526 -9191 -139 0
-9527 9193 0
-9527 139 0
9527 -9193 -139 0
-9528 9195 0
-9528 139 0
9528 -9195 -139 0
-9529 9197 0
-9529 139 0
9529 -9197 -139 0
-9530 9199 0
-9530 187 0
9530 -9199 -187 0
-9531 9514 9515 0
-9531 -9514 -9515 0
9531 -9514 9515 0
9531 9514 -9515 0
-9532 9531 9516 0
-9532 -9531 -9516 0
9532 -9531 9516 0
9532 9531 -9516 0
-9533 9532 9517 0
-9533 -9532 -9517 0
9533 -9532 9517 0
9533 9532 -9517 0
-9534 9533 9518 0
-9534 -9533 -9518 0
9534 -9533 9518 0
9534 9533 -9518 0
-9535 9534 9519 0
-9535 -9534 -9519 0
9535 -9534 9519 0
9535 9534 -9519 0
-9536 9535 9520 0
-9536 -9535 -9520 0
9536 -9535 9520 0
9536 9535 -9520 0
-9537 9536 9521 0
-9537 -9536 -9521 0
9537 -9536 9521 0
9537 9536 -9521 0
-9538 9537 9522 0
-9538 -9537 -9522 0
9538 -9537 9522 0
9538 9537 -9522 0
-9539 9538 9523 0
-9539 -9538 -9523 0
9539 -9538 9523 0
9539 9538 -9523 0
-9540 9539 9524 0
-9540 -9539 -9524 0
9540 -9539 9524 0
9540 9539 -9524 0
-9541 9540 9525 0
-9541 -9540 -9525 0
9541 -9540 9525 0
9541 9540 -9525 0
-9542 9541 9526 0
-9542 -9541 -9526 0
9542 -9541 9526 0
9542 9541 -9526 0
-9543 9542 9527 0
-9543 -9542 -9527 0
9543 -9542 9527 0
9543 9542 -9527 0
-9544 9543 9528 0
-9544 -9543 -9528 0
9544 -9543 9528 0
9544 9543 -9528 0
-9545 9544 9529 0
-9545 -9544 -9529 0
9545 -9544 9529 0
9545 9544 -9529 0
-9546 9545 9530 0
-9546 -9545 -9530 0
9546 -9545 9530 0
9546 9545 -9530 0
-9546 0
-9547 9167 0
-9547 44 0
9547 -9167 -44 0
-9548 9169 0
-9548 47 0
9548 -9169 -47 0
-9549 9171 0
-9549 46 0
9549 -9171 -46 0
-9550 9173 0
-9550 47 0
9550 -9173 -47 0
-9551 9175 0
-9551 44 0
9551 -9175 -44 0
-9552 9177 0
-9552 40 0
9552 -9177 -40 0
-9553 9179 0
-9553 92 0
9553 -9179 -92 0
-9554 9181 0
-9554 95 0
9554 -9181 -95 0
-9555 9183 0
-9555 94 0
9555 -9183 -94 0
-9556 9185 0
-9556 95 0
9556 -9185 -95 0
-9557 9187 0
-9557 92 0
9557 -9187 -92 0
-9558 9189 0
-9558 88 0
9558 -9189 -88 0
-9559 9191 0
-9559 140 0
9559 -9191 -140 0
-9560 9193 0
-9560 138 0
9560 -9193 -138 0
-9561 9195 0
-9561 143 0
9561 -9195 -143 0
-9562 9197 0
-9562 135 0
9562 -9197 -135 0
-9563 9199 0
-9563 188 0
9563 -9199 -188 0
-9564 9547 9548 0
-9564 -9547 -9548 0
9564 -9547 9548 0
9564 9547 -9548 0
-9565 9564 9549 0
-9565 -9564 -9549 0
9565 -9564 9549 0
9565 9564 -9549 0
-9566 9565 9550 0
-9566 -9565 -9550 0
9566 -9565 9550 0
9566 9565 -9550 0
-9567 9566 9551 0
-9567 -9566 -9551 0
9567 -9566 9551 0
9567 9566 -9551 0
-9568 9567 9552 0
-9568 -9567 -9552 0
9568 -9567 9552 0
9568 9567 -9552 0
-9569 9568 9553 0
-9569 -9568 -9553 0
9569 -9568 9553 0
9569 9568 -9553 0
-9570 9569 9554 0
-9570 -9569 -9554 0
9570 -9569 9554 0
9570 9569 -9554 0
-9571 9570 9555 0
-9571 -9570 -9555 0
9571 -9570 9555 0
9571 9570 -9555 0
-9572 9571 9556 0
-9572 -9571 -9556 0
9572 -9571 9556 0
9572 9571 -9556 0
-9573 9572 9557 0
-9573 -9572 -9557 0
9573 -9572 9557 0
9573 9572 -9557 0
-9574 9573 9558 0
-9574 -9573 -9558 0
9574 -9573 9558 0
9574 9573 -9558 0
-9575 9574 9559 0
-9575 -9574 -9559 0
9575 -9574 9559 0
9575 9574 -9559 0
-9576 9575 9560 0
-9576 -9575 -9560 0
9576 -9575 9560 0
9576 9575 -9560 0
-9577 9576 9561 0
-9577 -9576 -9561 0
9577 -9576 9561 0
9577 9576 -9561 0
-9578 9577 9562 0
-9578 -9577 -9562 0
9578 -9577 9562 0
9578 9577 -9562 0
-9579 9578 9563 0
-9579 -9578 -9563 0
9579 -9578 9563 0
9579 9578 -9563 0
-9579 0
-9580 9167 0
-9580 45 0
9580 -9167 -45 0
-9581 9169 0
-9581 41 0
9581 -9169 -41 0
-9582 9171 0
-9582 37 0
9582 -9171 -37 0
-9583 9173 0
-9583 36 0
9583 -9173 -36 0
-9584 9175 0
-9584 35 0
9584 -9175 -35 0
-9585 9177 0
-9585 34 0
9585 -9177 -34 0
-9586 9179 0
-9586 93 0
9586 -9179 -93 0
-9587 9181 0
-9587 89 0
9587 -9181 -89 0
-9588 9183 0
-9588 85 0
9588 -9183 -85 0
-9589 9185 0
-9589 84 0
9589 -9185 -84 0
-9590 9187 0
-9590 83 0
9590 -9187 -83 0
-9591 9189 0
-9591 82 0
9591 -9189 -82 0
-9592 9191 0
-9592 141 0
9592 -9191 -141 0
-9593 9193 0
-9593 133 0
9593 -9193 -133 0
-9594 9195 0
-9594 132 0
9594 -9195 -132 0
-9595 9197 0
-9595 130 0
9595 -9197 -130 0
-9596 9199 0
-9596 189 0
9596 -9199 -189 0
-9597 9580 9581 0
-9597 -9580 -9581 0
9597 -9580 9581 0
9597 9580 -9581 0
-9598 9597 9582 0
-9598 -9597 -9582 0
9598 -9597 9582 0
9598 9597 -9582 0
-9599 9598 9583 0
-9599 -9598 -9583 0
9599 -9598 9583 0
9599 9598 -9583 0
-9600 9599 9584 0
-9600 -9599 -9584 0
9600 -9599 9584 0
9600 9599 -9584 0
-9601 9600 9585 0
-9601 -9600 -9585 0
9601 -9600 9585 0
9601 9600 -9585 0
-9602 9601 9586 0
-9602 -9601 -9586 0
9602 -9601 9586 0
9602 9601 -9586 0
-9603 9602 9587 0
-9603 -9602 -9587 0
9603 -9602 9587 0
9603 9602 -9587 0
-9604 9603 9588 0
-9604 -9603 -9588 0
9604 -9603 9588 0
9604 9603 -9588 0
-9605 9604 9589 0
-9605 -9604 -9589 0
9605 -9604 9589 0
9605 9604 -9589 0
-9606 9605 9590 0
-9606 -9605 -9590 0
9606 -9605 9590 0
9606 9605 -9590 0
-9607 9606 9591 0
-9607 -9606 -9591 0
9607 -9606 9591 0
9607 9606 -9591 0
-9608 9607 9592 0
-9608 -9607 -9592 0
9608 -9607 9592 0
9608 9607 -9592 0
-9609 9608 9593 0
-9609 -9608 -9593 0
9609 -9608 9593 0
9609 9608 -9593 0
-9610 9609 9594 0
-9610 -9609 -9594 0
9610 -9609 9594 0
9610 9609 -9594 0
-9611 9610 9595 0
-9611 -9610 -9595 0
9611 -9610 9595 0
9611 9610 -9595 0
-9612 9611 9596 0
-9612 -9611 -9596 0
9612 -9611 9596 0
9612 9611 -9596 0
-9612 0
-9613 9167 0
-9613 46 0
9613 -9167 -46 0
-9614 9169 0
-9614 42 0
9614 -9169 -42 0
-9615 9171 0
-9615 39 0
9615 -9171 -39 0
-9616 9173 0
-9616 40 0
9616 -9173 -40 0
-9617 9175 0
-9617 39 0
9617 -9175 -39 0
-9618 9177 0
-9618 42 0
9618 -9177 -42 0
-9619 9179 0
-9619 94 0
9619 -9179 -94 0
-9620 9181 0
-9620 90 0
9620 -9181 -90 0
-9621 9183 0
-9621 87 0
9621 -9183 -87 0
-9622 9185 0
-9622 88 0
9622 -9185 -88 0
-9623 9187 0
-9623 87 0
9623 -9187 -87 0
-9624 9189 0
-9624 90 0
9624 -9189 -90 0
-9625 9191 0
-9625 142 0
9625 -9191 -142 0
-9626 9193 0
-9626 136 0
9626 -9193 -136 0
-9627 9195 0
-9627 136 0
9627 -9195 -136 0
-9628 9197 0
-9628 142 0
9628 -9197 -142 0
-9629 9199 0
-9629 190 0
9629 -9199 -190 0
-9630 9613 9614 0
-9630 -9613 -9614 0
9630 -9613 9614 0
9630 9613 -9614 0
-9631 9630 9615 0
-9631 -9630 -9615 0
9631 -9630 9615 0
9631 9630 -9615 0
-9632 9631 9616 0
-9632 -9631 -9616 0
9632 -9631 9616 0
9632 9631 -9616 0
-9633 9632 9617 0
-9633 -9632 -9617 0
9633 -9632 9617 0
9633 9632 -9617 0
-9634 9633 9618 0
-9634 -9633 -9618 0
9634 -9633 9618 0
9634 9633 -9618 0
-9635 9634 9619 0
-9635 -9634 -9619 0
9635 -9634 9619 0
9635 9634 -9619 0
-9636 9635 9620 0
-9636 -9635 -9620 0
9636 -9635 9620 0
9636 9635 -9620 0
-9637 9636 9621 0
-9637 -9636 -9621 0
9637 -9636 9621 0
9637 9636 -9621 0
-9638 9637 9622 0
-9638 -9637 -9622 0
9638 -9637 9622 0
9638 9637 -9622 0
-9639 9638 9623 0
-9639 -9638 -9623 0
9639 -9638 9623 0
9639 9638 -9623 0
-9640 9639 9624 0
-9640 -9639 -9624 0
9640 -9639 9624 0
9640 9639 -9624 0
-9641 9640 9625 0
-9641 -9640 -9625 0
9641 -9640 9625 0
9641 9640 -9625 0
-9642 9641 9626 0
-9642 -9641 -9626 0
9642 -9641 9626 0
9642 9641 -9626 0
-9643 9642 9627 0
-9643 -9642 -9627 0
9643 -9642 9627 0
9643 9642 -9627 0
-9644 9643 9628 0
-9644 -9643 -9628 0
9644 -9643 9628 0
9644 9643 -9628 0
-9645 9644 9629 0
-9645 -9644 -9629 0
9645 -9644 9629 0
9645 9644 -9629 0
-9645 0
-9646 9167 0
-9646 47 0
9646 -9167 -47 0
-9647 9169 0
-9647 44 0
9647 -9169 -44 0
-9648 9171 0
-9648 40 0
9648 -9171 -40 0
-9649 9173 0
-9649 44 0
9649 -9173 -44 0
-9650 9175 0
-9650 47 0
9650 -9175 -47 0
-9651 9177 0
-9651 46 0
9651 -9177 -46 0
-9652 9179 0
-9652 95 0
9652 -9179 -95 0
-9653 9181 0
-9653 92 0
9653 -9181 -92 0
-9654 9183 0
-9654 88 0
9654 -9183 -88 0
-9655 9185 0
-9655 92 0
9655 -9185 -92 0
-9656 9187 0
-9656 95 0
9656 -9187 -95 0
-9657 9189 0
-9657 94 0
9657 -9189 -94 0
-9658 9191 0
-9658 143 0
9658 -9191 -143 0
-9659 9193 0
-9659 135 0
9659 -9193 -135 0
-9660 9195 0
-9660 140 0
9660 -9195 -140 0
-9661 9197 0
-9661 138 0
9661 -9197 -138 0
-9662 9199 0
-9662 191 0
9662 -9199 -191 0
-9663 9646 9647 0
-9663 -9646 -9647 0
9663 -9646 9647 0
9663 9646 -9647 0
-9664 9663 9648 0
-9664 -9663 -9648 0
9664 -9663 9648 0
9664 9663 -9648 0
-9665 9664 9649 0
-9665 -9664 -9649 0
9665 -9664 9649 0
9665 9664 -9649 0
-9666 9665 9650 0
-9666 -9665 -9650 0
9666 -9665 9650 0
9666 9665 -9650 0
-9667 9666 9651 0
-9667 -9666 -9651 0
9667 -9666 9651 0
9667 9666 -9651 0
-9668 9667 9652 0
-9668 -9667 -9652 0
9668 -9667 9652 0
9668 9667 -9652 0
-9669 9668 9653 0
-9669 -9668 -9653 0
9669 -9668 9653 0
9669 9668 -9653 0
-9670 9669 9654 0
-9670 -9669 -9654 0
9670 -9669 9654 0
9670 9669 -9654 0
-9671 9670 9655 0
-9671 -9670 -9655 0
9671 -9670 9655 0
9671 9670 -9655 0
-9672 9671 9656 0
-9672 -9671 -9656 0
9672 -9671 9656 0
9672 9671 -9656 0
-9673 9672 9657 0
-9673 -9672 -9657 0
9673 -9672 9657 0
9673 9672 -9657 0
-9674 9673 9658 0
-9674 -9673 -9658 0
9674 -9673 9658 0
9674 9673 -9658 0
-9675 9674 9659 0
-9675 -9674 -9659 0
9675 -9674 9659 0
9675 9674 -9659 0
-9676 9675 9660 0
-9676 -9675 -9660 0
9676 -9675 9660 0
9676 9675 -9660 0
-9677 9676 9661 0
-9677 -9676 -9661 0
9677 -9676 9661 0
9677 9676 -9661 0
-9678 9677 9662 0
-9678 -9677 -9662 0
9678 -9677 9662 0
9678 9677 -9662 0
-9678 0
-9679 9167 0
-9679 48 0
9679 -9167 -48 0
-9680 9169 0
-9680 43 0
9680 -9169 -43 0
-9681 9171 0
-9681 38 0
9681 -9171 -38 0
-9682 9173 0
-9682 48 0
9682 -9173 -48 0
-9683 9175 0
-9683 43 0
9683 -9175 -43 0
-9684 9177 0
-9684 38 0
9684 -9177 -38 0
-9685 9179 0
-9685 96 0
9685 -9179 -96 0
-9686 9181 0
-9686 91 0
9686 -9181 -91 0
-9687 9183 0
-9687 86 0
9687 -9183 -86 0
-9688 9185 0
-9688 96 0
9688 -9185 -96 0
-9689 9187 0
-9689 91 0
9689 -9187 -91 0
-9690 9189 0
-9690 86 0
9690 -9189 -86 0
-9691 9191 0
-9691 144 0
9691 -9191 -144 0
-9692 9193 0
-9692 134 0
9692 -9193 -134 0
-9693 9195 0
-9693 144 0
9693 -9195 -144 0
-9694 9197 0
-9694 134 0
9694 -9197 -134 0
-9695 9199 0
-9695 192 0
9695 -9199 -192 0
-9696 9679 9680 0
-9696 -9679 -9680 0
9696 -9679 9680 0
9696 9679 -9680 0
-9697 9696 9681 0
-9697 -9696 -9681 0
9697 -9696 9681 0
9697 9696 -9681 0
-9698 9697 9682 0
-9698 -9697 -9682 0
9698 -9697 9682 0
9698 9697 -9682 0
-9699 9698 9683 0
-9699 -9698 -9683 0
9699 -9698 9683 0
9699 9698 -9683 0
-9700 9699 9684 0
-9700 -9699 -9684 0
9700 -9699 9684 0
9700 9699 -9684 0
-9701 9700 9685 0
-9701 -9700 -9685 0
9701 -9700 9685 0
9701 9700 -9685 0
-9702 9701 9686 0
-9702 -9701 -9686 0
9702 -9701 9686 0
9702 9701 -9686 0
-9703 9702 9687 0
-9703 -9702 -9687 0
9703 -9702 9687 0
9703 9702 -9687 0
-9704 9703 9688 0
-9704 -9703 -9688 0
9704 -9703 9688 0
9704 9703 -9688 0
-9705 9704 9689 0
-9705 -9704 -9689 0
9705 -9704 9689 0
9705 9704 -9689 0
-9706 9705 9690 0
-9706 -9705 -9690 0
9706 -9705 9690 0
9706 9705 -9690 0
-9707 9706 9691 0
-9707 -9706 -9691 0
9707 -9706 9691 0
9707 9706 -9691 0
-9708 9707 9692 0
-9708 -9707 -9692 0
9708 -9707 9692 0
9708 9707 -9692 0
-9709 9708 9693 0
-9709 -9708 -9693 0
9709 -9708 9693 0
9709 9708 -9693 0
-9710 9709 9694 0
-9710 -9709 -9694 0
9710 -9709 9694 0
9710 9709 -9694 0
-9711 9710 9695 0
-9711 -9710 -9695 0
9711 -9710 9695 0
9711 9710 -9695 0
-9711 0
-9712 5 0
-9712 31 0
9712 -5 -31 0
-9713 9712 0
-9713 33 0
9713 -9712 -33 0
-9714 6 0
-9714 32 0
9714 -6 -32 0
-9715 9714 0
-9715 33 0
9715 -9714 -33 0
-9716 10 0
-9716 32 0
9716 -10 -32 0
-9717 9716 0
-9717 33 0
9717 -9716 -33 0
-9718 18 0
-9718 12 0
9718 -18 -12 0
-9719 9718 0
-9719 33 0
9719 -9718 -33 0
-9720 22 0
-9720 16 0
9720 -22 -16 0
-9721 9720 0
-9721 33 0
9721 -9720 -33 0
-9722 23 0
-9722 16 0
9722 -23 -16 0
-9723 9722 0
-9723 33 0
9723 -9722 -33 0
-9724 53 0
-9724 79 0
9724 -53 -79 0
-9725 9724 0
-9725 81 0
9725 -9724 -81 0
-9726 54 0
-9726 80 0
9726 -54 -80 0
-9727 9726 0
-9727 81 0
9727 -9726 -81 0
-9728 58 0
-9728 80 0
9728 -58 -80 0
-9729 9728 0
-9729 81 0
9729 -9728 -81 0
-9730 66 0
-9730 60 0
9730 -66 -60 0
-9731 9730 0
-9731 81 0
9731 -9730 -81 0
-9732 70 0
-9732 64 0
9732 -70 -64 0
-9733 9732 0
-9733 81 0
9733 -9732 -81 0
-9734 71 0
-9734 64 0
9734 -71 -64 0
-9735 9734 0
-9735 81 0
9735 -9734 -81 0
-9736 101 0
-9736 127 0
9736 -101 -127 0
-9737 9736 0
-9737 129 0
9737 -9736 -129 0
-9738 109 0
-9738 127 0
9738 -109 -127 0
-9739 9738 0
-9739 129 0
9739 -9738 -129 0
-9740 114 0
-9740 108 0
9740 -114 -108 0
-9741 9740 0
-9741 129 0
9741 -9740 -129 0
-9742 116 0
-9742 108 0
9742 -116 -108 0
-9743 9742 0
-9743 129 0
9743 -9742 -129 0
-9744 149 0
-9744 175 0
9744 -149 -175 0
-9745 9744 0
-9745 177 0
9745 -9744 -177 0
-9746 9713 9715 0
-9746 -9713 -9715 0
9746 -9713 9715 0
9746 9713 -9715 0
-9747 9746 9717 0
-9747 -9746 -9717 0
9747 -9746 9717 0
9747 9746 -9717 0
-9748 9747 9719 0
-9748 -9747 -9719 0
9748 -9747 9719 0
9748 9747 -9719 0
-9749 9748 9721 0
-9749 -9748 -9721 0
9749 -9748 9721 0
9749 9748 -9721 0
-9750 9749 9723 0
-9750 -9749 -9723 0
9750 -9749 9723 0
9750 9749 -9723 0
-9751 9750 9725 0
-9751 -9750 -9725 0
9751 -9750 9725 0
9751 9750 -9725 0
-9752 9751 9727 0
-9752 -9751 -9727 0
9752 -9751 9727 0
9752 9751 -9727 0
-9753 9752 9729 0
-9753 -9752 -9729 0
9753 -9752 9729 0
9753 9752 -9729 0
-9754 9753 9731 0
-9754 -9753 -9731 0
9754 -9753 9731 0
9754 9753 -9731 0
-9755 9754 9733 0
-9755 -9754 -9733 0
9755 -9754 9733 0
9755 9754 -9733 0
-9756 9755 9735 0
-9756 -9755 -9735 0
9756 -9755 9735 0
9756 9755 -9735 0
-9757 9756 9737 0
-9757 -9756 -9737 0
9757 -9756 9737 0
9757 9756 -9737 0
-9758 9757 9739 0
-9758 -9757 -9739 0
9758 -9757 9739 0
9758 9757 -9739 0
-9759 9758 9741 0
-9759 -9758 -9741 0
9759 -9758 9741 0
9759 9758 -9741 0
-9760 9759 9743 0
-9760 -9759 -9743 0
9760 -9759 9743 0
9760 9759 -9743 0
-9761 9760 9745 0
-9761 -9760 -9745 0
9761 -9760 9745 0
9761 9760 -9745 0
-9761 0
-9762 9712 0
-9762 34 0
9762 -9712 -34 0
-9763 9714 0
-9763 34 0
9763 -9714 -34 0
-9764 9716 0
-9764 35 0
9764 -9716 -35 0
-9765 9718 0
-9765 37 0
9765 -9718 -37 0
-9766 9720 0
-9766 37 0
9766 -9720 -37 0
-9767 9722 0
-9767 41 0
9767 -9722 -41 0
-9768 9724 0
-9768 82 0
9768 -9724 -82 0
-9769 9726 0
-9769 82 0
9769 -9726 -82 0
-9770 9728 0
-9770 83 0
9770 -9728 -83 0
-9771 9730 0
-9771 85 0
9771 -9730 -85 0
-9772 9732 0
-9772 85 0
9772 -9732 -85 0
-9773 9734 0
-9773 89 0
9773 -9734 -89 0
-9774 9736 0
-9774 130 0
9774 -9736 -130 0
-9775 9738 0
-9775 132 0
9775 -9738 -132 0
-9776 9740 0
-9776 133 0
9776 -9740 -133 0
-9777 9742 0
-9777 141 0
9777 -9742 -141 0
-9778 9744 0
-9778 178 0
9778 -9744 -178 0
-9779 9762 9763 0
-9779 -9762 -9763 0
9779 -9762 9763 0
9779 9762 -9763 0
-9780 9779 9764 0
-9780 -9779 -9764 0
9780 -9779 9764 0
9780 9779 -9764 0
-9781 9780 9765 0
-9781 -9780 -9765 0
9781 -9780 9765 0
9781 9780 -9765 0
-9782 9781 9766 0
-9782 -9781 -9766 0
9782 -9781 9766 0
9782 9781 -9766 0
-9783 9782 9767 0
-9783 -9782 -9767 0
9783 -9782 9767 0
9783 9782 -9767 0
-9784 9783 9768 0
-9784 -9783 -9768 0
9784 -9783 9768 0
9784 9783 -9768 0
-9785 9784 9769 0
-9785 -9784 -9769 0
9785 -9784 9769 0
9785 9784 -9769 0
-9786 9785 9770 0
-9786 -9785 -9770 0
9786 -9785 9770 0
9786 9785 -9770 0
-9787 9786 9771 0
-9787 -9786 -9771 0
9787 -9786 9771 0
9787 9786 -9771 0
-9788 9787 9772 0
-9788 -9787 -9772 0
9788 -9787 9772 0
9788 9787 -9772 0
-9789 9788 9773 0
-9789 -9788 -9773 0
9789 -9788 9773 0
9789 9788 -9773 0
-9790 9789 9774 0
-9790 -9789 -9774 0
9790 -9789 9774 0
9790 9789 -9774 0
-9791 9790 9775 0
-9791 -9790 -9775 0
9791 -9790 9775 0
9791 9790 -9775 0
-9792 9791 9776 0
-9792 -9791 -9776 0
9792 -9791 9776 0
9792 9791 -9776 0
-9793 9792 9777 0
-9793 -9792 -9777 0
9793 -9792 9777 0
9793 9792 -9777 0
-9794 9793 9778 0
-9794 -9793 -9778 0
9794 -9793 9778 0
9794 9793 -9778 0
-9794 0
-9795 9712 0
-9795 35 0
9795 -9712 -35 0
-9796 9714 0
-9796 36 0
9796 -9714 -36 0
-9797 9716 0
-9797 36 0
9797 -9716 -36 0
-9798 9718 0
-9798 41 0
9798 -9718 -41 0
-9799 9720 0
-9799 45 0
9799 -9720 -45 0
-9800 9722 0
-9800 45 0
9800 -9722 -45 0
-9801 9724 0
-9801 83 0
9801 -9724 -83 0
-9802 9726 0
-9802 84 0
9802 -9726 -84 0
-9803 9728 0
-9803 84 0
9803 -9728 -84 0
-9804 9730 0
-9804 89 0
9804 -9730 -89 0
-9805 9732 0
-9805 93 0
9805 -9732 -93 0
-9806 9734 0
-9806 93 0
9806 -9734 -93 0
-9807 9736 0
-9807 131 0
9807 -9736 -131 0
-9808 9738 0
-9808 131 0
9808 -9738 -131 0
-9809 9740 0
-9809 137 0
9809 -9740 -137 0
-9810 9742 0
-9810 137 0
9810 -9742 -137 0
-9811 9744 0
-9811 179 0
9811 -9744 -179 0
-9812 9795 9796 0
-9812 -9795 -9796 0
9812 -9795 9796 0
9812 9795 -9796 0
-9813 9812 9797 0
-9813 -9812 -9797 0
9813 -9812 9797 0
9813 9812 -9797 0
-9814 9813 9798 0
-9814 -9813 -9798 0
9814 -9813 9798 0
9814 9813 -9798 0
-9815 9814 9799 0
-9815 -9814 -9799 0
9815 -9814 9799 0
9815 9814 -9799 0
-9816 9815 9800 0
-9816 -9815 -9800 0
9816 -9815 9800 0
9816 9815 -9800 0
-9817 9816 9801 0
-9817 -9816 -9801 0
9817 -9816 9801 0
9817 9816 -9801 0
-9818 9817 9802 0
-9818 -9817 -9802 0
9818 -9817 9802 0
9818 9817 -9802 0
-9819 9818 9803 0
-9819 -9818 -9803 0
9819 -9818 9803 0
9819 9818 -9803 0
-9820 9819 9804 0
-9820 -9819 -9804 0
9820 -9819 9804 0
9820 9819 -9804 0
-9821 9820 9805 0
-9821 -9820 -9805 0
9821 -9820 9805 0
9821 9820 -9805 0
-9822 9821 9806 0
-9822 -9821 -9806 0
9822 -9821 9806 0
9822 9821 -9806 0
-9823 9822 9807 0
-9823 -9822 -9807 0
9823 -9822 9807 0
9823 9822 -9807 0
-9824 9823 9808 0
-9824 -9823 -9808 0
9824 -9823 9808 0
9824 9823 -9808 0
-9825 9824 9809 0
-9825 -9824 -9809 0
9825 -9824 9809 0
9825 9824 -9809 0
-9826 9825 9810 0
-9826 -9825 -9810 0
9826 -9825 9810 0
9826 9825 -9810 0
-9827 9826 9811 0
-9827 -9826 -9811 0
9827 -9826 9811 0
9827 9826 -9811 0
-9827 0
-9828 9712 0
-9828 36 0
9828 -9712 -36 0
-9829 9714 0
-9829 35 0
9829 -9714 -35 0
-9830 9716 0
-9830 34 0
9830 -9716 -34 0
-9831 9718 0
-9831 45 0
9831 -9718 -45 0
-9832 9720 0
-9832 41 0
9832 -9720 -41 0
-9833 9722 0
-9833 37 0
9833 -9722 -37 0
-9834 9724 0
-9834 84 0
9834 -9724 -84 0
-9835 9726 0
-9835 83 0
9835 -9726 -83 0
-9836 9728 0
-9836 82 0
9836 -9728 -82 0
-9837 9730 0
-9837 93 0
9837 -9730 -93 0
-9838 9732 0
-9838 89 0
9838 -9732 -89 0
-9839 9734 0
-9839 85 0
9839 -9734 -85 0
-9840 9736 0
-9840 132 0
9840 -9736 -132 0
-9841 9738 0
-9841 130 0
9841 -9738 -130 0
-9842 9740 0
-9842 141 0
9842 -9740 -141 0
-9843 9742 0
-9843 133 0
9843 -9742 -133 0
-9844 9744 0
-9844 180 0
9844 -9744 -180 0
-9845 9828 9829 0
-9845 -9828 -9829 0
9845 -9828 9829 0
9845 9828 -9829 0
-9846 9845 9830 0
-9846 -9845 -9830 0
9846 -9845 9830 0
9846 9845 -9830 0
-9847 9846 9831 0
-9847 -9846 -9831 0
9847 -9846 9831 0
9847 9846 -9831 0
-9848 9847 9832 0
-9848 -9847 -9832 0
9848 -9847 9832 0
9848 9847 -9832 0
-9849 9848 9833 0
-9849 -9848 -9833 0
9849 -9848 9833 0
9849 9848 -9833 0
-9850 9849 9834 0
-9850 -9849 -9834 0
9850 -9849 9834 0
9850 9849 -9834 0
-9851 9850 9835 0
-9851 -9850 -9835 0
9851 -9850 9835 0
9851 9850 -9835 0
-9852 9851 9836 0
-9852 -9851 -9836 0
9852 -9851 9836 0
9852 9851 -9836 0
-9853 9852 9837 0
-9853 -9852 -9837 0
9853 -9852 9837 0
9853 9852 -9837 0
-9854 9853 9838 0
-9854 -9853 -9838 0
9854 -9853 9838 0
9854 9853 -9838 0
-9855 9854 9839 0
-9855 -9854 -9839 0
9855 -9854 9839 0
9855 9854 -9839 0
-9856 9855 9840 0
-9856 -9855 -9840 0
9856 -9855 9840 0
9856 9855 -9840 0
-9857 9856 9841 0
-9857 -9856 -9841 0
9857 -9856 9841 0
9857 9856 -9841 0
-9858 9857 9842 0
-9858 -9857 -9842 0
9858 -9857 9842 0
9858 9857 -9842 0
-9859 9858 9843 0
-9859 -9858 -9843 0
9859 -9858 9843 0
9859 9858 -9843 0
-9860 9859 9844 0
-9860 -9859 -9844 0
9860 -9859 9844 0
9860 9859 -9844 0
-9860 0
-9861 9712 0
-9861 37 0
9861 -9712 -37 0
-9862 9714 0
-9862 37 0
9862 -9714 -37 0
-9863 9716 0
-9863 41 0
9863 -9716 -41 0
-9864 9718 0
-9864 34 0
9864 -9718 -34 0
-9865 9720 0
-9865 34 0
9865 -9720 -34 0
-9866 9722 0
-9866 35 0
9866 -9722 -35 0
-9867 9724 0
-9867 85 0
9867 -9724 -85 0
-9868 9726 0
-9868 85 0
9868 -9726 -85 0
-9869 9728 0
-9869 89 0
9869 -9728 -89 0
-9870 9730 0
-9870 82 0
9870 -9730 -82 0
-9871 9732 0
-9871 82 0
9871 -9732 -82 0
-9872 9734 0
-9872 83 0
9872 -9734 -83 0
-9873 9736 0
-9873 133 0
9873 -9736 -133 0
-9874 9738 0
-9874 141 0
9874 -9738 -141 0
-9875 9740 0
-9875 130 0
9875 -9740 -130 0
-9876 9742 0
-9876 132 0
9876 -9742 -132 0
-9877 9744 0
-9877 181 0
9877 -9744 -181 0
-9878 9861 9862 0
-9878 -9861 -9862 0
9878 -9861 9862 0
9878 9861 -9862 0
-9879 9878 9863 0
-9879 -9878 -9863 0
9879 -9878 9863 0
9879 9878 -9863 0
-9880 9879 9864 0
-9880 -9879 -9864 0
9880 -9879 9864 0
9880 9879 -9864 0
-9881 9880 9865 0
-9881 -9880 -9865 0
9881 -9880 9865 0
9881 9880 -9865 0
-9882 9881 9866 0
-9882 -9881 -9866 0
9882 -9881 9866 0
9882 9881 -9866 0
-9883 9882 9867 0
-9883 -9882 -9867 0
9883 -9882 9867 0
9883 9882 -9867 0
-9884 9883 9868 0
-9884 -9883 -9868 0
9884 -9883 9868 0
9884 9883 -9868 0
-9885 9884 9869 0
-9885 -9884 -9869 0
9885 -9884 9869 0
9885 9884 -9869 0
-9886 9885 9870 0
-9886 -9885 -9870 0
9886 -9885 9870 0
9886 9885 -9870 0
-9887 9886 9871 0
-9887 -9886 -9871 0
9887 -9886 9871 0
9887 9886 -9871 0
-9888 9887 9872 0
-9888 -9887 -9872 0
9888 -9887 9872 0
9888 9887 -9872 0
-9889 9888 9873 0
-9889 -9888 -9873 0
9889 -9888 9873 0
9889 9888 -9873 0
-9890 9889 9874 0
-9890 -9889 -9874 0
9890 -9889 9874 0
9890 9889 -9874 0
-9891 9890 9875 0
-9891 -9890 -9875 0
9891 -9890 9875 0
9891 9890 -9875 0
-9892 9891 9876 0
-9892 -9891 -9876 0
9892 -9891 9876 0
9892 9891 -9876 0
-9893 9892 9877 0
-9893 -9892 -9877 0
9893 -9892 9877 0
9893 9892 -9877 0
-9893 0
-9894 9712 0
-9894 38 0
9894 -9712 -38 0
-9895 9714 0
-9895 38 0
9895 -9714 -38 0
-9896 9716 0
-9896 43 0
9896 -9716 -43 0
-9897 9718 0
-9897 38 0
9897 -9718 -38 0
-9898 9720 0
-9898 38 0
9898 -9720 -38 0
-9899 9722 0
-9899 43 0
9899 -9722 -43 0
-9900 9724 0
-9900 86 0
9900 -9724 -86 0
-9901 9726 0
-9901 86 0
9901 -9726 -86 0
-9902 9728 0
-9902 91 0
9902 -9728 -91 0
-9903 9730 0
-9903 86 0
9903 -9730 -86 0
-9904 9732 0
-9904 86 0
9904 -9732 -86 0
-9905 9734 0
-9905 91 0
9905 -9734 -91 0
-9906 9736 0
-9906 134 0
9906 -9736 -134 0
-9907 9738 0
-9907 144 0
9907 -9738 -144 0
-9908 9740 0
-9908 134 0
9908 -9740 -134 0
-9909 9742 0
-9909 144 0
9909 -9742 -144 0
-9910 9744 0
-9910 182 0
9910 -9744 -182 0
-9911 9894 9895 0
-9911 -9894 -9895 0
9911 -9894 9895 0
9911 9894 -9895 0
-9912 9911 9896 0
-9912 -9911 -9896 0
9912 -9911 9896 0
9912 9911 -9896 0
-9913 9912 9897 0
-9913 -9912 -9897 0
9913 -9912 9897 0
9913 9912 -9897 0
-9914 9913 9898 0
-9914 -9913 -9898 0
9914 -9913 9898 0
9914 9913 -9898 0
-9915 9914 9899 0
-9915 -9914 -9899 0
9915 -9914 9899 0
9915 9914 -9899 0
-9916 9915 9900 0
-9916 -9915 -9900 0
9916 -9915 9900 0
9916 9915 -9900 0
-9917 9916 9901 0
-9917 -9916 -9901 0
9917 -9916 9901 0
9917 9916 -9901 0
-9918 9917 9902 0
-9918 -9917 -9902 0
9918 -9917 9902 0
9918 9917 -9902 0
-9919 9918 9903 0
-9919 -9918 -9903 0
9919 -9918 9903 0
9919 9918 -9903 0
-9920 9919 9904 0
-9920 -9919 -9904 0
9920 -9919 9904 0
9920 9919 -9904 0
-9921 9920 9905 0
-9921 -9920 -9905 0
9921 -9920 9905 0
9921 9920 -9905 0
-9922 9921 9906 0
-9922 -9921 -9906 0
9922 -9921 9906 0
9922 9921 -9906 0
-9923 9922 9907 0
-9923 -9922 -9907 0
9923 -9922 9907 0
9923 9922 -9907 0
-9924 9923 9908 0
-9924 -9923 -9908 0
9924 -9923 9908 0
9924 9923 -9908 0
-9925 9924 9909 0
-9925 -9924 -9909 0
9925 -9924 9909 0
9925 9924 -9909 0
-9926 9925 9910 0
-9926 -9925 -9910 0
9926 -9925 9910 0
9926 9925 -9910 0
-9926 0
-9927 9712 0
-9927 39 0
9927 -9712 -39 0
-9928 9714 0
-9928 40 0
9928 -9714 -40 0
-9929 9716 0
-9929 44 0
9929 -9716 -44 0
-9930 9718 0
-9930 42 0
9930 -9718 -42 0
-9931 9720 0
-9931 46 0
9931 -9720 -46 0
-9932 9722 0
-9932 47 0
9932 -9722 -47 0
-9933 9724 0
-9933 87 0
9933 -9724 -87 0
-9934 9726 0
-9934 88 0
9934 -9726 -88 0
-9935 9728 0
-9935 92 0
9935 -9728 -92 0
-9936 9730 0
-9936 90 0
9936 -9730 -90 0
-9937 9732 0
-9937 94 0
9937 -9732 -94 0
-9938 9734 0
-9938 95 0
9938 -9734 -95 0
-9939 9736 0
-9939 135 0
9939 -9736 -135 0
-9940 9738 0
-9940 143 0
9940 -9738 -143 0
-9941 9740 0
-9941 138 0
9941 -9740 -138 0
-9942 9742 0
-9942 140 0
9942 -9742 -140 0
-9943 9744 0
-9943 183 0
9943 -9744 -183 0
-9944 9927 9928 0
-9944 -9927 -9928 0
9944 -9927 9928 0
9944 9927 -9928 0
-9945 9944 9929 0
-9945 -9944 -9929 0
9945 -9944 9929 0
9945 9944 -9929 0
-9946 9945 9930 0
-9946 -9945 -9930 0
9946 -9945 9930 0
9946 9945 -9930 0
-9947 9946 9931 0
-9947 -9946 -9931 0
9947 -9946 9931 0
9947 9946 -9931 0
-9948 9947 9932 0
-9948 -9947 -9932 0
9948 -9947 9932 0
9948 9947 -9932 0
-9949 9948 9933 0
-9949 -9948 -9933 0
9949 -9948 9933 0
9949 9948 -9933 0
-9950 9949 9934 0
-9950 -9949 -9934 0
9950 -9949 9934 0
9950 9949 -9934 0
-9951 9950 9935 0
-9951 -9950 -9935 0
9951 -9950 9935 0
9951 9950 -9935 0
-9952 9951 9936 0
-9952 -9951 -9936 0
9952 -9951 9936 0
9952 9951 -9936 0
-9953 9952 9937 0
-9953 -9952 -9937 0
9953 -9952 9937 0
9953 9952 -9937 0
-9954 9953 9938 0
-9954 -9953 -9938 0
9954 -9953 9938 0
9954 9953 -9938 0
-9955 9954 9939 0
-9955 -9954 -9939 0
9955 -9954 9939 0
9955 9954 -9939 0
-9956 9955 9940 0
-9956 -9955 -9940 0
9956 -9955 9940 0
9956 9955 -9940 0
-9957 9956 9941 0
-9957 -9956 -9941 0
9957 -9956 9941 0
9957 9956 -9941 0
-9958 9957 9942 0
-9958 -9957 -9942 0
9958 -9957 9942 0
9958 9957 -9942 0
-9959 9958 9943 0
-9959 -9958 -9943 0
9959 -9958 9943 0
9959 9958 -9943 0
-9959 0
-9960 9712 0
-9960 40 0
9960 -9712 -40 0
-9961 9714 0
-9961 39 0
9961 -9714 -39 0
-9962 9716 0
-9962 42 0
9962 -9716 -42 0
-9963 9718 0
-9963 46 0
9963 -9718 -46 0
-9964 9720 0
-9964 42 0
9964 -9720 -42 0
-9965 9722 0
-9965 39 0
9965 -9722 -39 0
-9966 9724 0
-9966 88 0
9966 -9724 -88 0
-9967 9726 0
-9967 87 0
9967 -9726 -87 0
-9968 9728 0
-9968 90 0
9968 -9728 -90 0
-9969 9730 0
-9969 94 0
9969 -9730 -94 0
-9970 9732 0
-9970 90 0
9970 -9732 -90 0
-9971 9734 0
-9971 87 0
9971 -9734 -87 0
-9972 9736 0
-9972 136 0
9972 -9736 -136 0
-9973 9738 0
-9973 142 0
9973 -9738 -142 0
-9974 9740 0
-9974 142 0
9974 -9740 -142 0
-9975 9742 0
-9975 136 0
9975 -9742 -136 0
-9976 9744 0
-9976 184 0
9976 -9744 -184 0
-9977 9960 9961 0
-9977 -9960 -9961 0
9977 -9960 9961 0
9977 9960 -9961 0
-9978 9977 9962 0
-9978 -9977 -9962 0
9978 -9977 9962 0
9978 9977 -9962 0
-9979 9978 9963 0
-9979 -9978 -9963 0
9979 -9978 9963 0
9979 9978 -9963 0
-9980 9979 9964 0
-9980 -9979 -9964 0
9980 -9979 9964 0
9980 9979 -9964 0
-9981 9980 9965 0
-9981 -9980 -9965 0
9981 -9980 9965 0
9981 9980 -9965 0
-9982 9981 9966 0
-9982 -9981 -9966 0
9982 -9981 9966 0
9982 9981 -9966 0
-9983 9982 9967 0
-9983 -9982 -9967 0
9983 -9982 9967 0
9983 9982 -9967 0
-9984 9983 9968 0
-9984 -9983 -9968 0
9984 -9983 9968 0
9984 9983 -9968 0
-9985 9984 9969 0
-9985 -9984 -9969 0
9985 -9984 9969 0
9985 9984 -9969 0
-9986 9985 9970 0
-9986 -9985 -9970 0
9986 -9985 9970 0
9986 9985 -9970 0
-9987 9986 9971 0
-9987 -9986 -9971 0
9987 -9986 9971 0
9987 9986 -9971 0
-9988 9987 9972 0
-9988 -9987 -9972 0
9988 -9987 9972 0
9988 9987 -9972 0
-9989 9988 9973 0
-9989 -9988 -9973 0
9989 -9988 9973 0
9989 9988 -9973 0
-9990 9989 9974 0
-9990 -9989 -9974 0
9990 -9989 9974 0
9990 9989 -9974 0
-9991 9990 9975 0
-9991 -9990 -9975 0
9991 -9990 9975 0
9991 9990 -9975 0
-9992 9991 9976 0
-9992 -9991 -9976 0
9992 -9991 9976 0
9992 9991 -9976 0
-9992 0
-9993 9712 0
-9993 41 0
9993 -9712 -41 0
-9994 9714 0
-9994 45 0
9994 -9714 -45 0
-9995 9716 0
-9995 45 0
9995 -9716 -45 0
-9996 9718 0
-9996 35 0
9996 -9718 -35 0
-9997 9720 0
-9997 36 0
9997 -9720 -36 0
-9998 9722 0
-9998 36 0
9998 -9722 -36 0
-9999 9724 0
-9999 89 0
9999 -9724 -89 0
-10000 9726 0
-10000 93 0
10000 -9726 -93 0
-10001 9728 0
-10001 93 0
10001 -9728 -93 0
-10002 9730 0
-10002 83 0
10002 -9730 -83 0
-10003 9732 0
-10003 84 0
10003 -9732 -84 0
-10004 9734 0
-10004 84 0
10004 -9734 -84 0
-10005 9736 0
-10005 137 0
10005 -9736 -137 0
-10006 9738 0
-10006 137 0
10006 -9738 -137 0
-10007 9740 0
-10007 131 0
10007 -9740 -131 0
-10008 9742 0
-10008 131 0
10008 -9742 -131 0
-10009 9744 0
-10009 185 0
10009 -9744 -185 0
-10010 9993 9994 0
-10010 -9993 -9994 0
10010 -9993 9994 0
10010 9993 -9994 0
-10011 10010 9995 0
-10011 -10010 -9995 0
10011 -10010 9995 0
10011 10010 -9995 0
-10012 10011 9996 0
-10012 -10011 -9996 0
10012 -10011 9996 0
10012 10011 -9996 0
-10013 10012 9997 0
-10013 -10012 -9997 0
10013 -10012 9997 0
10013 10012 -9997 0
-10014 10013 9998 0
-10014 -10013 -9998 0
10014 -10013 9998 0
10014 10013 -9998 0
-10015 10014 9999 0
-10015 -10014 -9999 0
10015 -10014 9999 0
10015 10014 -9999 0
-10016 10015 10000 0
-10016 -10015 -10000 0
10016 -10015 10000 0
10016 10015 -10000 0
-10017 10016 10001 0
-10017 -10016 -10001 0
10017 -10016 10001 0
10017 10016 -10001 0
-10018 10017 10002 0
-10018 -10017 -10002 0
10018 -10017 10002 0
10018 10017 -10002 0
-10019 10018 10003 0
-10019 -10018 -10003 0
10019 -10018 10003 0
10019 10018 -10003 0
-10020 10019 10004 0
-10020 -10019 -10004 0
10020 -10019 10004 0
10020 10019 -10004 0
-10021 10020 10005 0
-10021 -10020 -10005 0
10021 -10020 10005 0
10021 10020 -10005 0
-10022 10021 10006 0
-10022 -10021 -10006 0
10022 -10021 10006 0
10022 10021 -10006 0
-10023 10022 10007 0
-10023 -10022 -10007 0
10023 -10022 10007 0
10023 10022 -10007 0
-10024 10023 10008 0
-10024 -10023 -10008 0
10024 -10023 10008 0
10024 10023 -10008 0
-10025 10024 10009 0
-10025 -10024 -10009 0
10025 -10024 10009 0
10025 10024 -10009 0
-10025 0
-10026 9712 0
-10026 42 0
10026 -9712 -42 0
-10027 9714 0
-10027 46 0
10027 -9714 -46 0
-10028 9716 0
-10028 47 0
10028 -9716 -47 0
-10029 9718 0
-10029 39 0
10029 -9718 -39 0
-10030 9720 0
-10030 40 0
10030 -9720 -40 0
-10031 9722 0
-10031 44 0
10031 -9722 -44 0
-10032 9724 0
-10032 90 0
10032 -9724 -90 0
-10033 9726 0
-10033 94 0
10033 -9726 -94 0
-10034 9728 0
-10034 95 0
10034 -9728 -95 0
-10035 9730 0
-10035 87 0
10035 -9730 -87 0
-10036 9732 0
-10036 88 0
10036 -9732 -88 0
-10037 9734 0
-10037 92 0
10037 -9734 -92 0
-10038 9736 0
-10038 138 0
10038 -9736 -138 0
-10039 9738 0
-10039 140 0
10039 -9738 -140 0
-10040 9740 0
-10040 135 0
10040 -9740 -135 0
-10041 9742 0
-10041 143 0
10041 -9742 -143 0
-10042 9744 0
-10042 186 0
10042 -9744 -186 0
-10043 10026 10027 0
-10043 -10026 -10027 0
10043 -10026 10027 0
10043 10026 -10027 0
-10044 10043 10028 0
-10044 -10043 -10028 0
10044 -10043 10028 0
10044 10043 -10028 0
-10045 10044 10029 0
-10045 -10044 -10029 0
10045 -10044 10029 0
10045 10044 -10029 0
-10046 10045 10030 0
-10046 -10045 -10030 0
10046 -10045 10030 0
10046 10045 -10030 0
-10047 10046 10031 0
-10047 -10046 -10031 0
10047 -10046 10031 0
10047 10046 -10031 0
-10048 10047 10032 0
-10048 -10047 -10032 0
10048 -10047 10032 0
10048 10047 -10032 0
-10049 10048 10033 0
-10049 -10048 -10033 0
10049 -10048 10033 0
10049 10048 -10033 0
-10050 10049 10034 0
-10050 -10049 -10034 0
10050 -10049 10034 0
10050 10049 -10034 0
-10051 10050 10035 0
-10051 -10050 -10035 0
10051 -10050 10035 0
10051 10050 -10035 0
-10052 10051 10036 0
-10052 -10051 -10036 0
10052 -10051 10036 0
10052 10051 -10036 0
-10053 10052 10037 0
-10053 -10052 -10037 0
10053 -10052 10037 0
10053 10052 -10037 0
-10054 10053 10038 0
-10054 -10053 -10038 0
10054 -10053 10038 0
10054 10053 -10038 0
-10055 10054 10039 0
-10055 -10054 -10039 0
10055 -10054 10039 0
10055 10054 -10039 0
-10056 10055 10040 0
-10056 -10055 -10040 0
10056 -10055 10040 0
10056 10055 -10040 0
-10057 10056 10041 0
-10057 -10056 -10041 0
10057 -10056 10041 0
10057 10056 -10041 0
-10058 10057 10042 0
-10058 -10057 -10042 0
10058 -10057 10042 0
10058 10057 -10042 0
-10058 0
-10059 9712 0
-10059 43 0
10059 -9712 -43 0
-10060 9714 0
-10060 48 0
10060 -9714 -48 0
-10061 9716 0
-10061 48 0
10061 -9716 -48 0
-10062 9718 0
-10062 43 0
10062 -9718 -43 0
-10063 9720 0
-10063 48 0
10063 -9720 -48 0
-10064 9722 0
-10064 48 0
10064 -9722 -48 0
-10065 9724 0
-10065 91 0
10065 -9724 -91 0
-10066 9726 0
-10066 96 0
10066 -9726 -96 0
-10067 9728 0
-10067 96 0
10067 -9728 -96 0
-10068 9730 0
-10068 91 0
10068 -9730 -91 0
-10069 9732 0
-10069 96 0
10069 -9732 -96 0
-10070 9734 0
-10070 96 0
10070 -9734 -96 0
-10071 9736 0
-10071 139 0
10071 -9736 -139 0
-10072 9738 0
-10072 139 0
10072 -9738 -139 0
-10073 9740 0
-10073 139 0
10073 -9740 -139 0
-10074 9742 0
-10074 139 0
10074 -9742 -139 0
-10075 9744 0
-10075 187 0
10075 -9744 -187 0
-10076 10059 10060 0
-10076 -10059 -10060 0
10076 -10059 10060 0
10076 10059 -10060 0
-10077 10076 10061 0
-10077 -10076 -10061 0
10077 -10076 10061 0
10077 10076 -10061 0
-10078 10077 10062 0
-10078 -10077 -10062 0
10078 -10077 10062 0
10078 10077 -10062 0
-10079 10078 10063 0
-10079 -10078 -10063 0
10079 -10078 10063 0
10079 10078 -10063 0
-10080 10079 10064 0
-10080 -10079 -10064 0
10080 -10079 10064 0
10080 10079 -10064 0
-10081 10080 10065 0
-10081 -10080 -10065 0
10081 -10080 10065 0
10081 10080 -10065 0
-10082 10081 10066 0
-10082 -10081 -10066 0
10082 -10081 10066 0
10082 10081 -10066 0
-10083 10082 10067 0
-10083 -10082 -10067 0
10083 -10082 10067 0
10083 10082 -10067 0
-10084 10083 10068 0
-10084 -10083 -10068 0
10084 -10083 10068 0
10084 10083 -10068 0
-10085 10084 10069 0
-10085 -10084 -10069 0
10085 -10084 10069 0
10085 10084 -10069 0
-10086 10085 10070 0
-10086 -10085 -10070 0
10086 -10085 10070 0
10086 10085 -10070 0
-10087 10086 10071 0
-10087 -10086 -10071 0
10087 -10086 10071 0
10087 10086 -10071 0
-10088 10087 10072 0
-10088 -10087 -10072 0
10088 -10087 10072 0
10088 10087 -10072 0
-10089 10088 10073 0
-10089 -10088 -10073 0
10089 -10088 10073 0
10089 10088 -10073 0
-10090 10089 10074 0
-10090 -10089 -10074 0
10090 -10089 10074 0
10090 10089 -10074 0
-10091 10090 10075 0
-10091 -10090 -10075 0
10091 -10090 10075 0
10091 10090 -10075 0
-10091 0
-10092 9712 0
-10092 44 0
10092 -9712 -44 0
-10093 9714 0
-10093 47 0
10093 -9714 -47 0
-10094 9716 0
-10094 46 0
10094 -9716 -46 0
-10095 9718 0
-10095 47 0
10095 -9718 -47 0
-10096 9720 0
-10096 44 0
10096 -9720 -44 0
-10097 9722 0
-10097 40 0
10097 -9722 -40 0
-10098 9724 0
-10098 92 0
10098 -9724 -92 0
-10099 9726 0
-10099 95 0
10099 -9726 -95 0
-10100 9728 0
-10100 94 0
10100 -9728 -94 0
-10101 9730 0
-10101 95 0
10101 -9730 -95 0
-10102 9732 0
-10102 92 0
10102 -9732 -92 0
-10103 9734 0
-10103 88 0
10103 -9734 -88 0
-10104 9736 0
-10104 140 0
10104 -9736 -140 0
-10105 9738 0
-10105 138 0
10105 -9738 -138 0
-10106 9740 0
-10106 143 0
10106 -9740 -143 0
-10107 9742 0
-10107 135 0
10107 -9742 -135 0
-10108 9744 0
-10108 188 0
10108 -9744 -188 0
-10109 10092 10093 0
-10109 -10092 -10093 0
10109 -10092 10093 0
10109 10092 -10093 0
-10110 10109 10094 0
-10110 -10109 -10094 0
10110 -10109 10094 0
10110 10109 -10094 0
-10111 10110 10095 0
-10111 -10110 -10095 0
10111 -10110 10095 0
10111 10110 -10095 0
-10112 10111 10096 0
-10112 -10111 -10096 0
10112 -10111 10096 0
10112 10111 -10096 0
-10113 10112 10097 0
-10113 -10112 -10097 0
10113 -10112 10097 0
10113 10112 -10097 0
-10114 10113 10098 0
-10114 -10113 -10098 0
10114 -10113 10098 0
10114 10113 -10098 0
-10115 10114 10099 0
-10115 -10114 -10099 0
10115 -10114 10099 0
10115 10114 -10099 0
-10116 10115 10100 0
-10116 -10115 -10100 0
10116 -10115 10100 0
10116 10115 -10100 0
-10117 10116 10101 0
-10117 -10116 -10101 0
10117 -10116 10101 0
10117 10116 -10101 0
-10118 10117 10102 0
-10118 -10117 -10102 0
10118 -10117 10102 0
10118 10117 -10102 0
-10119 10118 10103 0
-10119 -10118 -10103 0
10119 -10118 10103 0
10119 10118 -10103 0
-10120 10119 10104 0
-10120 -10119 -10104 0
10120 -10119 10104 0
10120 10119 -10104 0
-10121 10120 10105 0
-10121 -10120 -10105 0
10121 -10120 10105 0
10121 10120 -10105 0
-10122 10121 10106 0
-10122 -10121 -10106 0
10122 -10121 10106 0
10122 10121 -10106 0
-10123 10122 10107 0
-10123 -10122 -10107 0
10123 -10122 10107 0
10123 10122 -10107 0
-10124 10123 10108 0
-10124 -10123 -10108 0
10124 -10123 10108 0
10124 10123 -10108 0
-10124 0
-10125 9712 0
-10125 45 0
10125 -9712 -45 0
-10126 9714 0
-10126 41 0
10126 -9714 -41 0
-10127 9716 0
-10127 37 0
10127 -9716 -37 0
-10128 9718 0
-10128 36 0
10128 -9718 -36 0
-10129 9720 0
-10129 35 0
10129 -9720 -35 0
-10130 9722 0
-10130 34 0
10130 -9722 -34 0
-10131 9724 0
-10131 93 0
10131 -9724 -93 0
-10132 9726 0
-10132 89 0
10132 -9726 -89 0
-10133 9728 0
-10133 85 0
10133 -9728 -85 0
-10134 9730 0
-10134 84 0
10134 -9730 -84 0
-10135 9732 0
-10135 83 0
10135 -9732 -83 0
-10136 9734 0
-10136 82 0
10136 -9734 -82 0
-10137 9736 0
-10137 141 0
10137 -9736 -141 0
-10138 9738 0
-10138 133 0
10138 -9738 -133 0
-10139 9740 0
-10139 132 0
10139 -9740 -132 0
-10140 9742 0
-10140 130 0
10140 -9742 -130 0
-10141 9744 0
-10141 189 0
10141 -9744 -189 0
-10142 10125 10126 0
-10142 -10125 -10126 0
10142 -10125 10126 0
10142 10125 -10126 0
-10143 10142 10127 0
-10143 -10142 -10127 0
10143 -10142 10127 0
10143 10142 -10127 0
-10144 10143 10128 0
-10144 -10143 -10128 0
10144 -10143 10128 0
10144 10143 -10128 0
-10145 10144 10129 0
-10145 -10144 -10129 0
10145 -10144 10129 0
10145 10144 -10129 0
-10146 10145 10130 0
-10146 -10145 -10130 0
10146 -10145 10130 0
10146 10145 -10130 0
-10147 10146 10131 0
-10147 -10146 -10131 0
10147 -10146 10131 0
10147 10146 -10131 0
-10148 10147 10132 0
-10148 -10147 -10132 0
10148 -10147 10132 0
10148 10147 -10132 0
-10149 10148 10133 0
-10149 -10148 -10133 0
10149 -10148 10133 0
10149 10148 -10133 0
-10150 10149 10134 0
-10150 -10149 -10134 0
10150 -10149 10134 0
10150 10149 -10134 0
-10151 10150 10135 0
-10151 -10150 -10135 0
10151 -10150 10135 0
10151 10150 -10135 0
-10152 10151 10136 0
-10152 -10151 -10136 0
10152 -10151 10136 0
10152 10151 -10136 0
-10153 10152 10137 0
-10153 -10152 -10137 0
10153 -10152 10137 0
10153 10152 -10137 0
-10154 10153 10138 0
-10154 -10153 -10138 0
10154 -10153 10138 0
10154 10153 -10138 0
-10155 10154 10139 0
-10155 -10154 -10139 0
10155 -10154 10139 0
10155 10154 -10139 0
-10156 10155 10140 0
-10156 -10155 -10140 0
10156 -10155 10140 0
10156 10155 -10140 0
-10157 10156 10141 0
-10157 -10156 -10141 0
10157 -10156 10141 0
10157 10156 -10141 0
-10157 0
-10158 9712 0
-10158 46 0
10158 -9712 -46 0
-10159 9714 0
-10159 42 0
10159 -9714 -42 0
-10160 9716 0
-10160 39 0
10160 -9716 -39 0
-10161 9718 0
-10161 40 0
10161 -9718 -40 0
-10162 9720 0
-10162 39 0
10162 -9720 -39 0
-10163 9722 0
-10163 42 0
10163 -9722 -42 0
-10164 9724 0
-10164 94 0
10164 -9724 -94 0
-10165 9726 0
-10165 90 0
10165 -9726 -90 0
-10166 9728 0
-10166 87 0
10166 -9728 -87 0
-10167 9730 0
-10167 88 0
10167 -9730 -88 0
-10168 9732 0
-10168 87 0
10168 -9732 -87 0
-10169 9734 0
-10169 90 0
10169 -9734 -90 0
-10170 9736 0
-10170 142 0
10170 -9736 -142 0
-10171 9738 0
-10171 136 0
10171 -9738 -136 0
-10172 9740 0
-10172 136 0
10172 -9740 -136 0
-10173 9742 0
-10173 142 0
10173 -9742 -142 0
-10174 9744 0
-10174 190 0
10174 -9744 -190 0
-10175 10158 10159 0
-10175 -10158 -10159 0
10175 -10158 10159 0
10175 10158 -10159 0
-10176 10175 10160 0
-10176 -10175 -10160 0
10176 -10175 10160 0
10176 10175 -10160 0
-10177 10176 10161 0
-10177 -10176 -10161 0
10177 -10176 10161 0
10177 10176 -10161 0
-10178 10177 10162 0
-10178 -10177 -10162 0
10178 -10177 10162 0
10178 10177 -10162 0
-10179 10178 10163 0
-10179 -10178 -10163 0
10179 -10178 10163 0
10179 10178 -10163 0
-10180 10179 10164 0
-10180 -10179 -10164 0
10180 -10179 10164 0
10180 10179 -10164 0
-10181 10180 10165 0
-10181 -10180 -10165 0
10181 -10180 10165 0
10181 10180 -10165 0
-10182 10181 10166 0
-10182 -10181 -10166 0
10182 -10181 10166 0
10182 10181 -10166 0
-10183 10182 10167 0
-10183 -10182 -10167 0
10183 -10182 10167 0
10183 10182 -10167 0
-10184 10183 10168 0
-10184 -10183 -10168 0
10184 -10183 10168 0
10184 10183 -10168 0
-10185 10184 10169 0
-10185 -10184 -10169 0
10185 -10184 10169 0
10185 10184 -10169 0
-10186 10185 10170 0
-10186 -10185 -10170 0
10186 -10185 10170 0
10186 10185 -10170 0
-10187 10186 10171 0
-10187 -10186 -10171 0
10187 -10186 10171 0
10187 10186 -10171 0
-10188 10187 10172 0
-10188 -10187 -10172 0
10188 -10187 10172 0
10188 10187 -10172 0
-10189 10188 10173 0
-10189 -10188 -10173 0
10189 -10188 10173 0
10189 10188 -10173 0
-10190 10189 10174 0
-10190 -10189 -10174 0
10190 -10189 10174 0
10190 10189 -10174 0
-10190 0
-10191 9712 0
-10191 47 0
10191 -9712 -47 0
-10192 9714 0
-10192 44 0
10192 -9714 -44 0
-10193 9716 0
-10193 40 0
10193 -9716 -40 0
-10194 9718 0
-10194 44 0
10194 -9718 -44 0
-10195 9720 0
-10195 47 0
10195 -9720 -47 0
-10196 9722 0
-10196 46 0
10196 -9722 -46 0
-10197 9724 0
-10197 95 0
10197 -9724 -95 0
-10198 9726 0
-10198 92 0
10198 -9726 -92 0
-10199 9728 0
-10199 88 0
10199 -9728 -88 0
-10200 9730 0
-10200 92 0
10200 -9730 -92 0
-10201 9732 0
-10201 95 0
10201 -9732 -95 0
-10202 9734 0
-10202 94 0
10202 -9734 -94 0
-10203 9736 0
-10203 143 0
10203 -9736 -143 0
-10204 9738 0
-10204 135 0
10204 -9738 -135 0
-10205 9740 0
-10205 140 0
10205 -9740 -140 0
-10206 9742 0
-10206 138 0
10206 -9742 -138 0
-10207 9744 0
-10207 191 0
10207 -9744 -191 0
-10208 10191 10192 0
-10208 -10191 -10192 0
10208 -10191 10192 0
10208 10191 -10192 0
-10209 10208 10193 0
-10209 -10208 -10193 0
10209 -10208 10193 0
10209 10208 -10193 0
-10210 10209 10194 0
-10210 -10209 -10194 0
10210 -10209 10194 0
10210 10209 -10194 0
-10211 10210 10195 0
-10211 -10210 -10195 0
10211 -10210 10195 0
10211 10210 -10195 0
-10212 10211 10196 0
-10212 -10211 -10196 0
10212 -10211 10196 0
10212 10211 -10196 0
-10213 10212 10197 0
-10213 -10212 -10197 0
10213 -10212 10197 0
10213 10212 -10197 0
-10214 10213 10198 0
-10214 -10213 -10198 0
10214 -10213 10198 0
10214 10213 -10198 0
-10215 10214 10199 0
-10215 -10214 -10199 0
10215 -10214 10199 0
10215 10214 -10199 0
-10216 10215 10200 0
-10216 -10215 -10200 0
10216 -10215 10200 0
10216 10215 -10200 0
-10217 10216 10201 0
-10217 -10216 -10201 0
10217 -10216 10201 0
10217 10216 -10201 0
-10218 10217 10202 0
-10218 -10217 -10202 0
10218 -10217 10202 0
10218 10217 -10202 0
-10219 10218 10203 0
-10219 -10218 -10203 0
10219 -10218 10203 0
10219 10218 -10203 0
-10220 10219 10204 0
-10220 -10219 -10204 0
10220 -10219 10204 0
10220 10219 -10204 0
-10221 10220 10205 0
-10221 -10220 -10205 0
10221 -10220 10205 0
10221 10220 -10205 0
-10222 10221 10206 0
-10222 -10221 -10206 0
10222 -10221 10206 0
10222 10221 -10206 0
-10223 10222 10207 0
-10223 -10222 -10207 0
10223 -10222 10207 0
10223 10222 -10207 0
-10223 0
-10224 9712 0
-10224 48 0
10224 -9712 -48 0
-10225 9714 0
-10225 43 0
10225 -9714 -43 0
-10226 9716 0
-10226 38 0
10226 -9716 -38 0
-10227 9718 0
-10227 48 0
10227 -9718 -48 0
-10228 9720 0
-10228 43 0
10228 -9720 -43 0
-10229 9722 0
-10229 38 0
10229 -9722 -38 0
-10230 9724 0
-10230 96 0
10230 -9724 -96 0
-10231 9726 0
-10231 91 0
10231 -9726 -91 0
-10232 9728 0
-10232 86 0
10232 -9728 -86 0
-10233 9730 0
-10233 96 0
10233 -9730 -96 0
-10234 9732 0
-10234 91 0
10234 -9732 -91 0
-10235 9734 0
-10235 86 0
10235 -9734 -86 0
-10236 9736 0
-10236 144 0
10236 -9736 -144 0
-10237 9738 0
-10237 134 0
10237 -9738 -134 0
-10238 9740 0
-10238 144 0
10238 -9740 -144 0
-10239 9742 0
-10239 134 0
10239 -9742 -134 0
-10240 9744 0
-10240 192 0
10240 -9744 -192 0
-10241 10224 10225 0
-10241 -10224 -10225 0
10241 -10224 10225 0
10241 10224 -10225 0
-10242 10241 10226 0
-10242 -10241 -10226 0
10242 -10241 10226 0
10242 10241 -10226 0
-10243 10242 10227 0
-10243 -10242 -10227 0
10243 -10242 10227 0
10243 10242 -10227 0
-10244 10243 10228 0
-10244 -10243 -10228 0
10244 -10243 10228 0
10244 10243 -10228 0
-10245 10244 10229 0
-10245 -10244 -10229 0
10245 -10244 10229 0
10245 10244 -10229 0
-10246 10245 10230 0
-10246 -10245 -10230 0
10246 -10245 10230 0
10246 10245 -10230 0
-10247 10246 10231 0
-10247 -10246 -10231 0
10247 -10246 10231 0
10247 10246 -10231 0
-10248 10247 10232 0
-10248 -10247 -10232 0
10248 -10247 10232 0
10248 10247 -10232 0
-10249 10248 10233 0
-10249 -10248 -10233 0
10249 -10248 10233 0
10249 10248 -10233 0
-10250 10249 10234 0
-10250 -10249 -10234 0
10250 -10249 10234 0
10250 10249 -10234 0
-10251 10250 10235 0
-10251 -10250 -10235 0
10251 -10250 10235 0
10251 10250 -10235 0
-10252 10251 10236 0
-10252 -10251 -10236 0
10252 -10251 10236 0
10252 10251 -10236 0
-10253 10252 10237 0
-10253 -10252 -10237 0
10253 -10252 10237 0
10253 10252 -10237 0
-10254 10253 10238 0
-10254 -10253 -10238 0
10254 -10253 10238 0
10254 10253 -10238 0
-10255 10254 10239 0
-10255 -10254 -10239 0
10255 -10254 10239 0
10255 10254 -10239 0
-10256 10255 10240 0
-10256 -10255 -10240 0
10256 -10255 10240 0
10256 10255 -10240 0
-10256 0
-10257 5 0
-10257 32 0
10257 -5 -32 0
-10258 10257 0
-10258 33 0
10258 -10257 -33 0
-10259 6 0
-10259 31 0
10259 -6 -31 0
-10260 10259 0
-10260 33 0
10260 -10259 -33 0
-10261 10 0
-10261 30 0
10261 -10 -30 0
-10262 10261 0
-10262 33 0
10262 -10261 -33 0
-10263 18 0
-10263 16 0
10263 -18 -16 0
-10264 10263 0
-10264 33 0
10264 -10263 -33 0
-10265 22 0
-10265 12 0
10265 -22 -12 0
-10266 10265 0
-10266 33 0
10266 -10265 -33 0
-10267 23 0
-10267 8 0
10267 -23 -8 0
-10268 10267 0
-10268 33 0
10268 -10267 -33 0
-10269 53 0
-10269 80 0
10269 -53 -80 0
-10270 10269 0
-10270 81 0
10270 -10269 -81 0
-10271 54 0
-10271 79 0
10271 -54 -79 0
-10272 10271 0
-10272 81 0
10272 -10271 -81 0
-10273 58 0
-10273 78 0
10273 -58 -78 0
-10274 10273 0
-10274 81 0
10274 -10273 -81 0
-10275 66 0
-10275 64 0
10275 -66 -64 0
-10276 10275 0
-10276 81 0
10276 -10275 -81 0
-10277 70 0
-10277 60 0
10277 -70 -60 0
-10278 10277 0
-10278 81 0
10278 -10277 -81 0
-10279 71 0
-10279 56 0
10279 -71 -56 0
-10280 10279 0
-10280 81 0
10280 -10279 -81 0
-10281 101 0
-10281 128 0
10281 -101 -128 0
-10282 10281 0
-10282 129 0
10282 -10281 -129 0
-10283 109 0
-10283 126 0
10283 -109 -126 0
-10284 10283 0
-10284 129 0
10284 -10283 -129 0
-10285 114 0
-10285 112 0
10285 -114 -112 0
-10286 10285 0
-10286 129 0
10286 -10285 -129 0
-10287 116 0
-10287 104 0
10287 -116 -104 0
-10288 10287 0
-10288 129 0
10288 -10287 -129 0
-10289 149 0
-10289 176 0
10289 -149 -176 0
-10290 10289 0
-10290 177 0
10290 -10289 -177 0
-10291 10258 10260 0
-10291 -10258 -10260 0
10291 -10258 10260 0
10291 10258 -10260 0
-10292 10291 10262 0
-10292 -10291 -10262 0
10292 -10291 10262 0
10292 10291 -10262 0
-10293 10292 10264 0
-10293 -10292 -10264 0
10293 -10292 10264 0
10293 10292 -10264 0
-10294 10293 10266 0
-10294 -10293 -10266 0
10294 -10293 10266 0
10294 10293 -10266 0
-10295 10294 10268 0
-10295 -10294 -10268 0
10295 -10294 10268 0
10295 10294 -10268 0
-10296 10295 10270 0
-10296 -10295 -10270 0
10296 -10295 10270 0
10296 10295 -10270 0
-10297 10296 10272 0
-10297 -10296 -10272 0
10297 -10296 10272 0
10297 10296 -10272 0
-10298 10297 10274 0
-10298 -10297 -10274 0
10298 -10297 10274 0
10298 10297 -10274 0
-10299 10298 10276 0
-10299 -10298 -10276 0
10299 -10298 10276 0
10299 10298 -10276 0
-10300 10299 10278 0
-10300 -10299 -10278 0
10300 -10299 10278 0
10300 10299 -10278 0
-10301 10300 10280 0
-10301 -10300 -10280 0
10301 -10300 10280 0
10301 10300 -10280 0
-10302 10301 10282 0
-10302 -10301 -10282 0
10302 -10301 10282 0
10302 10301 -10282 0
-10303 10302 10284 0
-10303 -10302 -10284 0
10303 -10302 10284 0
10303 10302 -10284 0
-10304 10303 10286 0
-10304 -10303 -10286 0
10304 -10303 10286 0
10304 10303 -10286 0
-10305 10304 10288 0
-10305 -10304 -10288 0
10305 -10304 10288 0
10305 10304 -10288 0
-10306 10305 10290 0
-10306 -10305 -10290 0
10306 -10305 10290 0
10306 10305 -10290 0
-10306 0
-10307 10257 0
-10307 34 0
10307 -10257 -34 0
-10308 10259 0
-10308 34 0
10308 -10259 -34 0
-10309 10261 0
-10309 35 0
10309 -10261 -35 0
-10310 10263 0
-10310 37 0
10310 -10263 -37 0
-10311 10265 0
-10311 37 0
10311 -10265 -37 0
-10312 10267 0
-10312 41 0
10312 -10267 -41 0
-10313 10269 0
-10313 82 0
10313 -10269 -82 0
-10314 10271 0
-10314 82 0
10314 -10271 -82 0
-10315 10273 0
-10315 83 0
10315 -10273 -83 0
-10316 10275 0
-10316 85 0
10316 -10275 -85 0
-10317 10277 0
-10317 85 0
10317 -10277 -85 0
-10318 10279 0
-10318 89 0
10318 -10279 -89 0
-10319 10281 0
-10319 130 0
10319 -10281 -130 0
-10320 10283 0
-10320 132 0
10320 -10283 -132 0
-10321 10285 0
-10321 133 0
10321 -10285 -133 0
-10322 10287 0
-10322 141 0
10322 -10287 -141 0
-10323 10289 0
-10323 178 0
10323 -10289 -178 0
-10324 10307 10308 0
-10324 -10307 -10308 0
10324 -10307 10308 0
10324 10307 -10308 0
-10325 10324 10309 0
-10325 -10324 -10309 0
10325 -10324 10309 0
10325 10324 -10309 0
-10326 10325 10310 0
-10326 -10325 -10310 0
10326 -10325 10310 0
10326 10325 -10310 0
-10327 10326 10311 0
-10327 -10326 -10311 0
10327 -10326 10311 0
10327 10326 -10311 0
-10328 10327 10312 0
-10328 -10327 -10312 0
10328 -10327 10312 0
10328 10327 -10312 0
-10329 10328 10313 0
-10329 -10328 -10313 0
10329 -10328 10313 0
10329 10328 -10313 0
-10330 10329 10314 0
-10330 -10329 -10314 0
10330 -10329 10314 0
10330 10329 -10314 0
-10331 10330 10315 0
-10331 -10330 -10315 0
10331 -10330 10315 0
10331 10330 -10315 0
-10332 10331 10316 0
-10332 -10331 -10316 0
10332 -10331 10316 0
10332 10331 -10316 0
-10333 10332 10317 0
-10333 -10332 -10317 0
10333 -10332 10317 0
10333 10332 -10317 0
-10334 10333 10318 0
-10334 -10333 -10318 0
10334 -10333 10318 0
10334 10333 -10318 0
-10335 10334 10319 0
-10335 -10334 -10319 0
10335 -10334 10319 0
10335 10334 -10319 0
-10336 10335 10320 0
-10336 -10335 -10320 0
10336 -10335 10320 0
10336 10335 -10320 0
-10337 10336 10321 0
-10337 -10336 -10321 0
10337 -10336 10321 0
10337 10336 -10321 0
-10338 10337 10322 0
-10338 -10337 -10322 0
10338 -10337 10322 0
10338 10337 -10322 0
-10339 10338 10323 0
-10339 -10338 -10323 0
10339 -10338 10323 0
10339 10338 -10323 0
10339 0
-10340 10257 0
-10340 35 0
10340 -10257 -35 0
-10341 10259 0
-10341 36 0
10341 -10259 -36 0
-10342 10261 0
-10342 36 0
10342 -10261 -36 0
-10343 10263 0
-10343 41 0
10343 -10263 -41 0
-10344 10265 0
-10344 45 0
10344 -10265 -45 0
-10345 10267 0
-10345 45 0
10345 -10267 -45 0
-10346 10269 0
-10346 83 0
10346 -10269 -83 0
-10347 10271 0
-10347 84 0
10347 -10271 -84 0
-10348 10273 0
-10348 84 0
10348 -10273 -84 0
-10349 10275 0
-10349 89 0
10349 -10275 -89 0
-10350 10277 0
-10350 93 0
10350 -10277 -93 0
-10351 10279 0
-10351 93 0
10351 -10279 -93 0
-10352 10281 0
-10352 131 0
10352 -10281 -131 0
-10353 10283 0
-10353 131 0
10353 -10283 -131 0
-10354 10285 0
-10354 137 0
10354 -10285 -137 0
-10355 10287 0
-10355 137 0
10355 -10287 -137 0
-10356 10289 0
-10356 179 0
10356 -10289 -179 0
-10357 10340 10341 0
-10357 -10340 -10341 0
10357 -10340 10341 0
10357 10340 -10341 0
-10358 10357 10342 0
-10358 -10357 -10342 0
10358 -10357 10342 0
10358 10357 -10342 0
-10359 10358 10343 0
-10359 -10358 -10343 0
10359 -10358 10343 0
10359 10358 -10343 0
-10360 10359 10344 0
-10360 -10359 -10344 0
10360 -10359 10344 0
10360 10359 -10344 0
-10361 10360 10345 0
-10361 -10360 -10345 0
10361 -10360 10345 0
10361 10360 -10345 0
-10362 10361 10346 0
-10362 -10361 -10346 0
10362 -10361 10346 0
10362 10361 -10346 0
-10363 10362 10347 0
-10363 -10362 -10347 0
10363 -10362 10347 0
10363 10362 -10347 0
-10364 10363 10348 0
-10364 -10363 -10348 0
10364 -10363 10348 0
10364 10363 -10348 0
-10365 10364 10349 0
-10365 -10364 -10349 0
10365 -10364 10349 0
10365 10364 -10349 0
-10366 10365 10350 0
-10366 -10365 -10350 0
10366 -10365 10350 0
10366 10365 -10350 0
-10367 10366 10351 0
-10367 -10366 -10351 0
10367 -10366 10351 0
10367 10366 -10351 0
-10368 10367 10352 0
-10368 -10367 -10352 0
10368 -10367 10352 0
10368 10367 -10352 0
-10369 10368 10353 0
-10369 -10368 -10353 0
10369 -10368 10353 0
10369 10368 -10353 0
-10370 10369 10354 0
-10370 -10369 -10354 0
10370 -10369 10354 0
10370 10369 -10354 0
-10371 10370 10355 0
-10371 -10370 -10355 0
10371 -10370 10355 0
10371 10370 -10355 0
-10372 10371 10356 0
-10372 -10371 -10356 0
10372 -10371 10356 0
10372 10371 -10356 0
-10372 0
-10373 10257 0
-10373 36 0
10373 -10257 -36 0
-10374 10259 0
-10374 35 0
10374 -10259 -35 0
-10375 10261 0
-10375 34 0
10375 -10261 -34 0
-10376 10263 0
-10376 45 0
10376 -10263 -45 0
-10377 10265 0
-10377 41 0
10377 -10265 -41 0
-10378 10267 0
-10378 37 0
10378 -10267 -37 0
-10379 10269 0
-10379 84 0
10379 -10269 -84 0
-10380 10271 0
-10380 83 0
10380 -10271 -83 0
-10381 10273 0
-10381 82 0
10381 -10273 -82 0
-10382 10275 0
-10382 93 0
10382 -10275 -93 0
-10383 10277 0
-10383 89 0
10383 -10277 -89 0
-10384 10279 0
-10384 85 0
10384 -10279 -85 0
-10385 10281 0
-10385 132 0
10385 -10281 -132 0
-10386 10283 0
-10386 130 0
10386 -10283 -130 0
-10387 10285 0
-10387 141 0
10387 -10285 -141 0
-10388 10287 0
-10388 133 0
10388 -10287 -133 0
-10389 10289 0
-10389 180 0
10389 -10289 -180 0
-10390 10373 10374 0
-10390 -10373 -10374 0
10390 -10373 10374 0
10390 10373 -10374 0
-10391 10390 10375 0
-10391 -10390 -10375 0
10391 -10390 10375 0
10391 10390 -10375 0
-10392 10391 10376 0
-10392 -10391 -10376 0
10392 -10391 10376 0
10392 10391 -10376 0
-10393 10392 10377 0
-10393 -10392 -10377 0
10393 -10392 10377 0
10393 10392 -10377 0
-10394 10393 10378 0
-10394 -10393 -10378 0
10394 -10393 10378 0
10394 10393 -10378 0
-10395 10394 10379 0
-10395 -10394 -10379 0
10395 -10394 10379 0
10395 10394 -10379 0
-10396 10395 10380 0
-10396 -10395 -10380 0
10396 -10395 10380 0
10396 10395 -10380 0
-10397 10396 10381 0
-10397 -10396 -10381 0
10397 -10396 10381 0
10397 10396 -10381 0
-10398 10397 10382 0
-10398 -10397 -10382 0
10398 -10397 10382 0
10398 10397 -10382 0
-10399 10398 10383 0
-10399 -10398 -10383 0
10399 -10398 10383 0
10399 10398 -10383 0
-10400 10399 10384 0
-10400 -10399 -10384 0
10400 -10399 10384 0
10400 10399 -10384 0
-10401 10400 10385 0
-10401 -10400 -10385 0
10401 -10400 10385 0
10401 10400 -10385 0
-10402 10401 10386 0
-10402 -10401 -10386 0
10402 -10401 10386 0
10402 10401 -10386 0
-10403 10402 10387 0
-10403 -10402 -10387 0
10403 -10402 10387 0
10403 10402 -10387 0
-10404 10403 10388 0
-10404 -10403 -10388 0
10404 -10403 10388 0
10404 10403 -10388 0
-10405 10404 10389 0
-10405 -10404 -10389 0
10405 -10404 10389 0
10405 10404 -10389 0
-10405 0
-10406 10257 0
-10406 37 0
10406 -10257 -37 0
-10407 10259 0
-10407 37 0
10407 -10259 -37 0
-10408 10261 0
-10408 41 0
10408 -10261 -41 0
-10409 10263 0
-10409 34 0
10409 -10263 -34 0
-10410 10265 0
-10410 34 0
10410 -10265 -34 0
-10411 10267 0
-10411 35 0
10411 -10267 -35 0
-10412 10269 0
-10412 85 0
10412 -10269 -85 0
-10413 10271 0
-10413 85 0
10413 -10271 -85 0
-10414 10273 0
-10414 89 0
10414 -10273 -89 0
-10415 10275 0
-10415 82 0
10415 -10275 -82 0
-10416 10277 0
-10416 82 0
10416 -10277 -82 0
-10417 10279 0
-10417 83 0
10417 -10279 -83 0
-10418 10281 0
-10418 133 0
10418 -10281 -133 0
-10419 10283 0
-10419 141 0
10419 -10283 -141 0
-10420 10285 0
-10420 130 0
10420 -10285 -130 0
-10421 10287 0
-10421 132 0
10421 -10287 -132 0
-10422 10289 0
-10422 181 0
10422 -10289 -181 0
-10423 10406 10407 0
-10423 -10406 -10407 0
10423 -10406 10407 0
10423 10406 -10407 0
-10424 10423 10408 0
-10424 -10423 -10408 0
10424 -10423 10408 0
10424 10423 -10408 0
-10425 10424 10409 0
-10425 -10424 -10409 0
10425 -10424 10409 0
10425 10424 -10409 0
-10426 10425 10410 0
-10426 -10425 -10410 0
10426 -10425 10410 0
10426 10425 -10410 0
-10427 10426 10411 0
-10427 -10426 -10411 0
10427 -10426 10411 0
10427 10426 -10411 0
-10428 10427 10412 0
-10428 -10427 -10412 0
10428 -10427 10412 0
10428 10427 -10412 0
-10429 10428 10413 0
-10429 -10428 -10413 0
10429 -10428 10413 0
10429 10428 -10413 0
-10430 10429 10414 0
-10430 -10429 -10414 0
10430 -10429 10414 0
10430 10429 -10414 0
-10431 10430 10415 0
-10431 -10430 -10415 0
10431 -10430 10415 0
10431 10430 -10415 0
-10432 10431 10416 0
-10432 -10431 -10416 0
10432 -10431 10416 0
10432 10431 -10416 0
-10433 10432 10417 0
-10433 -10432 -10417 0
10433 -10432 10417 0
10433 10432 -10417 0
-10434 10433 10418 0
-10434 -10433 -10418 0
10434 -10433 10418 0
10434 10433 -10418 0
-10435 10434 10419 0
-10435 -10434 -10419 0
10435 -10434 10419 0
10435 10434 -10419 0
-10436 10435 10420 0
-10436 -10435 -10420 0
10436 -10435 10420 0
10436 10435 -10420 0
-10437 10436 10421 0
-10437 -10436 -10421 0
10437 -10436 10421 0
10437 10436 -10421 0
-10438 10437 10422 0
-10438 -10437 -10422 0
10438 -10437 10422 0
10438 10437 -10422 0
-10438 0
-10439 10257 0
-10439 38 0
10439 -10257 -38 0
-10440 10259 0
-10440 38 0
10440 -10259 -38 0
-10441 10261 0
-10441 43 0
10441 -10261 -43 0
-10442 10263 0
-10442 38 0
10442 -10263 -38 0
-10443 10265 0
-10443 38 0
10443 -10265 -38 0
-10444 10267 0
-10444 43 0
10444 -10267 -43 0
-10445 10269 0
-10445 86 0
10445 -10269 -86 0
-10446 10271 0
-10446 86 0
10446 -10271 -86 0
-10447 10273 0
-10447 91 0
10447 -10273 -91 0
-10448 10275 0
-10448 86 0
10448 -10275 -86 0
-10449 10277 0
-10449 86 0
10449 -10277 -86 0
-10450 10279 0
-10450 91 0
10450 -10279 -91 0
-10451 10281 0
-10451 134 0
10451 -10281 -134 0
-10452 10283 0
-10452 144 0
10452 -10283 -144 0
-10453 10285 0
-10453 134 0
10453 -10285 -134 0
-10454 10287 0
-10454 144 0
10454 -10287 -144 0
-10455 10289 0
-10455 182 0
10455 -10289 -182 0
-10456 10439 10440 0
-10456 -10439 -10440 0
10456 -10439 10440 0
10456 10439 -10440 0
-10457 10456 10441 0
-10457 -10456 -10441 0
10457 -10456 10441 0
10457 10456 -10441 0
-10458 10457 10442 0
-10458 -10457 -10442 0
10458 -10457 10442 0
10458 10457 -10442 0
-10459 10458 10443 0
-10459 -10458 -10443 0
10459 -10458 10443 0
10459 10458 -10443 0
-10460 10459 10444 0
-10460 -10459 -10444 0
10460 -10459 10444 0
10460 10459 -10444 0
-10461 10460 10445 0
-10461 -10460 -10445 0
10461 -10460 10445 0
10461 10460 -10445 0
-10462 10461 10446 0
-10462 -10461 -10446 0
10462 -10461 10446 0
10462 10461 -10446 0
-10463 10462 10447 0
-10463 -10462 -10447 0
10463 -10462 10447 0
10463 10462 -10447 0
-10464 10463 10448 0
-10464 -10463 -10448 0
10464 -10463 10448 0
10464 10463 -10448 0
-10465 10464 10449 0
-10465 -10464 -10449 0
10465 -10464 10449 0
10465 10464 -10449 0
-10466 10465 10450 0
-10466 -10465 -10450 0
10466 -10465 10450 0
10466 10465 -10450 0
-10467 10466 10451 0
-10467 -10466 -10451 0
10467 -10466 10451 0
10467 10466 -10451 0
-10468 10467 10452 0
-10468 -10467 -10452 0
10468 -10467 10452 0
10468 10467 -10452 0
-10469 10468 10453 0
-10469 -10468 -10453 0
10469 -10468 10453 0
10469 10468 -10453 0
-10470 10469 10454 0
-10470 -10469 -10454 0
10470 -10469 10454 0
10470 10469 -10454 0
-10471 10470 10455 0
-10471 -10470 -10455 0
10471 -10470 10455 0
10471 10470 -10455 0
10471 0
-10472 10257 0
-10472 39 0
10472 -10257 -39 0
-10473 10259 0
-10473 40 0
10473 -10259 -40 0
-10474 10261 0
-10474 44 0
10474 -10261 -44 0
-10475 10263 0
-10475 42 0
10475 -10263 -42 0
-10476 10265 0
-10476 46 0
10476 -10265 -46 0
-10477 10267 0
-10477 47 0
10477 -10267 -47 0
-10478 10269 0
-10478 87 0
10478 -10269 -87 0
-10479 10271 0
-10479 88 0
10479 -10271 -88 0
-10480 10273 0
-10480 92 0
10480 -10273 -92 0
-10481 10275 0
-10481 90 0
10481 -10275 -90 0
-10482 10277 0
-10482 94 0
10482 -10277 -94 0
-10483 10279 0
-10483 95 0
10483 -10279 -95 0
-10484 10281 0
-10484 135 0
10484 -10281 -135 0
-10485 10283 0
-10485 143 0
10485 -10283 -143 0
-10486 10285 0
-10486 138 0
10486 -10285 -138 0
-10487 10287 0
-10487 140 0
10487 -10287 -140 0
-10488 10289 0
-10488 183 0
10488 -10289 -183 0
-10489 10472 10473 0
-10489 -10472 -10473 0
10489 -10472 10473 0
10489 10472 -10473 0
-10490 10489 10474 0
-10490 -10489 -10474 0
10490 -10489 10474 0
10490 10489 -10474 0
-10491 10490 10475 0
-10491 -10490 -10475 0
10491 -10490 10475 0
10491 10490 -10475 0
-10492 10491 10476 0
-10492 -10491 -10476 0
10492 -10491 10476 0
10492 10491 -10476 0
-10493 10492 10477 0
-10493 -10492 -10477 0
10493 -10492 10477 0
10493 10492 -10477 0
-10494 10493 10478 0
-10494 -10493 -10478 0
10494 -10493 10478 0
10494 10493 -10478 0
-10495 10494 10479 0
-10495 -10494 -10479 0
10495 -10494 10479 0
10495 10494 -10479 0
-10496 10495 10480 0
-10496 -10495 -10480 0
10496 -10495 10480 0
10496 10495 -10480 0
-10497 10496 10481 0
-10497 -10496 -10481 0
10497 -10496 10481 0
10497 10496 -10481 0
-10498 10497 10482 0
-10498 -10497 -10482 0
10498 -10497 10482 0
10498 10497 -10482 0
-10499 10498 10483 0
-10499 -10498 -10483 0
10499 -10498 10483 0
10499 10498 -10483 0
-10500 10499 10484 0
-10500 -10499 -10484 0
10500 -10499 10484 0
10500 10499 -10484 0
-10501 10500 10485 0
-10501 -10500 -10485 0
10501 -10500 10485 0
10501 10500 -10485 0
-10502 10501 10486 0
-10502 -10501 -10486 0
10502 -10501 10486 0
10502 10501 -10486 0
-10503 10502 10487 0
-10503 -10502 -10487 0
10503 -10502 10487 0
10503 10502 -10487 0
-10504 10503 10488 0
-10504 -10503 -10488 0
10504 -10503 10488 0
10504 10503 -10488 0
-10504 0
-10505 10257 0
-10505 40 0
10505 -10257 -40 0
-10506 10259 0
-10506 39 0
10506 -10259 -39 0
-10507 10261 0
-10507 42 0
10507 -10261 -42 0
-10508 10263 0
-10508 46 0
10508 -10263 -46 0
-10509 10265 0
-10509 42 0
10509 -10265 -42 0
-10510 10267 0
-10510 39 0
10510 -10267 -39 0
-10511 10269 0
-10511 88 0
10511 -10269 -88 0
-10512 10271 0
-10512 87 0
10512 -10271 -87 0
-10513 10273 0
-10513 90 0
10513 -10273 -90 0
-10514 10275 0
-10514 94 0
10514 -10275 -94 0
-10515 10277 0
-10515 90 0
10515 -10277 -90 0
-10516 10279 0
-10516 87 0
10516 -10279 -87 0
-10517 10281 0
-10517 136 0
10517 -10281 -136 0
-10518 10283 0
-10518 142 0
10518 -10283 -142 0
-10519 10285 0
-10519 142 0
10519 -10285 -142 0
-10520 10287 0
-10520 136 0
10520 -10287 -136 0
-10521 10289 0
-10521 184 0
10521 -10289 -184 0
-10522 10505 10506 0
-10522 -10505 -10506 0
10522 -10505 10506 0
10522 10505 -10506 0
-10523 10522 10507 0
-10523 -10522 -10507 0
10523 -10522 10507 0
10523 10522 -10507 0
-10524 10523 10508 0
-10524 -10523 -10508 0
10524 -10523 10508 0
10524 10523 -10508 0
-10525 10524 10509 0
-10525 -10524 -10509 0
10525 -10524 10509 0
10525 10524 -10509 0
-10526 10525 10510 0
-10526 -10525 -10510 0
10526 -10525 10510 0
10526 10525 -10510 0
-10527 10526 10511 0
-10527 -10526 -10511 0
10527 -10526 10511 0
10527 10526 -10511 0
-10528 10527 10512 0
-10528 -10527 -10512 0
10528 -10527 10512 0
10528 10527 -10512 0
-10529 10528 10513 0
-10529 -10528 -10513 0
10529 -10528 10513 0
10529 10528 -10513 0
-10530 10529 10514 0
-10530 -10529 -10514 0
10530 -10529 10514 0
10530 10529 -10514 0
-10531 10530 10515 0
-10531 -10530 -10515 0
10531 -10530 10515 0
10531 10530 -10515 0
-10532 10531 10516 0
-10532 -10531 -10516 0
10532 -10531 10516 0
10532 10531 -10516 0
-10533 10532 10517 0
-10533 -10532 -10517 0
10533 -10532 10517 0
10533 10532 -10517 0
-10534 10533 10518 0
-10534 -10533 -10518 0
10534 -10533 10518 0
10534 10533 -10518 0
-10535 10534 10519 0
-10535 -10534 -10519 0
10535 -10534 10519 0
10535 10534 -10519 0
-10536 10535 10520 0
-10536 -10535 -10520 0
10536 -10535 10520 0
10536 10535 -10520 0
-10537 10536 10521 0
-10537 -10536 -10521 0
10537 -10536 10521 0
10537 10536 -10521 0
-10537 0
-10538 10257 0
-10538 41 0
10538 -10257 -41 0
-10539 10259 0
-10539 45 0
10539 -10259 -45 0
-10540 10261 0
-10540 45 0
10540 -10261 -45 0
-10541 10263 0
-10541 35 0
10541 -10263 -35 0
-10542 10265 0
-10542 36 0
10542 -10265 -36 0
-10543 10267 0
-10543 36 0
10543 -10267 -36 0
-10544 10269 0
-10544 89 0
10544 -10269 -89 0
-10545 10271 0
-10545 93 0
10545 -10271 -93 0
-10546 10273 0
-10546 93 0
10546 -10273 -93 0
-10547 10275 0
-10547 83 0
10547 -10275 -83 0
-10548 10277 0
-10548 84 0
10548 -10277 -84 0
-10549 10279 0
-10549 84 0
10549 -10279 -84 0
-10550 10281 0
-10550 137 0
10550 -10281 -137 0
-10551 10283 0
-10551 137 0
10551 -10283 -137 0
-10552 10285 0
-10552 131 0
10552 -10285 -131 0
-10553 10287 0
-10553 131 0
10553 -10287 -131 0
-10554 10289 0
-10554 185 0
10554 -10289 -185 0
-10555 10538 10539 0
-10555 -10538 -10539 0
10555 -10538 10539 0
10555 10538 -10539 0
-10556 10555 10540 0
-10556 -10555 -10540 0
10556 -10555 10540 0
10556 10555 -10540 0
-10557 10556 10541 0
-10557 -10556 -10541 0
10557 -10556 10541 0
10557 10556 -10541 0
-10558 10557 10542 0
-10558 -10557 -10542 0
10558 -10557 10542 0
10558 10557 -10542 0
-10559 10558 10543 0
-10559 -10558 -10543 0
10559 -10558 10543 0
10559 10558 -10543 0
-10560 10559 10544 0
-10560 -10559 -10544 0
10560 -10559 10544 0
10560 10559 -10544 0
-10561 10560 10545 0
-10561 -10560 -10545 0
10561 -10560 10545 0
10561 10560 -10545 0
-10562 10561 10546 0
-10562 -10561 -10546 0
10562 -10561 10546 0
10562 10561 -10546 0
-10563 10562 10547 0
-10563 -10562 -10547 0
10563 -10562 10547 0
10563 10562 -10547 0
-10564 10563 10548 0
-10564 -10563 -10548 0
10564 -10563 10548 0
10564 10563 -10548 0
-10565 10564 10549 0
-10565 -10564 -10549 0
10565 -10564 10549 0
10565 10564 -10549 0
-10566 10565 10550 0
-10566 -10565 -10550 0
10566 -10565 10550 0
10566 10565 -10550 0
-10567 10566 10551 0
-10567 -10566 -10551 0
10567 -10566 10551 0
10567 10566 -10551 0
-10568 10567 10552 0
-10568 -10567 -10552 0
10568 -10567 10552 0
10568 10567 -10552 0
-10569 10568 10553 0
-10569 -10568 -10553 0
10569 -10568 10553 0
10569 10568 -10553 0
-10570 10569 10554 0
-10570 -10569 -10554 0
10570 -10569 10554 0
10570 10569 -10554 0
-10570 0
-10571 10257 0
-10571 42 0
10571 -10257 -42 0
-10572 10259 0
-10572 46 0
10572 -10259 -46 0
-10573 10261 0
-10573 47 0
10573 -10261 -47 0
-10574 10263 0
-10574 39 0
10574 -10263 -39 0
-10575 10265 0
-10575 40 0
10575 -10265 -40 0
-10576 10267 0
-10576 44 0
10576 -10267 -44 0
-10577 10269 0
-10577 90 0
10577 -10269 -90 0
-10578 10271 0
-10578 94 0
10578 -10271 -94 0
-10579 10273 0
-10579 95 0
10579 -10273 -95 0
-10580 10275 0
-10580 87 0
10580 -10275 -87 0
-10581 10277 0
-10581 88 0
10581 -10277 -88 0
-10582 10279 0
-10582 92 0
10582 -10279 -92 0
-10583 10281 0
-10583 138 0
10583 -10281 -138 0
-10584 10283 0
-10584 140 0
10584 -10283 -140 0
-10585 10285 0
-10585 135 0
10585 -10285 -135 0
-10586 10287 0
-10586 143 0
10586 -10287 -143 0
-10587 10289 0
-10587 186 0
10587 -10289 -186 0
-10588 10571 10572 0
-10588 -10571 -10572 0
10588 -10571 10572 0
10588 10571 -10572 0
-10589 10588 10573 0
-10589 -10588 -10573 0
10589 -10588 10573 0
10589 10588 -10573 0
-10590 10589 10574 0
-10590 -10589 -10574 0
10590 -10589 10574 0
10590 10589 -10574 0
-10591 10590 10575 0
-10591 -10590 -10575 0
10591 -10590 10575 0
10591 10590 -10575 0
-10592 10591 10576 0
-10592 -10591 -10576 0
10592 -10591 10576 0
10592 10591 -10576 0
-10593 10592 10577 0
-10593 -10592 -10577 0
10593 -10592 10577 0
10593 10592 -10577 0
-10594 10593 10578 0
-10594 -10593 -10578 0
10594 -10593 10578 0
10594 10593 -10578 0
-10595 10594 10579 0
-10595 -10594 -10579 0
10595 -10594 10579 0
10595 10594 -10579 0
-10596 10595 10580 0
-10596 -10595 -10580 0
10596 -10595 10580 0
10596 10595 -10580 0
-10597 10596 10581 0
-10597 -10596 -10581 0
10597 -10596 10581 0
10597 10596 -10581 0
-10598 10597 10582 0
-10598 -10597 -10582 0
10598 -10597 10582 0
10598 10597 -10582 0
-10599 10598 10583 0
-10599 -10598 -10583 0
10599 -10598 10583 0
10599 10598 -10583 0
-10600 10599 10584 0
-10600 -10599 -10584 0
10600 -10599 10584 0
10600 10599 -10584 0
-10601 10600 10585 0
-10601 -10600 -10585 0
10601 -10600 10585 0
10601 10600 -10585 0
-10602 10601 10586 0
-10602 -10601 -10586 0
10602 -10601 10586 0
10602 10601 -10586 0
-10603 10602 10587 0
-10603 -10602 -10587 0
10603 -10602 10587 0
10603 10602 -10587 0
10603 0
-10604 10257 0
-10604 43 0
10604 -10257 -43 0
-10605 10259 0
-10605 48 0
10605 -10259 -48 0
-10606 10261 0
-10606 48 0
10606 -10261 -48 0
-10607 10263 0
-10607 43 0
10607 -10263 -43 0
-10608 10265 0
-10608 48 0
10608 -10265 -48 0
-10609 10267 0
-10609 48 0
10609 -10267 -48 0
-10610 10269 0
-10610 91 0
10610 -10269 -91 0
-10611 10271 0
-10611 96 0
10611 -10271 -96 0
-10612 10273 0
-10612 96 0
10612 -10273 -96 0
-10613 10275 0
-10613 91 0
10613 -10275 -91 0
-10614 10277 0
-10614 96 0
10614 -10277 -96 0
-10615 10279 0
-10615 96 0
10615 -10279 -96 0
-10616 10281 0
-10616 139 0
10616 -10281 -139 0
-10617 10283 0
-10617 139 0
10617 -10283 -139 0
-10618 10285 0
-10618 139 0
10618 -10285 -139 0
-10619 10287 0
-10619 139 0
10619 -10287 -139 0
-10620 10289 0
-10620 187 0
10620 -10289 -187 0
-10621 10604 10605 0
-10621 -10604 -10605 0
10621 -10604 10605 0
10621 10604 -10605 0
-10622 10621 10606 0
-10622 -10621 -10606 0
10622 -10621 10606 0
10622 10621 -10606 0
-10623 10622 10607 0
-10623 -10622 -10607 0
10623 -10622 10607 0
10623 10622 -10607 0
-10624 10623 10608 0
-10624 -10623 -10608 0
10624 -10623 10608 0
10624 10623 -10608 0
-10625 10624 10609 0
-10625 -10624 -10609 0
10625 -10624 10609 0
10625 10624 -10609 0
-10626 10625 10610 0
-10626 -10625 -10610 0
10626 -10625 10610 0
10626 10625 -10610 0
-10627 10626 10611 0
-10627 -10626 -10611 0
10627 -10626 10611 0
10627 10626 -10611 0
-10628 10627 10612 0
-10628 -10627 -10612 0
10628 -10627 10612 0
10628 10627 -10612 0
-10629 10628 10613 0
-10629 -10628 -10613 0
10629 -10628 10613 0
10629 10628 -10613 0
-10630 10629 10614 0
-10630 -10629 -10614 0
10630 -10629 10614 0
10630 10629 -10614 0
-10631 10630 10615 0
-10631 -10630 -10615 0
10631 -10630 10615 0
10631 10630 -10615 0
-10632 10631 10616 0
-10632 -10631 -10616 0
10632 -10631 10616 0
10632 10631 -10616 0
-10633 10632 10617 0
-10633 -10632 -10617 0
10633 -10632 10617 0
10633 10632 -10617 0
-10634 10633 10618 0
-10634 -10633 -10618 0
10634 -10633 10618 0
10634 10633 -10618 0
-10635 10634 10619 0
-10635 -10634 -10619 0
10635 -10634 10619 0
10635 10634 -10619 0
-10636 10635 10620 0
-10636 -10635 -10620 0
10636 -10635 10620 0
10636 10635 -10620 0
-10636 0
-10637 10257 0
-10637 44 0
10637 -10257 -44 0
-10638 10259 0
-10638 47 0
10638 -10259 -47 0
-10639 10261 0
-10639 46 0
10639 -10261 -46 0
-10640 10263 0
-10640 47 0
10640 -10263 -47 0
-10641 10265 0
-10641 44 0
10641 -10265 -44 0
-10642 10267 0
-10642 40 0
10642 -10267 -40 0
-10643 10269 0
-10643 92 0
10643 -10269 -92 0
-10644 10271 0
-10644 95 0
10644 -10271 -95 0
-10645 10273 0
-10645 94 0
10645 -10273 -94 0
-10646 10275 0
-10646 95 0
10646 -10275 -95 0
-10647 10277 0
-10647 92 0
10647 -10277 -92 0
-10648 10279 0
-10648 88 0
10648 -10279 -88 0
-10649 10281 0
-10649 140 0
10649 -10281 -140 0
-10650 10283 0
-10650 138 0
10650 -10283 -138 0
-10651 10285 0
-10651 143 0
10651 -10285 -143 0
-10652 10287 0
-10652 135 0
10652 -10287 -135 0
-10653 10289 0
-10653 188 0
10653 -10289 -188 0
-10654 10637 10638 0
-10654 -10637 -10638 0
10654 -10637 10638 0
10654 10637 -10638 0
-10655 10654 10639 0
-10655 -10654 -10639 0
10655 -10654 10639 0
10655 10654 -10639 0
-10656 10655 10640 0
-10656 -10655 -10640 0
10656 -10655 10640 0
10656 10655 -10640 0
-10657 10656 10641 0
-10657 -10656 -10641 0
10657 -10656 10641 0
10657 10656 -10641 0
-10658 10657 10642 0
-10658 -10657 -10642 0
10658 -10657 10642 0
10658 10657 -10642 0
-10659 10658 10643 0
-10659 -10658 -10643 0
10659 -10658 10643 0
10659 10658 -10643 0
-10660 10659 10644 0
-10660 -10659 -10644 0
10660 -10659 10644 0
10660 10659 -10644 0
-10661 10660 10645 0
-10661 -10660 -10645 0
10661 -10660 10645 0
10661 10660 -10645 0
-10662 10661 10646 0
-10662 -10661 -10646 0
10662 -10661 10646 0
10662 10661 -10646 0
-10663 10662 10647 0
-10663 -10662 -10647 0
10663 -10662 10647 0
10663 10662 -10647 0
-10664 10663 10648 0
-10664 -10663 -10648 0
10664 -10663 10648 0
10664 10663 -10648 0
-10665 10664 10649 0
-10665 -10664 -10649 0
10665 -10664 10649 0
10665 10664 -10649 0
-10666 10665 10650 0
-10666 -10665 -10650 0
10666 -10665 10650 0
10666 10665 -10650 0
-10667 10666 10651 0
-10667 -10666 -10651 0
10667 -10666 10651 0
10667 10666 -10651 0
-10668 10667 10652 0
-10668 -10667 -10652 0
10668 -10667 10652 0
10668 10667 -10652 0
-10669 10668 10653 0
-10669 -10668 -10653 0
10669 -10668 10653 0
10669 10668 -10653 0
-10669 0
-10670 10257 0
-10670 45 0
10670 -10257 -45 0
-10671 10259 0
-10671 41 0
10671 -10259 -41 0
-10672 10261 0
-10672 37 0
10672 -10261 -37 0
-10673 10263 0
-10673 36 0
10673 -10263 -36 0
-10674 10265 0
-10674 35 0
10674 -10265 -35 0
-10675 10267 0
-10675 34 0
10675 -10267 -34 0
-10676 10269 0
-10676 93 0
10676 -10269 -93 0
-10677 10271 0
-10677 89 0
10677 -10271 -89 0
-10678 10273 0
-10678 85 0
10678 -10273 -85 0
-10679 10275 0
-10679 84 0
10679 -10275 -84 0
-10680 10277 0
-10680 83 0
10680 -10277 -83 0
-10681 10279 0
-10681 82 0
10681 -10279 -82 0
-10682 10281 0
-10682 141 0
10682 -10281 -141 0
-10683 10283 0
-10683 133 0
10683 -10283 -133 0
-10684 10285 0
-10684 132 0
10684 -10285 -132 0
-10685 10287 0
-10685 130 0
10685 -10287 -130 0
-10686 10289 0
-10686 189 0
10686 -10289 -189 0
-10687 10670 10671 0
-10687 -10670 -10671 0
10687 -10670 10671 0
10687 10670 -10671 0
-10688 10687 10672 0
-10688 -10687 -10672 0
10688 -10687 10672 0
10688 10687 -10672 0
-10689 10688 10673 0
-10689 -10688 -10673 0
10689 -10688 10673 0
10689 10688 -10673 0
-10690 10689 10674 0
-10690 -10689 -10674 0
10690 -10689 10674 0
10690 10689 -10674 0
-10691 10690 10675 0
-10691 -10690 -10675 0
10691 -10690 10675 0
10691 10690 -10675 0
-10692 10691 10676 0
-10692 -10691 -10676 0
10692 -10691 10676 0
10692 10691 -10676 0
-10693 10692 10677 0
-10693 -10692 -10677 0
10693 -10692 10677 0
10693 10692 -10677 0
-10694 10693 10678 0
-10694 -10693 -10678 0
10694 -10693 10678 0
10694 10693 -10678 0
-10695 10694 10679 0
-10695 -10694 -10679 0
10695 -10694 10679 0
10695 10694 -10679 0
-10696 10695 10680 0
-10696 -10695 -10680 0
10696 -10695 10680 0
10696 10695 -10680 0
-10697 10696 10681 0
-10697 -10696 -10681 0
10697 -10696 10681 0
10697 10696 -10681 0
-10698 10697 10682 0
-10698 -10697 -10682 0
10698 -10697 10682 0
10698 10697 -10682 0
-10699 10698 10683 0
-10699 -10698 -10683 0
10699 -10698 10683 0
10699 10698 -10683 0
-10700 10699 10684 0
-10700 -10699 -10684 0
10700 -10699 10684 0
10700 10699 -10684 0
-10701 10700 10685 0
-10701 -10700 -10685 0
10701 -10700 10685 0
10701 10700 -10685 0
-10702 10701 10686 0
-10702 -10701 -10686 0
10702 -10701 10686 0
10702 10701 -10686 0
10702 0
-10703 10257 0
-10703 46 0
10703 -10257 -46 0
-10704 10259 0
-10704 42 0
10704 -10259 -42 0
-10705 10261 0
-10705 39 0
10705 -10261 -39 0
-10706 10263 0
-10706 40 0
10706 -10263 -40 0
-10707 10265 0
-10707 39 0
10707 -10265 -39 0
-10708 10267 0
-10708 42 0
10708 -10267 -42 0
-10709 10269 0
-10709 94 0
10709 -10269 -94 0
-10710 10271 0
-10710 90 0
10710 -10271 -90 0
-10711 10273 0
-10711 87 0
10711 -10273 -87 0
-10712 10275 0
-10712 88 0
10712 -10275 -88 0
-10713 10277 0
-10713 87 0
10713 -10277 -87 0
-10714 10279 0
-10714 90 0
10714 -10279 -90 0
-10715 10281 0
-10715 142 0
10715 -10281 -142 0
-10716 10283 0
-10716 136 0
10716 -10283 -136 0
-10717 10285 0
-10717 136 0
10717 -10285 -136 0
-10718 10287 0
-10718 142 0
10718 -10287 -142 0
-10719 10289 0
-10719 190 0
10719 -10289 -190 0
-10720 10703 10704 0
-10720 -10703 -10704 0
10720 -10703 10704 0
10720 10703 -10704 0
-10721 10720 10705 0
-10721 -10720 -10705 0
10721 -10720 10705 0
10721 10720 -10705 0
-10722 10721 10706 0
-10722 -10721 -10706 0
10722 -10721 10706 0
10722 10721 -10706 0
-10723 10722 10707 0
-10723 -10722 -10707 0
10723 -10722 10707 0
10723 10722 -10707 0
-10724 10723 10708 0
-10724 -10723 -10708 0
10724 -10723 10708 0
10724 10723 -10708 0
-10725 10724 10709 0
-10725 -10724 -10709 0
10725 -10724 10709 0
10725 10724 -10709 0
-10726 10725 10710 0
-10726 -10725 -10710 0
10726 -10725 10710 0
10726 10725 -10710 0
-10727 10726 10711 0
-10727 -10726 -10711 0
10727 -10726 10711 0
10727 10726 -10711 0
-10728 10727 10712 0
-10728 -10727 -10712 0
10728 -10727 10712 0
10728 10727 -10712 0
-10729 10728 10713 0
-10729 -10728 -10713 0
10729 -10728 10713 0
10729 10728 -10713 0
-10730 10729 10714 0
-10730 -10729 -10714 0
10730 -10729 10714 0
10730 10729 -10714 0
-10731 10730 10715 0
-10731 -10730 -10715 0
10731 -10730 10715 0
10731 10730 -10715 0
-10732 10731 10716 0
-10732 -10731 -10716 0
10732 -10731 10716 0
10732 10731 -10716 0
-10733 10732 10717 0
-10733 -10732 -10717 0
10733 -10732 10717 0
10733 10732 -10717 0
-10734 10733 10718 0
-10734 -10733 -10718 0
10734 -10733 10718 0
10734 10733 -10718 0
-10735 10734 10719 0
-10735 -10734 -10719 0
10735 -10734 10719 0
10735 10734 -10719 0
10735 0
-10736 10257 0
-10736 47 0
10736 -10257 -47 0
-10737 10259 0
-10737 44 0
10737 -10259 -44 0
-10738 10261 0
-10738 40 0
10738 -10261 -40 0
-10739 10263 0
-10739 44 0
10739 -10263 -44 0
-10740 10265 0
-10740 47 0
10740 -10265 -47 0
-10741 10267 0
-10741 46 0
10741 -10267 -46 0
-10742 10269 0
-10742 95 0
10742 -10269 -95 0
-10743 10271 0
-10743 92 0
10743 -10271 -92 0
-10744 10273 0
-10744 88 0
10744 -10273 -88 0
-10745 10275 0
-10745 92 0
10745 -10275 -92 0
-10746 10277 0
-10746 95 0
10746 -10277 -95 0
-10747 10279 0
-10747 94 0
10747 -10279 -94 0
-10748 10281 0
-10748 143 0
10748 -10281 -143 0
-10749 10283 0
-10749 135 0
10749 -10283 -135 0
-10750 10285 0
-10750 140 0
10750 -10285 -140 0
-10751 10287 0
-10751 138 0
10751 -10287 -138 0
-10752 10289 0
-10752 191 0
10752 -10289 -191 0
-10753 10736 10737 0
-10753 -10736 -10737 0
10753 -10736 10737 0
10753 10736 -10737 0
-10754 10753 10738 0
-10754 -10753 -10738 0
10754 -10753 10738 0
10754 10753 -10738 0
-10755 10754 10739 0
-10755 -10754 -10739 0
10755 -10754 10739 0
10755 10754 -10739 0
-10756 10755 10740 0
-10756 -10755 -10740 0
10756 -10755 10740 0
10756 10755 -10740 0
-10757 10756 10741 0
-10757 -10756 -10741 0
10757 -10756 10741 0
10757 10756 -10741 0
-10758 10757 10742 0
-10758 -10757 -10742 0
10758 -10757 10742 0
10758 10757 -10742 0
-10759 10758 10743 0
-10759 -10758 -10743 0
10759 -10758 10743 0
10759 10758 -10743 0
-10760 10759 10744 0
-10760 -10759 -10744 0
10760 -10759 10744 0
10760 10759 -10744 0
-10761 10760 10745 0
-10761 -10760 -10745 0
10761 -10760 10745 0
10761 10760 -10745 0
-10762 10761 10746 0
-10762 -10761 -10746 0
10762 -10761 10746 0
10762 10761 -10746 0
-10763 10762 10747 0
-10763 -10762 -10747 0
10763 -10762 10747 0
10763 10762 -10747 0
-10764 10763 10748 0
-10764 -10763 -10748 0
10764 -10763 10748 0
10764 10763 -10748 0
-10765 10764 10749 0
-10765 -10764 -10749 0
10765 -10764 10749 0
10765 10764 -10749 0
-10766 10765 10750 0
-10766 -10765 -10750 0
10766 -10765 10750 0
10766 10765 -10750 0
-10767 10766 10751 0
-10767 -10766 -10751 0
10767 -10766 10751 0
10767 10766 -10751 0
-10768 10767 10752 0
-10768 -10767 -10752 0
10768 -10767 10752 0
10768 10767 -10752 0
10768 0
-10769 10257 0
-10769 48 0
10769 -10257 -48 0
-10770 10259 0
-10770 43 0
10770 -10259 -43 0
-10771 10261 0
-10771 38 0
10771 -10261 -38 0
-10772 10263 0
-10772 48 0
10772 -10263 -48 0
-10773 10265 0
-10773 43 0
10773 -10265 -43 0
-10774 10267 0
-10774 38 0
10774 -10267 -38 0
-10775 10269 0
-10775 96 0
10775 -10269 -96 0
-10776 10271 0
-10776 91 0
10776 -10271 -91 0
-10777 10273 0
-10777 86 0
10777 -10273 -86 0
-10778 10275 0
-10778 96 0
10778 -10275 -96 0
-10779 10277 0
-10779 91 0
10779 -10277 -91 0
-10780 10279 0
-10780 86 0
10780 -10279 -86 0
-10781 10281 0
-10781 144 0
10781 -10281 -144 0
-10782 10283 0
-10782 134 0
10782 -10283 -134 0
-10783 10285 0
-10783 144 0
10783 -10285 -144 0
-10784 10287 0
-10784 134 0
10784 -10287 -134 0
-10785 10289 0
-10785 192 0
10785 -10289 -192 0
-10786 10769 10770 0
-10786 -10769 -10770 0
10786 -10769 10770 0
10786 10769 -10770 0
-10787 10786 10771 0
-10787 -10786 -10771 0
10787 -10786 10771 0
10787 10786 -10771 0
-10788 10787 10772 0
-10788 -10787 -10772 0
10788 -10787 10772 0
10788 10787 -10772 0
-10789 10788 10773 0
-10789 -10788 -10773 0
10789 -10788 10773 0
10789 10788 -10773 0
-10790 10789 10774 0
-10790 -10789 -10774 0
10790 -10789 10774 0
10790 10789 -10774 0
-10791 10790 10775 0
-10791 -10790 -10775 0
10791 -10790 10775 0
10791 10790 -10775 0
-10792 10791 10776 0
-10792 -10791 -10776 0
10792 -10791 10776 0
10792 10791 -10776 0
-10793 10792 10777 0
-10793 -10792 -10777 0
10793 -10792 10777 0
10793 10792 -10777 0
-10794 10793 10778 0
-10794 -10793 -10778 0
10794 -10793 10778 0
10794 10793 -10778 0
-10795 10794 10779 0
-10795 -10794 -10779 0
10795 -10794 10779 0
10795 10794 -10779 0
-10796 10795 10780 0
-10796 -10795 -10780 0
10796 -10795 10780 0
10796 10795 -10780 0
-10797 10796 10781 0
-10797 -10796 -10781 0
10797 -10796 10781 0
10797 10796 -10781 0
-10798 10797 10782 0
-10798 -10797 -10782 0
10798 -10797 10782 0
10798 10797 -10782 0
-10799 10798 10783 0
-10799 -10798 -10783 0
10799 -10798 10783 0
10799 10798 -10783 0
-10800 10799 10784 0
-10800 -10799 -10784 0
10800 -10799 10784 0
10800 10799 -10784 0
-10801 10800 10785 0
-10801 -10800 -10785 0
10801 -10800 10785 0
10801 10800 -10785 0
-10801 0
-10802 7 0
-10802 19 0
10802 -7 -19 0
-10803 10802 0
-10803 33 0
10803 -10802 -33 0
-10804 7 0
-10804 24 0
10804 -7 -24 0
-10805 10804 0
-10805 33 0
10805 -10804 -33 0
-10806 9 0
-10806 24 0
10806 -9 -24 0
-10807 10806 0
-10807 33 0
10807 -10806 -33 0
-10808 26 0
-10808 9 0
10808 -26 -9 0
-10809 10808 0
-10809 33 0
10809 -10808 -33 0
-10810 26 0
-10810 14 0
10810 -26 -14 0
-10811 10810 0
-10811 33 0
10811 -10810 -33 0
-10812 19 0
-10812 14 0
10812 -19 -14 0
-10813 10812 0
-10813 33 0
10813 -10812 -33 0
-10814 55 0
-10814 67 0
10814 -55 -67 0
-10815 10814 0
-10815 81 0
10815 -10814 -81 0
-10816 55 0
-10816 72 0
10816 -55 -72 0
-10817 10816 0
-10817 81 0
10817 -10816 -81 0
-10818 57 0
-10818 72 0
10818 -57 -72 0
-10819 10818 0
-10819 81 0
10819 -10818 -81 0
-10820 74 0
-10820 57 0
10820 -74 -57 0
-10821 10820 0
-10821 81 0
10821 -10820 -81 0
-10822 74 0
-10822 62 0
10822 -74 -62 0
-10823 10822 0
-10823 81 0
10823 -10822 -81 0
-10824 67 0
-10824 62 0
10824 -67 -62 0
-10825 10824 0
-10825 81 0
10825 -10824 -81 0
-10826 103 0
-10826 115 0
10826 -103 -115 0
-10827 10826 0
-10827 129 0
10827 -10826 -129 0
-10828 110 0
-10828 115 0
10828 -110 -115 0
-10829 10828 0
-10829 129 0
10829 -10828 -129 0
-10830 122 0
-10830 105 0
10830 -122 -105 0
-10831 10830 0
-10831 129 0
10831 -10830 -129 0
-10832 120 0
-10832 105 0
10832 -120 -105 0
-10833 10832 0
-10833 129 0
10833 -10832 -129 0
-10834 151 0
-10834 163 0
10834 -151 -163 0
-10835 10834 0
-10835 177 0
10835 -10834 -177 0
-10836 10803 10805 0
-10836 -10803 -10805 0
10836 -10803 10805 0
10836 10803 -10805 0
-10837 10836 10807 0
-10837 -10836 -10807 0
10837 -10836 10807 0
10837 10836 -10807 0
-10838 10837 10809 0
-10838 -10837 -10809 0
10838 -10837 10809 0
10838 10837 -10809 0
-10839 10838 10811 0
-10839 -10838 -10811 0
10839 -10838 10811 0
10839 10838 -10811 0
-10840 10839 10813 0
-10840 -10839 -10813 0
10840 -10839 10813 0
10840 10839 -10813 0
-10841 10840 10815 0
-10841 -10840 -10815 0
10841 -10840 10815 0
10841 10840 -10815 0
-10842 10841 10817 0
-10842 -10841 -10817 0
10842 -10841 10817 0
10842 10841 -10817 0
-10843 10842 10819 0
-10843 -10842 -10819 0
10843 -10842 10819 0
10843 10842 -10819 0
-10844 10843 10821 0
-10844 -10843 -10821 0
10844 -10843 10821 0
10844 10843 -10821 0
-10845 10844 10823 0
-10845 -10844 -10823 0
10845 -10844 10823 0
10845 10844 -10823 0
-10846 10845 10825 0
-10846 -10845 -10825 0
10846 -10845 10825 0
10846 10845 -10825 0
-10847 10846 10827 0
-10847 -10846 -10827 0
10847 -10846 10827 0
10847 10846 -10827 0
-10848 10847 10829 0
-10848 -10847 -10829 0
10848 -10847 10829 0
10848 10847 -10829 0
-10849 10848 10831 0
-10849 -10848 -10831 0
10849 -10848 10831 0
10849 10848 -10831 0
-10850 10849 10833 0
-10850 -10849 -10833 0
10850 -10849 10833 0
10850 10849 -10833 0
-10851 10850 10835 0
-10851 -10850 -10835 0
10851 -10850 10835 0
10851 10850 -10835 0
-10851 0
-10852 10802 0
-10852 34 0
10852 -10802 -34 0
-10853 10804 0
-10853 34 0
10853 -10804 -34 0
-10854 10806 0
-10854 35 0
10854 -10806 -35 0
-10855 10808 0
-10855 37 0
10855 -10808 -37 0
-10856 10810 0
-10856 37 0
10856 -10810 -37 0
-10857 10812 0
-10857 41 0
10857 -10812 -41 0
-10858 10814 0
-10858 82 0
10858 -10814 -82 0
-10859 10816 0
-10859 82 0
10859 -10816 -82 0
-10860 10818 0
-10860 83 0
10860 -10818 -83 0
-10861 10820 0
-10861 85 0
10861 -10820 -85 0
-10862 10822 0
-10862 85 0
10862 -10822 -85 0
-10863 10824 0
-10863 89 0
10863 -10824 -89 0
-10864 10826 0
-10864 130 0
10864 -10826 -130 0
-10865 10828 0
-10865 132 0
10865 -10828 -132 0
-10866 10830 0
-10866 133 0
10866 -10830 -133 0
-10867 10832 0
-10867 141 0
10867 -10832 -141 0
-10868 10834 0
-10868 178 0
10868 -10834 -178 0
-10869 10852 10853 0
-10869 -10852 -10853 0
10869 -10852 10853 0
10869 10852 -10853 0
-10870 10869 10854 0
-10870 -10869 -10854 0
10870 -10869 10854 0
10870 10869 -10854 0
-10871 10870 10855 0
-10871 -10870 -10855 0
10871 -10870 10855 0
10871 10870 -10855 0
-10872 10871 10856 0
-10872 -10871 -10856 0
10872 -10871 10856 0
10872 10871 -10856 0
-10873 10872 10857 0
-10873 -10872 -10857 0
10873 -10872 10857 0
10873 10872 -10857 0
-10874 10873 10858 0
-10874 -10873 -10858 0
10874 -10873 10858 0
10874 10873 -10858 0
-10875 10874 10859 0
-10875 -10874 -10859 0
10875 -10874 10859 0
10875 10874 -10859 0
-10876 10875 10860 0
-10876 -10875 -10860 0
10876 -10875 10860 0
10876 10875 -10860 0
-10877 10876 10861 0
-10877 -10876 -10861 0
10877 -10876 10861 0
10877 10876 -10861 0
-10878 10877 10862 0
-10878 -10877 -10862 0
10878 -10877 10862 0
10878 10877 -10862 0
-10879 10878 10863 0
-10879 -10878 -10863 0
10879 -10878 10863 0
10879 10878 -10863 0
-10880 10879 10864 0
-10880 -10879 -10864 0
10880 -10879 10864 0
10880 10879 -10864 0
-10881 10880 10865 0
-10881 -10880 -10865 0
10881 -10880 10865 0
10881 10880 -10865 0
-10882 10881 10866 0
-10882 -10881 -10866 0
10882 -10881 10866 0
10882 10881 -10866 0
-10883 10882 10867 0
-10883 -10882 -10867 0
10883 -10882 10867 0
10883 10882 -10867 0
-10884 10883 10868 0
-10884 -10883 -10868 0
10884 -10883 10868 0
10884 10883 -10868 0
-10884 0
-10885 10802 0
-10885 35 0
10885 -10802 -35 0
-10886 10804 0
-10886 36 0
10886 -10804 -36 0
-10887 10806 0
-10887 36 0
10887 -10806 -36 0
-10888 10808 0
-10888 41 0
10888 -10808 -41 0
-10889 10810 0
-10889 45 0
10889 -10810 -45 0
-10890 10812 0
-10890 45 0
10890 -10812 -45 0
-10891 10814 0
-10891 83 0
10891 -10814 -83 0
-10892 10816 0
-10892 84 0
10892 -10816 -84 0
-10893 10818 0
-10893 84 0
10893 -10818 -84 0
-10894 10820 0
-10894 89 0
10894 -10820 -89 0
-10895 10822 0
-10895 93 0
10895 -10822 -93 0
-10896 10824 0
-10896 93 0
10896 -10824 -93 0
-10897 10826 0
-10897 131 0
10897 -10826 -131 0
-10898 10828 0
-10898 131 0
10898 -10828 -131 0
-10899 10830 0
-10899 137 0
10899 -10830 -137 0
-10900 10832 0
-10900 137 0
10900 -10832 -137 0
-10901 10834 0
-10901 179 0
10901 -10834 -179 0
-10902 10885 10886 0
-10902 -10885 -10886 0
10902 -10885 10886 0
10902 10885 -10886 0
-10903 10902 10887 0
-10903 -10902 -10887 0
10903 -10902 10887 0
10903 10902 -10887 0
-10904 10903 10888 0
-10904 -10903 -10888 0
10904 -10903 10888 0
10904 10903 -10888 0
-10905 10904 10889 0
-10905 -10904 -10889 0
10905 -10904 10889 0
10905 10904 -10889 0
-10906 10905 10890 0
-10906 -10905 -10890 0
10906 -10905 10890 0
10906 10905 -10890 0
-10907 10906 10891 0
-10907 -10906 -10891 0
10907 -10906 10891 0
10907 10906 -10891 0
-10908 10907 10892 0
-10908 -10907 -10892 0
10908 -10907 10892 0
10908 10907 -10892 0
-10909 10908 10893 0
-10909 -10908 -10893 0
10909 -10908 10893 0
10909 10908 -10893 0
-10910 10909 10894 0
-10910 -10909 -10894 0
10910 -10909 10894 0
10910 10909 -10894 0
-10911 10910 10895 0
-10911 -10910 -10895 0
10911 -10910 10895 0
10911 10910 -10895 0
-10912 10911 10896 0
-10912 -10911 -10896 0
10912 -10911 10896 0
10912 10911 -10896 0
-10913 10912 10897 0
-10913 -10912 -10897 0
10913 -10912 10897 0
10913 10912 -10897 0
-10914 10913 10898 0
-10914 -10913 -10898 0
10914 -10913 10898 0
10914 10913 -10898 0
-10915 10914 10899 0
-10915 -10914 -10899 0
10915 -10914 10899 0
10915 10914 -10899 0
-10916 10915 10900 0
-10916 -10915 -10900 0
10916 -10915 10900 0
10916 10915 -10900 0
-10917 10916 10901 0
-10917 -10916 -10901 0
10917 -10916 10901 0
10917 10916 -10901 0
-10917 0
-10918 10802 0
-10918 36 0
10918 -10802 -36 0
-10919 10804 0
-10919 35 0
10919 -10804 -35 0
-10920 10806 0
-10920 34 0
10920 -10806 -34 0
-10921 10808 0
-10921 45 0
10921 -10808 -45 0
-10922 10810 0
-10922 41 0
10922 -10810 -41 0
-10923 10812 0
-10923 37 0
10923 -10812 -37 0
-10924 10814 0
-10924 84 0
10924 -10814 -84 0
-10925 10816 0
-10925 83 0
10925 -10816 -83 0
-10926 10818 0
-10926 82 0
10926 -10818 -82 0
-10927 10820 0
-10927 93 0
10927 -10820 -93 0
-10928 10822 0
-10928 89 0
10928 -10822 -89 0
-10929 10824 0
-10929 85 0
10929 -10824 -85 0
-10930 10826 0
-10930 132 0
10930 -10826 -132 0
-10931 10828 0
-10931 130 0
10931 -10828 -130 0
-10932 10830 0
-10932 141 0
10932 -10830 -141 0
-10933 10832 0
-10933 133 0
10933 -10832 -133 0
-10934 10834 0
-10934 180 0
10934 -10834 -180 0
-10935 10918 10919 0
-10935 -10918 -10919 0
10935 -10918 10919 0
10935 10918 -10919 0
-10936 10935 10920 0
-10936 -10935 -10920 0
10936 -10935 10920 0
10936 10935 -10920 0
-10937 10936 10921 0
-10937 -10936 -10921 0
10937 -10936 10921 0
10937 10936 -10921 0
-10938 10937 10922 0
-10938 -10937 -10922 0
10938 -10937 10922 0
10938 10937 -10922 0
-10939 10938 10923 0
-10939 -10938 -10923 0
10939 -10938 10923 0
10939 10938 -10923 0
-10940 10939 10924 0
-10940 -10939 -10924 0
10940 -10939 10924 0
10940 10939 -10924 0
-10941 10940 10925 0
-10941 -10940 -10925 0
10941 -10940 10925 0
10941 10940 -10925 0
-10942 10941 10926 0
-10942 -10941 -10926 0
10942 -10941 10926 0
10942 10941 -10926 0
-10943 10942 10927 0
-10943 -10942 -10927 0
10943 -10942 10927 0
10943 10942 -10927 0
-10944 10943 10928 0
-10944 -10943 -10928 0
10944 -10943 10928 0
10944 10943 -10928 0
-10945 10944 10929 0
-10945 -10944 -10929 0
10945 -10944 10929 0
10945 10944 -10929 0
-10946 10945 10930 0
-10946 -10945 -10930 0
10946 -10945 10930 0
10946 10945 -10930 0
-10947 10946 10931 0
-10947 -10946 -10931 0
10947 -10946 10931 0
10947 10946 -10931 0
-10948 10947 10932 0
-10948 -10947 -10932 0
10948 -10947 10932 0
10948 10947 -10932 0
-10949 10948 10933 0
-10949 -10948 -10933 0
10949 -10948 10933 0
10949 10948 -10933 0
-10950 10949 10934 0
-10950 -10949 -10934 0
10950 -10949 10934 0
10950 10949 -10934 0
-10950 0
-10951 10802 0
-10951 38 0
10951 -10802 -38 0
-10952 10804 0
-10952 38 0
10952 -10804 -38 0
-10953 10806 0
-10953 43 0
10953 -10806 -43 0
-10954 10808 0
-10954 38 0
10954 -10808 -38 0
-10955 10810 0
-10955 38 0
10955 -10810 -38 0
-10956 10812 0
-10956 43 0
10956 -10812 -43 0
-10957 10814 0
-10957 86 0
10957 -10814 -86 0
-10958 10816 0
-10958 86 0
10958 -10816 -86 0
-10959 10818 0
-10959 91 0
10959 -10818 -91 0
-10960 10820 0
-10960 86 0
10960 -10820 -86 0
-10961 10822 0
-10961 86 0
10961 -10822 -86 0
-10962 10824 0
-10962 91 0
10962 -10824 -91 0
-10963 10826 0
-10963 134 0
10963 -10826 -134 0
-10964 10828 0
-10964 144 0
10964 -10828 -144 0
-10965 10830 0
-10965 134 0
10965 -10830 -134 0
-10966 10832 0
-10966 144 0
10966 -10832 -144 0
-10967 10834 0
-10967 182 0
10967 -10834 -182 0
-10968 10951 10952 0
-10968 -10951 -10952 0
10968 -10951 10952 0
10968 10951 -10952 0
-10969 10968 10953 0
-10969 -10968 -10953 0
10969 -10968 10953 0
10969 10968 -10953 0
-10970 10969 10954 0
-10970 -10969 -10954 0
10970 -10969 10954 0
10970 10969 -10954 0
-10971 10970 10955 0
-10971 -10970 -10955 0
10971 -10970 10955 0
10971 10970 -10955 0
-10972 10971 10956 0
-10972 -10971 -10956 0
10972 -10971 10956 0
10972 10971 -10956 0
-10973 10972 10957 0
-10973 -10972 -10957 0
10973 -10972 10957 0
10973 10972 -10957 0
-10974 10973 10958 0
-10974 -10973 -10958 0
10974 -10973 10958 0
10974 10973 -10958 0
-10975 10974 10959 0
-10975 -10974 -10959 0
10975 -10974 10959 0
10975 10974 -10959 0
-10976 10975 10960 0
-10976 -10975 -10960 0
10976 -10975 10960 0
10976 10975 -10960 0
-10977 10976 10961 0
-10977 -10976 -10961 0
10977 -10976 10961 0
10977 10976 -10961 0
-10978 10977 10962 0
-10978 -10977 -10962 0
10978 -10977 10962 0
10978 10977 -10962 0
-10979 10978 10963 0
-10979 -10978 -10963 0
10979 -10978 10963 0
10979 10978 -10963 0
-10980 10979 10964 0
-10980 -10979 -10964 0
10980 -10979 10964 0
10980 10979 -10964 0
-10981 10980 10965 0
-10981 -10980 -10965 0
10981 -10980 10965 0
10981 10980 -10965 0
-10982 10981 10966 0
-10982 -10981 -10966 0
10982 -10981 10966 0
10982 10981 -10966 0
-10983 10982 10967 0
-10983 -10982 -10967 0
10983 -10982 10967 0
10983 10982 -10967 0
-10983 0
-10984 10802 0
-10984 39 0
10984 -10802 -39 0
-10985 10804 0
-10985 40 0
10985 -10804 -40 0
-10986 10806 0
-10986 44 0
10986 -10806 -44 0
-10987 10808 0
-10987 42 0
10987 -10808 -42 0
-10988 10810 0
-10988 46 0
10988 -10810 -46 0
-10989 10812 0
-10989 47 0
10989 -10812 -47 0
-10990 10814 0
-10990 87 0
10990 -10814 -87 0
-10991 10816 0
-10991 88 0
10991 -10816 -88 0
-10992 10818 0
-10992 92 0
10992 -10818 -92 0
-10993 10820 0
-10993 90 0
10993 -10820 -90 0
-10994 10822 0
-10994 94 0
10994 -10822 -94 0
-10995 10824 0
-10995 95 0
10995 -10824 -95 0
-10996 10826 0
-10996 135 0
10996 -10826 -135 0
-10997 10828 0
-10997 143 0
10997 -10828 -143 0
-10998 10830 0
-10998 138 0
10998 -10830 -138 0
-10999 10832 0
-10999 140 0
10999 -10832 -140 0
-11000 10834 0
-11000 183 0
11000 -10834 -183 0
-11001 10984 10985 0
-11001 -10984 -10985 0
11001 -10984 10985 0
11001 10984 -10985 0
-11002 11001 10986 0
-11002 -11001 -10986 0
11002 -11001 10986 0
11002 11001 -10986 0
-11003 11002 10987 0
-11003 -11002 -10987 0
11003 -11002 10987 0
11003 11002 -10987 0
-11004 11003 10988 0
-11004 -11003 -10988 0
11004 -11003 10988 0
11004 11003 -10988 0
-11005 11004 10989 0
-11005 -11004 -10989 0
11005 -11004 10989 0
11005 11004 -10989 0
-11006 11005 10990 0
-11006 -11005 -10990 0
11006 -11005 10990 0
11006 11005 -10990 0
-11007 11006 10991 0
-11007 -11006 -10991 0
11007 -11006 10991 0
11007 11006 -10991 0
-11008 11007 10992 0
-11008 -11007 -10992 0
11008 -11007 10992 0
11008 11007 -10992 0
-11009 11008 10993 0
-11009 -11008 -10993 0
11009 -11008 10993 0
11009 11008 -10993 0
-11010 11009 10994 0
-11010 -11009 -10994 0
11010 -11009 10994 0
11010 11009 -10994 0
-11011 11010 10995 0
-11011 -11010 -10995 0
11011 -11010 10995 0
11011 11010 -10995 0
-11012 11011 10996 0
-11012 -11011 -10996 0
11012 -11011 10996 0
11012 11011 -10996 0
-11013 11012 10997 0
-11013 -11012 -10997 0
11013 -11012 10997 0
11013 11012 -10997 0
-11014 11013 10998 0
-11014 -11013 -10998 0
11014 -11013 10998 0
11014 11013 -10998 0
-11015 11014 10999 0
-11015 -11014 -10999 0
11015 -11014 10999 0
11015 11014 -10999 0
-11016 11015 11000 0
-11016 -11015 -11000 0
11016 -11015 11000 0
11016 11015 -11000 0
-11016 0
-11017 10802 0
-11017 40 0
11017 -10802 -40 0
-11018 10804 0
-11018 39 0
11018 -10804 -39 0
-11019 10806 0
-11019 42 0
11019 -10806 -42 0
-11020 10808 0
-11020 46 0
11020 -10808 -46 0
-11021 10810 0
-11021 42 0
11021 -10810 -42 0
-11022 10812 0
-11022 39 0
11022 -10812 -39 0
-11023 10814 0
-11023 88 0
11023 -10814 -88 0
-11024 10816 0
-11024 87 0
11024 -10816 -87 0
-11025 10818 0
-11025 90 0
11025 -10818 -90 0
-11026 10820 0
-11026 94 0
11026 -10820 -94 0
-11027 10822 0
-11027 90 0
11027 -10822 -90 0
-11028 10824 0
-11028 87 0
11028 -10824 -87 0
-11029 10826 0
-11029 136 0
11029 -10826 -136 0
-11030 10828 0
-11030 142 0
11030 -10828 -142 0
-11031 10830 0
-11031 142 0
11031 -10830 -142 0
-11032 10832 0
-11032 136 0
11032 -10832 -136 0
-11033 10834 0
-11033 184 0
11033 -10834 -184 0
-11034 11017 11018 0
-11034 -11017 -11018 0
11034 -11017 11018 0
11034 11017 -11018 0
-11035 11034 11019 0
-11035 -11034 -11019 0
11035 -11034 11019 0
11035 11034 -11019 0
-11036 11035 11020 0
-11036 -11035 -11020 0
11036 -11035 11020 0
11036 11035 -11020 0
-11037 11036 11021 0
-11037 -11036 -11021 0
11037 -11036 11021 0
11037 11036 -11021 0
-11038 11037 11022 0
-11038 -11037 -11022 0
11038 -11037 11022 0
11038 11037 -11022 0
-11039 11038 11023 0
-11039 -11038 -11023 0
11039 -11038 11023 0
11039 11038 -11023 0
-11040 11039 11024 0
-11040 -11039 -11024 0
11040 -11039 11024 0
11040 11039 -11024 0
-11041 11040 11025 0
-11041 -11040 -11025 0
11041 -11040 11025 0
11041 11040 -11025 0
-11042 11041 11026 0
-11042 -11041 -11026 0
11042 -11041 11026 0
11042 11041 -11026 0
-11043 11042 11027 0
-11043 -11042 -11027 0
11043 -11042 11027 0
11043 11042 -11027 0
-11044 11043 11028 0
-11044 -11043 -11028 0
11044 -11043 11028 0
11044 11043 -11028 0
-11045 11044 11029 0
-11045 -11044 -11029 0
11045 -11044 11029 0
11045 11044 -11029 0
-11046 11045 11030 0
-11046 -11045 -11030 0
11046 -11045 11030 0
11046 11045 -11030 0
-11047 11046 11031 0
-11047 -11046 -11031 0
11047 -11046 11031 0
11047 11046 -11031 0
-11048 11047 11032 0
-11048 -11047 -11032 0
11048 -11047 11032 0
11048 11047 -11032 0
-11049 11048 11033 0
-11049 -11048 -11033 0
11049 -11048 11033 0
11049 11048 -11033 0
-11049 0
-11050 10802 0
-11050 42 0
11050 -10802 -42 0
-11051 10804 0
-11051 46 0
11051 -10804 -46 0
-11052 10806 0
-11052 47 0
11052 -10806 -47 0
-11053 10808 0
-11053 39 0
11053 -10808 -39 0
-11054 10810 0
-11054 40 0
11054 -10810 -40 0
-11055 10812 0
-11055 44 0
11055 -10812 -44 0
-11056 10814 0
-11056 90 0
11056 -10814 -90 0
-11057 10816 0
-11057 94 0
11057 -10816 -94 0
-11058 10818 0
-11058 95 0
11058 -10818 -95 0
-11059 10820 0
-11059 87 0
11059 -10820 -87 0
-11060 10822 0
-11060 88 0
11060 -10822 -88 0
-11061 10824 0
-11061 92 0
11061 -10824 -92 0
-11062 10826 0
-11062 138 0
11062 -10826 -138 0
-11063 10828 0
-11063 140 0
11063 -10828 -140 0
-11064 10830 0
-11064 135 0
11064 -10830 -135 0
-11065 10832 0
-11065 143 0
11065 -10832 -143 0
-11066 10834 0
-11066 186 0
11066 -10834 -186 0
-11067 11050 11051 0
-11067 -11050 -11051 0
11067 -11050 11051 0
11067 11050 -11051 0
-11068 11067 11052 0
-11068 -11067 -11052 0
11068 -11067 11052 0
11068 11067 -11052 0
-11069 11068 11053 0
-11069 -11068 -11053 0
11069 -11068 11053 0
11069 11068 -11053 0
-11070 11069 11054 0
-11070 -11069 -11054 0
11070 -11069 11054 0
11070 11069 -11054 0
-11071 11070 11055 0
-11071 -11070 -11055 0
11071 -11070 11055 0
11071 11070 -11055 0
-11072 11071 11056 0
-11072 -11071 -11056 0
11072 -11071 11056 0
11072 11071 -11056 0
-11073 11072 11057 0
-11073 -11072 -11057 0
11073 -11072 11057 0
11073 11072 -11057 0
-11074 11073 11058 0
-11074 -11073 -11058 0
11074 -11073 11058 0
11074 11073 -11058 0
-11075 11074 11059 0
-11075 -11074 -11059 0
11075 -11074 11059 0
11075 11074 -11059 0
-11076 11075 11060 0
-11076 -11075 -11060 0
11076 -11075 11060 0
11076 11075 -11060 0
-11077 11076 11061 0
-11077 -11076 -11061 0
11077 -11076 11061 0
11077 11076 -11061 0
-11078 11077 11062 0
-11078 -11077 -11062 0
11078 -11077 11062 0
11078 11077 -11062 0
-11079 11078 11063 0
-11079 -11078 -11063 0
11079 -11078 11063 0
11079 11078 -11063 0
-11080 11079 11064 0
-11080 -11079 -11064 0
11080 -11079 11064 0
11080 11079 -11064 0
-11081 11080 11065 0
-11081 -11080 -11065 0
11081 -11080 11065 0
11081 11080 -11065 0
-11082 11081 11066 0
-11082 -11081 -11066 0
11082 -11081 11066 0
11082 11081 -11066 0
-11082 0
-11083 10802 0
-11083 44 0
11083 -10802 -44 0
-11084 10804 0
-11084 47 0
11084 -10804 -47 0
-11085 10806 0
-11085 46 0
11085 -10806 -46 0
-11086 10808 0
-11086 47 0
11086 -10808 -47 0
-11087 10810 0
-11087 44 0
11087 -10810 -44 0
-11088 10812 0
-11088 40 0
11088 -10812 -40 0
-11089 10814 0
-11089 92 0
11089 -10814 -92 0
-11090 10816 0
-11090 95 0
11090 -10816 -95 0
-11091 10818 0
-11091 94 0
11091 -10818 -94 0
-11092 10820 0
-11092 95 0
11092 -10820 -95 0
-11093 10822 0
-11093 92 0
11093 -10822 -92 0
-11094 10824 0
-11094 88 0
11094 -10824 -88 0
-11095 10826 0
-11095 140 0
11095 -10826 -140 0
-11096 10828 0
-11096 138 0
11096 -10828 -138 0
-11097 10830 0
-11097 143 0
11097 -10830 -143 0
-11098 10832 0
-11098 135 0
11098 -10832 -135 0
-11099 10834 0
-11099 188 0
11099 -10834 -188 0
-11100 11083 11084 0
-11100 -11083 -11084 0
11100 -11083 11084 0
11100 11083 -11084 0
-11101 11100 11085 0
-11101 -11100 -11085 0
11101 -11100 11085 0
11101 11100 -11085 0
-11102 11101 11086 0
-11102 -11101 -11086 0
11102 -11101 11086 0
11102 11101 -11086 0
-11103 11102 11087 0
-11103 -11102 -11087 0
11103 -11102 11087 0
11103 11102 -11087 0
-11104 11103 11088 0
-11104 -11103 -11088 0
11104 -11103 11088 0
11104 11103 -11088 0
-11105 11104 11089 0
-11105 -11104 -11089 0
11105 -11104 11089 0
11105 11104 -11089 0
-11106 11105 11090 0
-11106 -11105 -11090 0
11106 -11105 11090 0
11106 11105 -11090 0
-11107 11106 11091 0
-11107 -11106 -11091 0
11107 -11106 11091 0
11107 11106 -11091 0
-11108 11107 11092 0
-11108 -11107 -11092 0
11108 -11107 11092 0
11108 11107 -11092 0
-11109 11108 11093 0
-11109 -11108 -11093 0
11109 -11108 11093 0
11109 11108 -11093 0
-11110 11109 11094 0
-11110 -11109 -11094 0
11110 -11109 11094 0
11110 11109 -11094 0
-11111 11110 11095 0
-11111 -11110 -11095 0
11111 -11110 11095 0
11111 11110 -11095 0
-11112 11111 11096 0
-11112 -11111 -11096 0
11112 -11111 11096 0
11112 11111 -11096 0
-11113 11112 11097 0
-11113 -11112 -11097 0
11113 -11112 11097 0
11113 11112 -11097 0
-11114 11113 11098 0
-11114 -11113 -11098 0
11114 -11113 11098 0
11114 11113 -11098 0
-11115 11114 11099 0
-11115 -11114 -11099 0
11115 -11114 11099 0
11115 11114 -11099 0
-11115 0
-11116 10802 0
-11116 48 0
11116 -10802 -48 0
-11117 10804 0
-11117 43 0
11117 -10804 -43 0
-11118 10806 0
-11118 38 0
11118 -10806 -38 0
-11119 10808 0
-11119 48 0
11119 -10808 -48 0
-11120 10810 0
-11120 43 0
11120 -10810 -43 0
-11121 10812 0
-11121 38 0
11121 -10812 -38 0
-11122 10814 0
-11122 96 0
11122 -10814 -96 0
-11123 10816 0
-11123 91 0
11123 -10816 -91 0
-11124 10818 0
-11124 86 0
11124 -10818 -86 0
-11125 10820 0
-11125 96 0
11125 -10820 -96 0
-11126 10822 0
-11126 91 0
11126 -10822 -91 0
-11127 10824 0
-11127 86 0
11127 -10824 -86 0
-11128 10826 0
-11128 144 0
11128 -10826 -144 0
-11129 10828 0
-11129 134 0
11129 -10828 -134 0
-11130 10830 0
-11130 144 0
11130 -10830 -144 0
-11131 10832 0
-11131 134 0
11131 -10832 -134 0
-11132 10834 0
-11132 192 0
11132 -10834 -192 0
-11133 11116 11117 0
-11133 -11116 -11117 0
11133 -11116 11117 0
11133 11116 -11117 0
-11134 11133 11118 0
-11134 -11133 -11118 0
11134 -11133 11118 0
11134 11133 -11118 0
-11135 11134 11119 0
-11135 -11134 -11119 0
11135 -11134 11119 0
11135 11134 -11119 0
-11136 11135 11120 0
-11136 -11135 -11120 0
11136 -11135 11120 0
11136 11135 -11120 0
-11137 11136 11121 0
-11137 -11136 -11121 0
11137 -11136 11121 0
11137 11136 -11121 0
-11138 11137 11122 0
-11138 -11137 -11122 0
11138 -11137 11122 0
11138 11137 -11122 0
-11139 11138 11123 0
-11139 -11138 -11123 0
11139 -11138 11123 0
11139 11138 -11123 0
-11140 11139 11124 0
-11140 -11139 -11124 0
11140 -11139 11124 0
11140 11139 -11124 0
-11141 11140 11125 0
-11141 -11140 -11125 0
11141 -11140 11125 0
11141 11140 -11125 0
-11142 11141 11126 0
-11142 -11141 -11126 0
11142 -11141 11126 0
11142 11141 -11126 0
-11143 11142 11127 0
-11143 -11142 -11127 0
11143 -11142 11127 0
11143 11142 -11127 0
-11144 11143 11128 0
-11144 -11143 -11128 0
11144 -11143 11128 0
11144 11143 -11128 0
-11145 11144 11129 0
-11145 -11144 -11129 0
11145 -11144 11129 0
11145 11144 -11129 0
-11146 11145 11130 0
-11146 -11145 -11130 0
11146 -11145 11130 0
11146 11145 -11130 0
-11147 11146 11131 0
-11147 -11146 -11131 0
11147 -11146 11131 0
11147 11146 -11131 0
-11148 11147 11132 0
-11148 -11147 -11132 0
11148 -11147 11132 0
11148 11147 -11132 0
-11148 0
-11149 7 0
-11149 26 0
11149 -7 -26 0
-11150 11149 0
-11150 33 0
11150 -11149 -33 0
-11151 9 0
-11151 19 0
11151 -9 -19 0
-11152 11151 0
-11152 33 0
11152 -11151 -33 0
-11153 55 0
-11153 74 0
11153 -55 -74 0
-11154 11153 0
-11154 81 0
11154 -11153 -81 0
-11155 57 0
-11155 67 0
11155 -57 -67 0
-11156 11155 0
-11156 81 0
11156 -11155 -81 0
-11157 103 0
-11157 122 0
11157 -103 -122 0
-11158 11157 0
-11158 129 0
11158 -11157 -129 0
-11159 110 0
-11159 120 0
11159 -110 -120 0
-11160 11159 0
-11160 129 0
11160 -11159 -129 0
-11161 151 0
-11161 170 0
11161 -151 -170 0
-11162 11161 0
-11162 177 0
11162 -11161 -177 0
-11163 11150 11150 0
-11163 -11150 -11150 0
11163 -11150 11150 0
11163 11150 -11150 0
-11164 11163 11152 0
-11164 -11163 -11152 0
11164 -11163 11152 0
11164 11163 -11152 0
-11165 11164 11150 0
-11165 -11164 -11150 0
11165 -11164 11150 0
11165 11164 -11150 0
-11166 11165 11150 0
-11166 -11165 -11150 0
11166 -11165 11150 0
11166 11165 -11150 0
-11167 11166 11152 0
-11167 -11166 -11152 0
11167 -11166 11152 0
11167 11166 -11152 0
-11168 11167 11154 0
-11168 -11167 -11154 0
11168 -11167 11154 0
11168 11167 -11154 0
-11169 11168 11154 0
-11169 -11168 -11154 0
11169 -11168 11154 0
11169 11168 -11154 0
-11170 11169 11156 0
-11170 -11169 -11156 0
11170 -11169 11156 0
11170 11169 -11156 0
-11171 11170 11154 0
-11171 -11170 -11154 0
11171 -11170 11154 0
11171 11170 -11154 0
-11172 11171 11154 0
-11172 -11171 -11154 0
11172 -11171 11154 0
11172 11171 -11154 0
-11173 11172 11156 0
-11173 -11172 -11156 0
11173 -11172 11156 0
11173 11172 -11156 0
-11174 11173 11158 0
-11174 -11173 -11158 0
11174 -11173 11158 0
11174 11173 -11158 0
-11175 11174 11160 0
-11175 -11174 -11160 0
11175 -11174 11160 0
11175 11174 -11160 0
-11176 11175 11158 0
-11176 -11175 -11158 0
11176 -11175 11158 0
11176 11175 -11158 0
-11177 11176 11160 0
-11177 -11176 -11160 0
11177 -11176 11160 0
11177 11176 -11160 0
-11178 11177 11162 0
-11178 -11177 -11162 0
11178 -11177 11162 0
11178 11177 -11162 0
-11178 0
-11179 11149 0
-11179 34 0
11179 -11149 -34 0
-11180 11151 0
-11180 35 0
11180 -11151 -35 0
-11181 11149 0
-11181 37 0
11181 -11149 -37 0
-11182 11151 0
-11182 41 0
11182 -11151 -41 0
-11183 11153 0
-11183 82 0
11183 -11153 -82 0
-11184 11155 0
-11184 83 0
11184 -11155 -83 0
-11185 11153 0
-11185 85 0
11185 -11153 -85 0
-11186 11155 0
-11186 89 0
11186 -11155 -89 0
-11187 11157 0
-11187 130 0
11187 -11157 -130 0
-11188 11159 0
-11188 132 0
11188 -11159 -132 0
-11189 11157 0
-11189 133 0
11189 -11157 -133 0
-11190 11159 0
-11190 141 0
11190 -11159 -141 0
-11191 11161 0
-11191 178 0
11191 -11161 -178 0
-11192 11179 11179 0
-11192 -11179 -11179 0
11192 -11179 11179 0
11192 11179 -11179 0
-11193 11192 11180 0
-11193 -11192 -11180 0
11193 -11192 11180 0
11193 11192 -11180 0
-11194 11193 11181 0
-11194 -11193 -11181 0
11194 -11193 11181 0
11194 11193 -11181 0
-11195 11194 11181 0
-11195 -11194 -11181 0
11195 -11194 11181 0
11195 11194 -11181 0
-11196 11195 11182 0
-11196 -11195 -11182 0
11196 -11195 11182 0
11196 11195 -11182 0
-11197 11196 11183 0
-11197 -11196 -11183 0
11197 -11196 11183 0
11197 11196 -11183 0
-11198 11197 11183 0
-11198 -11197 -11183 0
11198 -11197 11183 0
11198 11197 -11183 0
-11199 11198 11184 0
-11199 -11198 -11184 0
11199 -11198 11184 0
11199 11198 -11184 0
-11200 11199 11185 0
-11200 -11199 -11185 0
11200 -11199 11185 0
11200 11199 -11185 0
-11201 11200 11185 0
-11201 -11200 -11185 0
11201 -11200 11185 0
11201 11200 -11185 0
-11202 11201 11186 0
-11202 -11201 -11186 0
11202 -11201 11186 0
11202 11201 -11186 0
-11203 11202 11187 0
-11203 -11202 -11187 0
11203 -11202 11187 0
11203 11202 -11187 0
-11204 11203 11188 0
-11204 -11203 -11188 0
11204 -11203 11188 0
11204 11203 -11188 0
-11205 11204 11189 0
-11205 -11204 -11189 0
11205 -11204 11189 0
11205 11204 -11189 0
-11206 11205 11190 0
-11206 -11205 -11190 0
11206 -11205 11190 0
11206 11205 -11190 0
-11207 11206 11191 0
-11207 -11206 -11191 0
11207 -11206 11191 0
11207 11206 -11191 0
-11207 0
-11208 11149 0
-11208 35 0
11208 -11149 -35 0
-11209 11149 0
-11209 36 0
11209 -11149 -36 0
-11210 11151 0
-11210 36 0
11210 -11151 -36 0
-11211 11149 0
-11211 41 0
11211 -11149 -41 0
-11212 11149 0
-11212 45 0
11212 -11149 -45 0
-11213 11151 0
-11213 45 0
11213 -11151 -45 0
-11214 11153 0
-11214 83 0
11214 -11153 -83 0
-11215 11153 0
-11215 84 0
11215 -11153 -84 0
-11216 11155 0
-11216 84 0
11216 -11155 -84 0
-11217 11153 0
-11217 89 0
11217 -11153 -89 0
-11218 11153 0
-11218 93 0
11218 -11153 -93 0
-11219 11155 0
-11219 93 0
11219 -11155 -93 0
-11220 11157 0
-11220 131 0
11220 -11157 -131 0
-11221 11159 0
-11221 131 0
11221 -11159 -131 0
-11222 11157 0
-11222 137 0
11222 -11157 -137 0
-11223 11159 0
-11223 137 0
11223 -11159 -137 0
-11224 11161 0
-11224 179 0
11224 -11161 -179 0
-11225 11208 11209 0
-11225 -11208 -11209 0
11225 -11208 11209 0
11225 11208 -11209 0
-11226 11225 11210 0
-11226 -11225 -11210 0
11226 -11225 11210 0
11226 11225 -11210 0
-11227 11226 11211 0
-11227 -11226 -11211 0
11227 -11226 11211 0
11227 11226 -11211 0
-11228 11227 11212 0
-11228 -11227 -11212 0
11228 -11227 11212 0
11228 11227 -11212 0
-11229 11228 11213 0
-11229 -11228 -11213 0
11229 -11228 11213 0
11229 11228 -11213 0
-11230 11229 11214 0
-11230 -11229 -11214 0
11230 -11229 11214 0
11230 11229 -11214 0
-11231 11230 11215 0
-11231 -11230 -11215 0
11231 -11230 11215 0
11231 11230 -11215 0
-11232 11231 11216 0
-11232 -11231 -11216 0
11232 -11231 11216 0
11232 11231 -11216 0
-11233 11232 11217 0
-11233 -11232 -11217 0
11233 -11232 11217 0
11233 11232 -11217 0
-11234 11233 11218 0
-11234 -11233 -11218 0
11234 -11233 11218 0
11234 11233 -11218 0
-11235 11234 11219 0
-11235 -11234 -11219 0
11235 -11234 11219 0
11235 11234 -11219 0
-11236 11235 11220 0
-11236 -11235 -11220 0
11236 -11235 11220 0
11236 11235 -11220 0
-11237 11236 11221 0
-11237 -11236 -11221 0
11237 -11236 11221 0
11237 11236 -11221 0
-11238 11237 11222 0
-11238 -11237 -11222 0
11238 -11237 11222 0
11238 11237 -11222 0
-11239 11238 11223 0
-11239 -11238 -11223 0
11239 -11238 11223 0
11239 11238 -11223 0
-11240 11239 11224 0
-11240 -11239 -11224 0
11240 -11239 11224 0
11240 11239 -11224 0
-11240 0
-11241 11149 0
-11241 38 0
11241 -11149 -38 0
-11242 11151 0
-11242 43 0
11242 -11151 -43 0
-11243 11153 0
-11243 86 0
11243 -11153 -86 0
-11244 11155 0
-11244 91 0
11244 -11155 -91 0
-11245 11157 0
-11245 134 0
11245 -11157 -134 0
-11246 11159 0
-11246 144 0
11246 -11159 -144 0
-11247 11161 0
-11247 182 0
11247 -11161 -182 0
-11248 11241 11241 0
-11248 -11241 -11241 0
11248 -11241 11241 0
11248 11241 -11241 0
-11249 11248 11242 0
-11249 -11248 -11242 0
11249 -11248 11242 0
11249 11248 -11242 0
-11250 11249 11241 0
-11250 -11249 -11241 0
11250 -11249 11241 0
11250 11249 -11241 0
-11251 11250 11241 0
-11251 -11250 -11241 0
11251 -11250 11241 0
11251 11250 -11241 0
-11252 11251 11242 0
-11252 -11251 -11242 0
11252 -11251 11242 0
11252 11251 -11242 0
-11253 11252 11243 0
-11253 -11252 -11243 0
11253 -11252 11243 0
11253 11252 -11243 0
-11254 11253 11243 0
-11254 -11253 -11243 0
11254 -11253 11243 0
11254 11253 -11243 0
-11255 11254 11244 0
-11255 -11254 -11244 0
11255 -11254 11244 0
11255 11254 -11244 0
-11256 11255 11243 0
-11256 -11255 -11243 0
11256 -11255 11243 0
11256 11255 -11243 0
-11257 11256 11243 0
-11257 -11256 -11243 0
11257 -11256 11243 0
11257 11256 -11243 0
-11258 11257 11244 0
-11258 -11257 -11244 0
11258 -11257 11244 0
11258 11257 -11244 0
-11259 11258 11245 0
-11259 -11258 -11245 0
11259 -11258 11245 0
11259 11258 -11245 0
-11260 11259 11246 0
-11260 -11259 -11246 0
11260 -11259 11246 0
11260 11259 -11246 0
-11261 11260 11245 0
-11261 -11260 -11245 0
11261 -11260 11245 0
11261 11260 -11245 0
-11262 11261 11246 0
-11262 -11261 -11246 0
11262 -11261 11246 0
11262 11261 -11246 0
-11263 11262 11247 0
-11263 -11262 -11247 0
11263 -11262 11247 0
11263 11262 -11247 0
-11263 0
-11264 11149 0
-11264 39 0
11264 -11149 -39 0
-11265 11149 0
-11265 40 0
11265 -11149 -40 0
-11266 11151 0
-11266 44 0
11266 -11151 -44 0
-11267 11149 0
-11267 42 0
11267 -11149 -42 0
-11268 11149 0
-11268 46 0
11268 -11149 -46 0
-11269 11151 0
-11269 47 0
11269 -11151 -47 0
-11270 11153 0
-11270 87 0
11270 -11153 -87 0
-11271 11153 0
-11271 88 0
11271 -11153 -88 0
-11272 11155 0
-11272 92 0
11272 -11155 -92 0
-11273 11153 0
-11273 90 0
11273 -11153 -90 0
-11274 11153 0
-11274 94 0
11274 -11153 -94 0
-11275 11155 0
-11275 95 0
11275 -11155 -95 0
-11276 11157 0
-11276 135 0
11276 -11157 -135 0
-11277 11159 0
-11277 143 0
11277 -11159 -143 0
-11278 11157 0
-11278 138 0
11278 -11157 -138 0
-11279 11159 0
-11279 140 0
11279 -11159 -140 0
-11280 11161 0
-11280 183 0
11280 -11161 -183 0
-11281 11264 11265 0
-11281 -11264 -11265 0
11281 -11264 11265 0
11281 11264 -11265 0
-11282 11281 11266 0
-11282 -11281 -11266 0
11282 -11281 11266 0
11282 11281 -11266 0
-11283 11282 11267 0
-11283 -11282 -11267 0
11283 -11282 11267 0
11283 11282 -11267 0
-11284 11283 11268 0
-11284 -11283 -11268 0
11284 -11283 11268 0
11284 11283 -11268 0
-11285 11284 11269 0
-11285 -11284 -11269 0
11285 -11284 11269 0
11285 11284 -11269 0
-11286 11285 11270 0
-11286 -11285 -11270 0
11286 -11285 11270 0
11286 11285 -11270 0
-11287 11286 11271 0
-11287 -11286 -11271 0
11287 -11286 11271 0
11287 11286 -11271 0
-11288 11287 11272 0
-11288 -11287 -11272 0
11288 -11287 11272 0
11288 11287 -11272 0
-11289 11288 11273 0
-11289 -11288 -11273 0
11289 -11288 11273 0
11289 11288 -11273 0
-11290 11289 11274 0
-11290 -11289 -11274 0
11290 -11289 11274 0
11290 11289 -11274 0
-11291 11290 11275 0
-11291 -11290 -11275 0
11291 -11290 11275 0
11291 11290 -11275 0
-11292 11291 11276 0
-11292 -11291 -11276 0
11292 -11291 11276 0
11292 11291 -11276 0
-11293 11292 11277 0
-11293 -11292 -11277 0
11293 -11292 11277 0
11293 11292 -11277 0
-11294 11293 11278 0
-11294 -11293 -11278 0
11294 -11293 11278 0
11294 11293 -11278 0
-11295 11294 11279 0
-11295 -11294 -11279 0
11295 -11294 11279 0
11295 11294 -11279 0
-11296 11295 11280 0
-11296 -11295 -11280 0
11296 -11295 11280 0
11296 11295 -11280 0
-11296 0
-11297 11149 0
-11297 43 0
11297 -11149 -43 0
-11298 11149 0
-11298 48 0
11298 -11149 -48 0
-11299 11151 0
-11299 48 0
11299 -11151 -48 0
-11300 11153 0
-11300 91 0
11300 -11153 -91 0
-11301 11153 0
-11301 96 0
11301 -11153 -96 0
-11302 11155 0
-11302 96 0
11302 -11155 -96 0
-11303 11157 0
-11303 139 0
11303 -11157 -139 0
-11304 11159 0
-11304 139 0
11304 -11159 -139 0
-11305 11161 0
-11305 187 0
11305 -11161 -187 0
-11306 11297 11298 0
-11306 -11297 -11298 0
11306 -11297 11298 0
11306 11297 -11298 0
-11307 11306 11299 0
-11307 -11306 -11299 0
11307 -11306 11299 0
11307 11306 -11299 0
-11308 11307 11297 0
-11308 -11307 -11297 0
11308 -11307 11297 0
11308 11307 -11297 0
-11309 11308 11298 0
-11309 -11308 -11298 0
11309 -11308 11298 0
11309 11308 -11298 0
-11310 11309 11299 0
-11310 -11309 -11299 0
11310 -11309 11299 0
11310 11309 -11299 0
-11311 11310 11300 0
-11311 -11310 -11300 0
11311 -11310 11300 0
11311 11310 -11300 0
-11312 11311 11301 0
-11312 -11311 -11301 0
11312 -11311 11301 0
11312 11311 -11301 0
-11313 11312 11302 0
-11313 -11312 -11302 0
11313 -11312 11302 0
11313 11312 -11302 0
-11314 11313 11300 0
-11314 -11313 -11300 0
11314 -11313 11300 0
11314 11313 -11300 0
-11315 11314 11301 0
-11315 -11314 -11301 0
11315 -11314 11301 0
11315 11314 -11301 0
-11316 11315 11302 0
-11316 -11315 -11302 0
11316 -11315 11302 0
11316 11315 -11302 0
-11317 11316 11303 0
-11317 -11316 -11303 0
11317 -11316 11303 0
11317 11316 -11303 0
-11318 11317 11304 0
-11318 -11317 -11304 0
11318 -11317 11304 0
11318 11317 -11304 0
-11319 11318 11303 0
-11319 -11318 -11303 0
11319 -11318 11303 0
11319 11318 -11303 0
-11320 11319 11304 0
-11320 -11319 -11304 0
11320 -11319 11304 0
11320 11319 -11304 0
-11321 11320 11305 0
-11321 -11320 -11305 0
11321 -11320 11305 0
11321 11320 -11305 0
-11321 0
-11322 11149 0
-11322 44 0
11322 -11149 -44 0
-11323 11149 0
-11323 47 0
11323 -11149 -47 0
-11324 11151 0
-11324 46 0
11324 -11151 -46 0
-11325 11151 0
-11325 40 0
11325 -11151 -40 0
-11326 11153 0
-11326 92 0
11326 -11153 -92 0
-11327 11153 0
-11327 95 0
11327 -11153 -95 0
-11328 11155 0
-11328 94 0
11328 -11155 -94 0
-11329 11155 0
-11329 88 0
11329 -11155 -88 0
-11330 11157 0
-11330 140 0
11330 -11157 -140 0
-11331 11159 0
-11331 138 0
11331 -11159 -138 0
-11332 11157 0
-11332 143 0
11332 -11157 -143 0
-11333 11159 0
-11333 135 0
11333 -11159 -135 0
-11334 11161 0
-11334 188 0
11334 -11161 -188 0
-11335 11322 11323 0
-11335 -11322 -11323 0
11335 -11322 11323 0
11335 11322 -11323 0
-11336 11335 11324 0
-11336 -11335 -11324 0
11336 -11335 11324 0
11336 11335 -11324 0
-11337 11336 11323 0
-11337 -11336 -11323 0
11337 -11336 11323 0
11337 11336 -11323 0
-11338 11337 11322 0
-11338 -11337 -11322 0
11338 -11337 11322 0
11338 11337 -11322 0
-11339 11338 11325 0
-11339 -11338 -11325 0
11339 -11338 11325 0
11339 11338 -11325 0
-11340 11339 11326 0
-11340 -11339 -11326 0
11340 -11339 11326 0
11340 11339 -11326 0
-11341 11340 11327 0
-11341 -11340 -11327 0
11341 -11340 11327 0
11341 11340 -11327 0
-11342 11341 11328 0
-11342 -11341 -11328 0
11342 -11341 11328 0
11342 11341 -11328 0
-11343 11342 11327 0
-11343 -11342 -11327 0
11343 -11342 11327 0
11343 11342 -11327 0
-11344 11343 11326 0
-11344 -11343 -11326 0
11344 -11343 11326 0
11344 11343 -11326 0
-11345 11344 11329 0
-11345 -11344 -11329 0
11345 -11344 11329 0
11345 11344 -11329 0
-11346 11345 11330 0
-11346 -11345 -11330 0
11346 -11345 11330 0
11346 11345 -11330 0
-11347 11346 11331 0
-11347 -11346 -11331 0
11347 -11346 11331 0
11347 11346 -11331 0
-11348 11347 11332 0
-11348 -11347 -11332 0
11348 -11347 11332 0
11348 11347 -11332 0
-11349 11348 11333 0
-11349 -11348 -11333 0
11349 -11348 11333 0
11349 11348 -11333 0
-11350 11349 11334 0
-11350 -11349 -11334 0
11350 -11349 11334 0
11350 11349 -11334 0
-11350 0
-11351 7 0
-11351 30 0
11351 -7 -30 0
-11352 11351 0
-11352 33 0
11352 -11351 -33 0
-11353 9 0
-11353 31 0
11353 -9 -31 0
-11354 11353 0
-11354 33 0
11354 -11353 -33 0
-11355 26 0
-11355 8 0
11355 -26 -8 0
-11356 11355 0
-11356 33 0
11356 -11355 -33 0
-11357 19 0
-11357 12 0
11357 -19 -12 0
-11358 11357 0
-11358 33 0
11358 -11357 -33 0
-11359 55 0
-11359 78 0
11359 -55 -78 0
-11360 11359 0
-11360 81 0
11360 -11359 -81 0
-11361 57 0
-11361 79 0
11361 -57 -79 0
-11362 11361 0
-11362 81 0
11362 -11361 -81 0
-11363 74 0
-11363 56 0
11363 -74 -56 0
-11364 11363 0
-11364 81 0
11364 -11363 -81 0
-11365 67 0
-11365 60 0
11365 -67 -60 0
-11366 11365 0
-11366 81 0
11366 -11365 -81 0
-11367 103 0
-11367 126 0
11367 -103 -126 0
-11368 11367 0
-11368 129 0
11368 -11367 -129 0
-11369 110 0
-11369 128 0
11369 -110 -128 0
-11370 11369 0
-11370 129 0
11370 -11369 -129 0
-11371 122 0
-11371 104 0
11371 -122 -104 0
-11372 11371 0
-11372 129 0
11372 -11371 -129 0
-11373 120 0
-11373 112 0
11373 -120 -112 0
-11374 11373 0
-11374 129 0
11374 -11373 -129 0
-11375 151 0
-11375 174 0
11375 -151 -174 0
-11376 11375 0
-11376 177 0
11376 -11375 -177 0
-11377 11352 11352 0
-11377 -11352 -11352 0
11377 -11352 11352 0
11377 11352 -11352 0
-11378 11377 11354 0
-11378 -11377 -11354 0
11378 -11377 11354 0
11378 11377 -11354 0
-11379 11378 11356 0
-11379 -11378 -11356 0
11379 -11378 11356 0
11379 11378 -11356 0
-11380 11379 11356 0
-11380 -11379 -11356 0
11380 -11379 11356 0
11380 11379 -11356 0
-11381 11380 11358 0
-11381 -11380 -11358 0
11381 -11380 11358 0
11381 11380 -11358 0
-11382 11381 11360 0
-11382 -11381 -11360 0
11382 -11381 11360 0
11382 11381 -11360 0
-11383 11382 11360 0
-11383 -11382 -11360 0
11383 -11382 11360 0
11383 11382 -11360 0
-11384 11383 11362 0
-11384 -11383 -11362 0
11384 -11383 11362 0
11384 11383 -11362 0
-11385 11384 11364 0
-11385 -11384 -11364 0
11385 -11384 11364 0
11385 11384 -11364 0
-11386 11385 11364 0
-11386 -11385 -11364 0
11386 -11385 11364 0
11386 11385 -11364 0
-11387 11386 11366 0
-11387 -11386 -11366 0
11387 -11386 11366 0
11387 11386 -11366 0
-11388 11387 11368 0
-11388 -11387 -11368 0
11388 -11387 11368 0
11388 11387 -11368 0
-11389 11388 11370 0
-11389 -11388 -11370 0
11389 -11388 11370 0
11389 11388 -11370 0
-11390 11389 11372 0
-11390 -11389 -11372 0
11390 -11389 11372 0
11390 11389 -11372 0
-11391 11390 11374 0
-11391 -11390 -11374 0
11391 -11390 11374 0
11391 11390 -11374 0
-11392 11391 11376 0
-11392 -11391 -11376 0
11392 -11391 11376 0
11392 11391 -11376 0
-11392 0
-11393 11351 0
-11393 34 0
11393 -11351 -34 0
-11394 11353 0
-11394 35 0
11394 -11353 -35 0
-11395 11355 0
-11395 37 0
11395 -11355 -37 0
-11396 11357 0
-11396 41 0
11396 -11357 -41 0
-11397 11359 0
-11397 82 0
11397 -11359 -82 0
-11398 11361 0
-11398 83 0
11398 -11361 -83 0
-11399 11363 0
-11399 85 0
11399 -11363 -85 0
-11400 11365 0
-11400 89 0
11400 -11365 -89 0
-11401 11367 0
-11401 130 0
11401 -11367 -130 0
-11402 11369 0
-11402 132 0
11402 -11369 -132 0
-11403 11371 0
-11403 133 0
11403 -11371 -133 0
-11404 11373 0
-11404 141 0
11404 -11373 -141 0
-11405 11375 0
-11405 178 0
11405 -11375 -178 0
-11406 11393 11393 0
-11406 -11393 -11393 0
11406 -11393 11393 0
11406 11393 -11393 0
-11407 11406 11394 0
-11407 -11406 -11394 0
11407 -11406 11394 0
11407 11406 -11394 0
-11408 11407 11395 0
-11408 -11407 -11395 0
11408 -11407 11395 0
11408 11407 -11395 0
-11409 11408 11395 0
-11409 -11408 -11395 0
11409 -11408 11395 0
11409 11408 -11395 0
-11410 11409 11396 0
-11410 -11409 -11396 0
11410 -11409 11396 0
11410 11409 -11396 0
-11411 11410 11397 0
-11411 -11410 -11397 0
11411 -11410 11397 0
11411 11410 -11397 0
-11412 11411 11397 0
-11412 -11411 -11397 0
11412 -11411 11397 0
11412 11411 -11397 0
-11413 11412 11398 0
-11413 -11412 -11398 0
11413 -11412 11398 0
11413 11412 -11398 0
-11414 11413 11399 0
-11414 -11413 -11399 0
11414 -11413 11399 0
11414 11413 -11399 0
-11415 11414 11399 0
-11415 -11414 -11399 0
11415 -11414 11399 0
11415 11414 -11399 0
-11416 11415 11400 0
-11416 -11415 -11400 0
11416 -11415 11400 0
11416 11415 -11400 0
-11417 11416 11401 0
-11417 -11416 -11401 0
11417 -11416 11401 0
11417 11416 -11401 0
-11418 11417 11402 0
-11418 -11417 -11402 0
11418 -11417 11402 0
11418 11417 -11402 0
-11419 11418 11403 0
-11419 -11418 -11403 0
11419 -11418 11403 0
11419 11418 -11403 0
-11420 11419 11404 0
-11420 -11419 -11404 0
11420 -11419 11404 0
11420 11419 -11404 0
-11421 11420 11405 0
-11421 -11420 -11405 0
11421 -11420 11405 0
11421 11420 -11405 0
-11421 0
-11422 11351 0
-11422 35 0
11422 -11351 -35 0
-11423 11351 0
-11423 36 0
11423 -11351 -36 0
-11424 11353 0
-11424 36 0
11424 -11353 -36 0
-11425 11355 0
-11425 41 0
11425 -11355 -41 0
-11426 11355 0
-11426 45 0
11426 -11355 -45 0
-11427 11357 0
-11427 45 0
11427 -11357 -45 0
-11428 11359 0
-11428 83 0
11428 -11359 -83 0
-11429 11359 0
-11429 84 0
11429 -11359 -84 0
-11430 11361 0
-11430 84 0
11430 -11361 -84 0
-11431 11363 0
-11431 89 0
11431 -11363 -89 0
-11432 11363 0
-11432 93 0
11432 -11363 -93 0
-11433 11365 0
-11433 93 0
11433 -11365 -93 0
-11434 11367 0
-11434 131 0
11434 -11367 -131 0
-11435 11369 0
-11435 131 0
11435 -11369 -131 0
-11436 11371 0
-11436 137 0
11436 -11371 -137 0
-11437 11373 0
-11437 137 0
11437 -11373 -137 0
-11438 11375 0
-11438 179 0
11438 -11375 -179 0
-11439 11422 11423 0
-11439 -11422 -11423 0
11439 -11422 11423 0
11439 11422 -11423 0
-11440 11439 11424 0
-11440 -11439 -11424 0
11440 -11439 11424 0
11440 11439 -11424 0
-11441 11440 11425 0
-11441 -11440 -11425 0
11441 -11440 11425 0
11441 11440 -11425 0
-11442 11441 11426 0
-11442 -11441 -11426 0
11442 -11441 11426 0
11442 11441 -11426 0
-11443 11442 11427 0
-11443 -11442 -11427 0
11443 -11442 11427 0
11443 11442 -11427 0
-11444 11443 11428 0
-11444 -11443 -11428 0
11444 -11443 11428 0
11444 11443 -11428 0
-11445 11444 11429 0
-11445 -11444 -11429 0
11445 -11444 11429 0
11445 11444 -11429 0
-11446 11445 11430 0
-11446 -11445 -11430 0
11446 -11445 11430 0
11446 11445 -11430 0
-11447 11446 11431 0
-11447 -11446 -11431 0
11447 -11446 11431 0
11447 11446 -11431 0
-11448 11447 11432 0
-11448 -11447 -11432 0
11448 -11447 11432 0
11448 11447 -11432 0
-11449 11448 11433 0
-11449 -11448 -11433 0
11449 -11448 11433 0
11449 11448 -11433 0
-11450 11449 11434 0
-11450 -11449 -11434 0
11450 -11449 11434 0
11450 11449 -11434 0
-11451 11450 11435 0
-11451 -11450 -11435 0
11451 -11450 11435 0
11451 11450 -11435 0
-11452 11451 11436 0
-11452 -11451 -11436 0
11452 -11451 11436 0
11452 11451 -11436 0
-11453 11452 11437 0
-11453 -11452 -11437 0
11453 -11452 11437 0
11453 11452 -11437 0
-11454 11453 11438 0
-11454 -11453 -11438 0
11454 -11453 11438 0
11454 11453 -11438 0
-11454 0
-11455 11351 0
-11455 37 0
11455 -11351 -37 0
-11456 11353 0
-11456 41 0
11456 -11353 -41 0
-11457 11355 0
-11457 34 0
11457 -11355 -34 0
-11458 11357 0
-11458 35 0
11458 -11357 -35 0
-11459 11359 0
-11459 85 0
11459 -11359 -85 0
-11460 11361 0
-11460 89 0
11460 -11361 -89 0
-11461 11363 0
-11461 82 0
11461 -11363 -82 0
-11462 11365 0
-11462 83 0
11462 -11365 -83 0
-11463 11367 0
-11463 133 0
11463 -11367 -133 0
-11464 11369 0
-11464 141 0
11464 -11369 -141 0
-11465 11371 0
-11465 130 0
11465 -11371 -130 0
-11466 11373 0
-11466 132 0
11466 -11373 -132 0
-11467 11375 0
-11467 181 0
11467 -11375 -181 0
-11468 11455 11455 0
-11468 -11455 -11455 0
11468 -11455 11455 0
11468 11455 -11455 0
-11469 11468 11456 0
-11469 -11468 -11456 0
11469 -11468 11456 0
11469 11468 -11456 0
-11470 11469 11457 0
-11470 -11469 -11457 0
11470 -11469 11457 0
11470 11469 -11457 0
-11471 11470 11457 0
-11471 -11470 -11457 0
11471 -11470 11457 0
11471 11470 -11457 0
-11472 11471 11458 0
-11472 -11471 -11458 0
11472 -11471 11458 0
11472 11471 -11458 0
-11473 11472 11459 0
-11473 -11472 -11459 0
11473 -11472 11459 0
11473 11472 -11459 0
-11474 11473 11459 0
-11474 -11473 -11459 0
11474 -11473 11459 0
11474 11473 -11459 0
-11475 11474 11460 0
-11475 -11474 -11460 0
11475 -11474 11460 0
11475 11474 -11460 0
-11476 11475 11461 0
-11476 -11475 -11461 0
11476 -11475 11461 0
11476 11475 -11461 0
-11477 11476 11461 0
-11477 -11476 -11461 0
11477 -11476 11461 0
11477 11476 -11461 0
-11478 11477 11462 0
-11478 -11477 -11462 0
11478 -11477 11462 0
11478 11477 -11462 0
-11479 11478 11463 0
-11479 -11478 -11463 0
11479 -11478 11463 0
11479 11478 -11463 0
-11480 11479 11464 0
-11480 -11479 -11464 0
11480 -11479 11464 0
11480 11479 -11464 0
-11481 11480 11465 0
-11481 -11480 -11465 0
11481 -11480 11465 0
11481 11480 -11465 0
-11482 11481 11466 0
-11482 -11481 -11466 0
11482 -11481 11466 0
11482 11481 -11466 0
-11483 11482 11467 0
-11483 -11482 -11467 0
11483 -11482 11467 0
11483 11482 -11467 0
-11483 0
-11484 11351 0
-11484 38 0
11484 -11351 -38 0
-11485 11353 0
-11485 43 0
11485 -11353 -43 0
-11486 11355 0
-11486 38 0
11486 -11355 -38 0
-11487 11357 0
-11487 43 0
11487 -11357 -43 0
-11488 11359 0
-11488 86 0
11488 -11359 -86 0
-11489 11361 0
-11489 91 0
11489 -11361 -91 0
-11490 11363 0
-11490 86 0
11490 -11363 -86 0
-11491 11365 0
-11491 91 0
11491 -11365 -91 0
-11492 11367 0
-11492 134 0
11492 -11367 -134 0
-11493 11369 0
-11493 144 0
11493 -11369 -144 0
-11494 11371 0
-11494 134 0
11494 -11371 -134 0
-11495 11373 0
-11495 144 0
11495 -11373 -144 0
-11496 11375 0
-11496 182 0
11496 -11375 -182 0
-11497 11484 11484 0
-11497 -11484 -11484 0
11497 -11484 11484 0
11497 11484 -11484 0
-11498 11497 11485 0
-11498 -11497 -11485 0
11498 -11497 11485 0
11498 11497 -11485 0
-11499 11498 11486 0
-11499 -11498 -11486 0
11499 -11498 11486 0
11499 11498 -11486 0
-11500 11499 11486 0
-11500 -11499 -11486 0
11500 -11499 11486 0
11500 11499 -11486 0
-11501 11500 11487 0
-11501 -11500 -11487 0
11501 -11500 11487 0
11501 11500 -11487 0
-11502 11501 11488 0
-11502 -11501 -11488 0
11502 -11501 11488 0
11502 11501 -11488 0
-11503 11502 11488 0
-11503 -11502 -11488 0
11503 -11502 11488 0
11503 11502 -11488 0
-11504 11503 11489 0
-11504 -11503 -11489 0
11504 -11503 11489 0
11504 11503 -11489 0
-11505 11504 11490 0
-11505 -11504 -11490 0
11505 -11504 11490 0
11505 11504 -11490 0
-11506 11505 11490 0
-11506 -11505 -11490 0
11506 -11505 11490 0
11506 11505 -11490 0
-11507 11506 11491 0
-11507 -11506 -11491 0
11507 -11506 11491 0
11507 11506 -11491 0
-11508 11507 11492 0
-11508 -11507 -11492 0
11508 -11507 11492 0
11508 11507 -11492 0
-11509 11508 11493 0
-11509 -11508 -11493 0
11509 -11508 11493 0
11509 11508 -11493 0
-11510 11509 11494 0
-11510 -11509 -11494 0
11510 -11509 11494 0
11510 11509 -11494 0
-11511 11510 11495 0
-11511 -11510 -11495 0
11511 -11510 11495 0
11511 11510 -11495 0
-11512 11511 11496 0
-11512 -11511 -11496 0
11512 -11511 11496 0
11512 11511 -11496 0
-11512 0
-11513 11351 0
-11513 39 0
11513 -11351 -39 0
-11514 11351 0
-11514 40 0
11514 -11351 -40 0
-11515 11353 0
-11515 44 0
11515 -11353 -44 0
-11516 11355 0
-11516 42 0
11516 -11355 -42 0
-11517 11355 0
-11517 46 0
11517 -11355 -46 0
-11518 11357 0
-11518 47 0
11518 -11357 -47 0
-11519 11359 0
-11519 87 0
11519 -11359 -87 0
-11520 11359 0
-11520 88 0
11520 -11359 -88 0
-11521 11361 0
-11521 92 0
11521 -11361 -92 0
-11522 11363 0
-11522 90 0
11522 -11363 -90 0
-11523 11363 0
-11523 94 0
11523 -11363 -94 0
-11524 11365 0
-11524 95 0
11524 -11365 -95 0
-11525 11367 0
-11525 135 0
11525 -11367 -135 0
-11526 11369 0
-11526 143 0
11526 -11369 -143 0
-11527 11371 0
-11527 138 0
11527 -11371 -138 0
-11528 11373 0
-11528 140 0
11528 -11373 -140 0
-11529 11375 0
-11529 183 0
11529 -11375 -183 0
-11530 11513 11514 0
-11530 -11513 -11514 0
11530 -11513 11514 0
11530 11513 -11514 0
-11531 11530 11515 0
-11531 -11530 -11515 0
11531 -11530 11515 0
11531 11530 -11515 0
-11532 11531 11516 0
-11532 -11531 -11516 0
11532 -11531 11516 0
11532 11531 -11516 0
-11533 11532 11517 0
-11533 -11532 -11517 0
11533 -11532 11517 0
11533 11532 -11517 0
-11534 11533 11518 0
-11534 -11533 -11518 0
11534 -11533 11518 0
11534 11533 -11518 0
-11535 11534 11519 0
-11535 -11534 -11519 0
11535 -11534 11519 0
11535 11534 -11519 0
-11536 11535 11520 0
-11536 -11535 -11520 0
11536 -11535 11520 0
11536 11535 -11520 0
-11537 11536 11521 0
-11537 -11536 -11521 0
11537 -11536 11521 0
11537 11536 -11521 0
-11538 11537 11522 0
-11538 -11537 -11522 0
11538 -11537 11522 0
11538 11537 -11522 0
-11539 11538 11523 0
-11539 -11538 -11523 0
11539 -11538 11523 0
11539 11538 -11523 0
-11540 11539 11524 0
-11540 -11539 -11524 0
11540 -11539 11524 0
11540 11539 -11524 0
-11541 11540 11525 0
-11541 -11540 -11525 0
11541 -11540 11525 0
11541 11540 -11525 0
-11542 11541 11526 0
-11542 -11541 -11526 0
11542 -11541 11526 0
11542 11541 -11526 0
-11543 11542 11527 0
-11543 -11542 -11527 0
11543 -11542 11527 0
11543 11542 -11527 0
-11544 11543 11528 0
-11544 -11543 -11528 0
11544 -11543 11528 0
11544 11543 -11528 0
-11545 11544 11529 0
-11545 -11544 -11529 0
11545 -11544 11529 0
11545 11544 -11529 0
-11545 0
-11546 11351 0
-11546 41 0
11546 -11351 -41 0
-11547 11351 0
-11547 45 0
11547 -11351 -45 0
-11548 11353 0
-11548 45 0
11548 -11353 -45 0
-11549 11355 0
-11549 35 0
11549 -11355 -35 0
-11550 11355 0
-11550 36 0
11550 -11355 -36 0
-11551 11357 0
-11551 36 0
11551 -11357 -36 0
-11552 11359 0
-11552 89 0
11552 -11359 -89 0
-11553 11359 0
-11553 93 0
11553 -11359 -93 0
-11554 11361 0
-11554 93 0
11554 -11361 -93 0
-11555 11363 0
-11555 83 0
11555 -11363 -83 0
-11556 11363 0
-11556 84 0
11556 -11363 -84 0
-11557 11365 0
-11557 84 0
11557 -11365 -84 0
-11558 11367 0
-11558 137 0
11558 -11367 -137 0
-11559 11369 0
-11559 137 0
11559 -11369 -137 0
-11560 11371 0
-11560 131 0
11560 -11371 -131 0
-11561 11373 0
-11561 131 0
11561 -11373 -131 0
-11562 11375 0
-11562 185 0
11562 -11375 -185 0
-11563 11546 11547 0
-11563 -11546 -11547 0
11563 -11546 11547 0
11563 11546 -11547 0
-11564 11563 11548 0
-11564 -11563 -11548 0
11564 -11563 11548 0
11564 11563 -11548 0
-11565 11564 11549 0
-11565 -11564 -11549 0
11565 -11564 11549 0
11565 11564 -11549 0
-11566 11565 11550 0
-11566 -11565 -11550 0
11566 -11565 11550 0
11566 11565 -11550 0
-11567 11566 11551 0
-11567 -11566 -11551 0
11567 -11566 11551 0
11567 11566 -11551 0
-11568 11567 11552 0
-11568 -11567 -11552 0
11568 -11567 11552 0
11568 11567 -11552 0
-11569 11568 11553 0
-11569 -11568 -11553 0
11569 -11568 11553 0
11569 11568 -11553 0
-11570 11569 11554 0
-11570 -11569 -11554 0
11570 -11569 11554 0
11570 11569 -11554 0
-11571 11570 11555 0
-11571 -11570 -11555 0
11571 -11570 11555 0
11571 11570 -11555 0
-11572 11571 11556 0
-11572 -11571 -11556 0
11572 -11571 11556 0
11572 11571 -11556 0
-11573 11572 11557 0
-11573 -11572 -11557 0
11573 -11572 11557 0
11573 11572 -11557 0
-11574 11573 11558 0
-11574 -11573 -11558 0
11574 -11573 11558 0
11574 11573 -11558 0
-11575 11574 11559 0
-11575 -11574 -11559 0
11575 -11574 11559 0
11575 11574 -11559 0
-11576 11575 11560 0
-11576 -11575 -11560 0
11576 -11575 11560 0
11576 11575 -11560 0
-11577 11576 11561 0
-11577 -11576 -11561 0
11577 -11576 11561 0
11577 11576 -11561 0
-11578 11577 11562 0
-11578 -11577 -11562 0
11578 -11577 11562 0
11578 11577 -11562 0
-11578 0
-11579 11351 0
-11579 42 0
11579 -11351 -42 0
-11580 11351 0
-11580 46 0
11580 -11351 -46 0
-11581 11353 0
-11581 47 0
11581 -11353 -47 0
-11582 11355 0
-11582 39 0
11582 -11355 -39 0
-11583 11355 0
-11583 40 0
11583 -11355 -40 0
-11584 11357 0
-11584 44 0
11584 -11357 -44 0
-11585 11359 0
-11585 90 0
11585 -11359 -90 0
-11586 11359 0
-11586 94 0
11586 -11359 -94 0
-11587 11361 0
-11587 95 0
11587 -11361 -95 0
-11588 11363 0
-11588 87 0
11588 -11363 -87 0
-11589 11363 0
-11589 88 0
11589 -11363 -88 0
-11590 11365 0
-11590 92 0
11590 -11365 -92 0
-11591 11367 0
-11591 138 0
11591 -11367 -138 0
-11592 11369 0
-11592 140 0
11592 -11369 -140 0
-11593 11371 0
-11593 135 0
11593 -11371 -135 0
-11594 11373 0
-11594 143 0
11594 -11373 -143 0
-11595 11375 0
-11595 186 0
11595 -11375 -186 0
-11596 11579 11580 0
-11596 -11579 -11580 0
11596 -11579 11580 0
11596 11579 -11580 0
-11597 11596 11581 0
-11597 -11596 -11581 0
11597 -11596 11581 0
11597 11596 -11581 0
-11598 11597 11582 0
-11598 -11597 -11582 0
11598 -11597 11582 0
11598 11597 -11582 0
-11599 11598 11583 0
-11599 -11598 -11583 0
11599 -11598 11583 0
11599 11598 -11583 0
-11600 11599 11584 0
-11600 -11599 -11584 0
11600 -11599 11584 0
11600 11599 -11584 0
-11601 11600 11585 0
-11601 -11600 -11585 0
11601 -11600 11585 0
11601 11600 -11585 0
-11602 11601 11586 0
-11602 -11601 -11586 0
11602 -11601 11586 0
11602 11601 -11586 0
-11603 11602 11587 0
-11603 -11602 -11587 0
11603 -11602 11587 0
11603 11602 -11587 0
-11604 11603 11588 0
-11604 -11603 -11588 0
11604 -11603 11588 0
11604 11603 -11588 0
-11605 11604 11589 0
-11605 -11604 -11589 0
11605 -11604 11589 0
11605 11604 -11589 0
-11606 11605 11590 0
-11606 -11605 -11590 0
11606 -11605 11590 0
11606 11605 -11590 0
-11607 11606 11591 0
-11607 -11606 -11591 0
11607 -11606 11591 0
11607 11606 -11591 0
-11608 11607 11592 0
-11608 -11607 -11592 0
11608 -11607 11592 0
11608 11607 -11592 0
-11609 11608 11593 0
-11609 -11608 -11593 0
11609 -11608 11593 0
11609 11608 -11593 0
-11610 11609 11594 0
-11610 -11609 -11594 0
11610 -11609 11594 0
11610 11609 -11594 0
-11611 11610 11595 0
-11611 -11610 -11595 0
11611 -11610 11595 0
11611 11610 -11595 0
-11611 0
-11612 11351 0
-11612 43 0
11612 -11351 -43 0
-11613 11351 0
-11613 48 0
11613 -11351 -48 0
-11614 11353 0
-11614 48 0
11614 -11353 -48 0
-11615 11355 0
-11615 43 0
11615 -11355 -43 0
-11616 11355 0
-11616 48 0
11616 -11355 -48 0
-11617 11357 0
-11617 48 0
11617 -11357 -48 0
-11618 11359 0
-11618 91 0
11618 -11359 -91 0
-11619 11359 0
-11619 96 0
11619 -11359 -96 0
-11620 11361 0
-11620 96 0
11620 -11361 -96 0
-11621 11363 0
-11621 91 0
11621 -11363 -91 0
-11622 11363 0
-11622 96 0
11622 -11363 -96 0
-11623 11365 0
-11623 96 0
11623 -11365 -96 0
-11624 11367 0
-11624 139 0
11624 -11367 -139 0
-11625 11369 0
-11625 139 0
11625 -11369 -139 0
-11626 11371 0
-11626 139 0
11626 -11371 -139 0
-11627 11373 0
-11627 139 0
11627 -11373 -139 0
-11628 11375 0
-11628 187 0
11628 -11375 -187 0
-11629 11612 11613 0
-11629 -11612 -11613 0
11629 -11612 11613 0
11629 11612 -11613 0
-11630 11629 11614 0
-11630 -11629 -11614 0
11630 -11629 11614 0
11630 11629 -11614 0
-11631 11630 11615 0
-11631 -11630 -11615 0
11631 -11630 11615 0
11631 11630 -11615 0
-11632 11631 11616 0
-11632 -11631 -11616 0
11632 -11631 11616 0
11632 11631 -11616 0
-11633 11632 11617 0
-11633 -11632 -11617 0
11633 -11632 11617 0
11633 11632 -11617 0
-11634 11633 11618 0
-11634 -11633 -11618 0
11634 -11633 11618 0
11634 11633 -11618 0
-11635 11634 11619 0
-11635 -11634 -11619 0
11635 -11634 11619 0
11635 11634 -11619 0
-11636 11635 11620 0
-11636 -11635 -11620 0
11636 -11635 11620 0
11636 11635 -11620 0
-11637 11636 11621 0
-11637 -11636 -11621 0
11637 -11636 11621 0
11637 11636 -11621 0
-11638 11637 11622 0
-11638 -11637 -11622 0
11638 -11637 11622 0
11638 11637 -11622 0
-11639 11638 11623 0
-11639 -11638 -11623 0
11639 -11638 11623 0
11639 11638 -11623 0
-11640 11639 11624 0
-11640 -11639 -11624 0
11640 -11639 11624 0
11640 11639 -11624 0
-11641 11640 11625 0
-11641 -11640 -11625 0
11641 -11640 11625 0
11641 11640 -11625 0
-11642 11641 11626 0
-11642 -11641 -11626 0
11642 -11641 11626 0
11642 11641 -11626 0
-11643 11642 11627 0
-11643 -11642 -11627 0
11643 -11642 11627 0
11643 11642 -11627 0
-11644 11643 11628 0
-11644 -11643 -11628 0
11644 -11643 11628 0
11644 11643 -11628 0
-11644 0
-11645 11351 0
-11645 44 0
11645 -11351 -44 0
-11646 11351 0
-11646 47 0
11646 -11351 -47 0
-11647 11353 0
-11647 46 0
11647 -11353 -46 0
-11648 11355 0
-11648 47 0
11648 -11355 -47 0
-11649 11355 0
-11649 44 0
11649 -11355 -44 0
-11650 11357 0
-11650 40 0
11650 -11357 -40 0
-11651 11359 0
-11651 92 0
11651 -11359 -92 0
-11652 11359 0
-11652 95 0
11652 -11359 -95 0
-11653 11361 0
-11653 94 0
11653 -11361 -94 0
-11654 11363 0
-11654 95 0
11654 -11363 -95 0
-11655 11363 0
-11655 92 0
11655 -11363 -92 0
-11656 11365 0
-11656 88 0
11656 -11365 -88 0
-11657 11367 0
-11657 140 0
11657 -11367 -140 0
-11658 11369 0
-11658 138 0
11658 -11369 -138 0
-11659 11371 0
-11659 143 0
11659 -11371 -143 0
-11660 11373 0
-11660 135 0
11660 -11373 -135 0
-11661 11375 0
-11661 188 0
11661 -11375 -188 0
-11662 11645 11646 0
-11662 -11645 -11646 0
11662 -11645 11646 0
11662 11645 -11646 0
-11663 11662 11647 0
-11663 -11662 -11647 0
11663 -11662 11647 0
11663 11662 -11647 0
-11664 11663 11648 0
-11664 -11663 -11648 0
11664 -11663 11648 0
11664 11663 -11648 0
-11665 11664 11649 0
-11665 -11664 -11649 0
11665 -11664 11649 0
11665 11664 -11649 0
-11666 11665 11650 0
-11666 -11665 -11650 0
11666 -11665 11650 0
11666 11665 -11650 0
-11667 11666 11651 0
-11667 -11666 -11651 0
11667 -11666 11651 0
11667 11666 -11651 0
-11668 11667 11652 0
-11668 -11667 -11652 0
11668 -11667 11652 0
11668 11667 -11652 0
-11669 11668 11653 0
-11669 -11668 -11653 0
11669 -11668 11653 0
11669 11668 -11653 0
-11670 11669 11654 0
-11670 -11669 -11654 0
11670 -11669 11654 0
11670 11669 -11654 0
-11671 11670 11655 0
-11671 -11670 -11655 0
11671 -11670 11655 0
11671 11670 -11655 0
-11672 11671 11656 0
-11672 -11671 -11656 0
11672 -11671 11656 0
11672 11671 -11656 0
-11673 11672 11657 0
-11673 -11672 -11657 0
11673 -11672 11657 0
11673 11672 -11657 0
-11674 11673 11658 0
-11674 -11673 -11658 0
11674 -11673 11658 0
11674 11673 -11658 0
-11675 11674 11659 0
-11675 -11674 -11659 0
11675 -11674 11659 0
11675 11674 -11659 0
-11676 11675 11660 0
-11676 -11675 -11660 0
11676 -11675 11660 0
11676 11675 -11660 0
-11677 11676 11661 0
-11677 -11676 -11661 0
11677 -11676 11661 0
11677 11676 -11661 0
-11677 0
-11678 7 0
-11678 31 0
11678 -7 -31 0
-11679 11678 0
-11679 33 0
11679 -11678 -33 0
-11680 7 0
-11680 32 0
11680 -7 -32 0
-11681 11680 0
-11681 33 0
11681 -11680 -33 0
-11682 9 0
-11682 32 0
11682 -9 -32 0
-11683 11682 0
-11683 33 0
11683 -11682 -33 0
-11684 26 0
-11684 12 0
11684 -26 -12 0
-11685 11684 0
-11685 33 0
11685 -11684 -33 0
-11686 26 0
-11686 16 0
11686 -26 -16 0
-11687 11686 0
-11687 33 0
11687 -11686 -33 0
-11688 19 0
-11688 16 0
11688 -19 -16 0
-11689 11688 0
-11689 33 0
11689 -11688 -33 0
-11690 55 0
-11690 79 0
11690 -55 -79 0
-11691 11690 0
-11691 81 0
11691 -11690 -81 0
-11692 55 0
-11692 80 0
11692 -55 -80 0
-11693 11692 0
-11693 81 0
11693 -11692 -81 0
-11694 57 0
-11694 80 0
11694 -57 -80 0
-11695 11694 0
-11695 81 0
11695 -11694 -81 0
-11696 74 0
-11696 60 0
11696 -74 -60 0
-11697 11696 0
-11697 81 0
11697 -11696 -81 0
-11698 74 0
-11698 64 0
11698 -74 -64 0
-11699 11698 0
-11699 81 0
11699 -11698 -81 0
-11700 67 0
-11700 64 0
11700 -67 -64 0
-11701 11700 0
-11701 81 0
11701 -11700 -81 0
-11702 103 0
-11702 127 0
11702 -103 -127 0
-11703 11702 0
-11703 129 0
11703 -11702 -129 0
-11704 110 0
-11704 127 0
11704 -110 -127 0
-11705 11704 0
-11705 129 0
11705 -11704 -129 0
-11706 122 0
-11706 108 0
11706 -122 -108 0
-11707 11706 0
-11707 129 0
11707 -11706 -129 0
-11708 120 0
-11708 108 0
11708 -120 -108 0
-11709 11708 0
-11709 129 0
11709 -11708 -129 0
-11710 151 0
-11710 175 0
11710 -151 -175 0
-11711 11710 0
-11711 177 0
11711 -11710 -177 0
-11712 11679 11681 0
-11712 -11679 -11681 0
11712 -11679 11681 0
11712 11679 -11681 0
-11713 11712 11683 0
-11713 -11712 -11683 0
11713 -11712 11683 0
11713 11712 -11683 0
-11714 11713 11685 0
-11714 -11713 -11685 0
11714 -11713 11685 0
11714 11713 -11685 0
-11715 11714 11687 0
-11715 -11714 -11687 0
11715 -11714 11687 0
11715 11714 -11687 0
-11716 11715 11689 0
-11716 -11715 -11689 0
11716 -11715 11689 0
11716 11715 -11689 0
-11717 11716 11691 0
-11717 -11716 -11691 0
11717 -11716 11691 0
11717 11716 -11691 0
-11718 11717 11693 0
-11718 -11717 -11693 0
11718 -11717 11693 0
11718 11717 -11693 0
-11719 11718 11695 0
-11719 -11718 -11695 0
11719 -11718 11695 0
11719 11718 -11695 0
-11720 11719 11697 0
-11720 -11719 -11697 0
11720 -11719 11697 0
11720 11719 -11697 0
-11721 11720 11699 0
-11721 -11720 -11699 0
11721 -11720 11699 0
11721 11720 -11699 0
-11722 11721 11701 0
-11722 -11721 -11701 0
11722 -11721 11701 0
11722 11721 -11701 0
-11723 11722 11703 0
-11723 -11722 -11703 0
11723 -11722 11703 0
11723 11722 -11703 0
-11724 11723 11705 0
-11724 -11723 -11705 0
11724 -11723 11705 0
11724 11723 -11705 0
-11725 11724 11707 0
-11725 -11724 -11707 0
11725 -11724 11707 0
11725 11724 -11707 0
-11726 11725 11709 0
-11726 -11725 -11709 0
11726 -11725 11709 0
11726 11725 -11709 0
-11727 11726 11711 0
-11727 -11726 -11711 0
11727 -11726 11711 0
11727 11726 -11711 0
-11727 0
-11728 11678 0
-11728 34 0
11728 -11678 -34 0
-11729 11680 0
-11729 34 0
11729 -11680 -34 0
-11730 11682 0
-11730 35 0
11730 -11682 -35 0
-11731 11684 0
-11731 37 0
11731 -11684 -37 0
-11732 11686 0
-11732 37 0
11732 -11686 -37 0
-11733 11688 0
-11733 41 0
11733 -11688 -41 0
-11734 11690 0
-11734 82 0
11734 -11690 -82 0
-11735 11692 0
-11735 82 0
11735 -11692 -82 0
-11736 11694 0
-11736 83 0
11736 -11694 -83 0
-11737 11696 0
-11737 85 0
11737 -11696 -85 0
-11738 11698 0
-11738 85 0
11738 -11698 -85 0
-11739 11700 0
-11739 89 0
11739 -11700 -89 0
-11740 11702 0
-11740 130 0
11740 -11702 -130 0
-11741 11704 0
-11741 132 0
11741 -11704 -132 0
-11742 11706 0
-11742 133 0
11742 -11706 -133 0
-11743 11708 0
-11743 141 0
11743 -11708 -141 0
-11744 11710 0
-11744 178 0
11744 -11710 -178 0
-11745 11728 11729 0
-11745 -11728 -11729 0
11745 -11728 11729 0
11745 11728 -11729 0
-11746 11745 11730 0
-11746 -11745 -11730 0
11746 -11745 11730 0
11746 11745 -11730 0
-11747 11746 11731 0
-11747 -11746 -11731 0
11747 -11746 11731 0
11747 11746 -11731 0
-11748 11747 11732 0
-11748 -11747 -11732 0
11748 -11747 11732 0
11748 11747 -11732 0
-11749 11748 11733 0
-11749 -11748 -11733 0
11749 -11748 11733 0
11749 11748 -11733 0
-11750 11749 11734 0
-11750 -11749 -11734 0
11750 -11749 11734 0
11750 11749 -11734 0
-11751 11750 11735 0
-11751 -11750 -11735 0
11751 -11750 11735 0
11751 11750 -11735 0
-11752 11751 11736 0
-11752 -11751 -11736 0
11752 -11751 11736 0
11752 11751 -11736 0
-11753 11752 11737 0
-11753 -11752 -11737 0
11753 -11752 11737 0
11753 11752 -11737 0
-11754 11753 11738 0
-11754 -11753 -11738 0
11754 -11753 11738 0
11754 11753 -11738 0
-11755 11754 11739 0
-11755 -11754 -11739 0
11755 -11754 11739 0
11755 11754 -11739 0
-11756 11755 11740 0
-11756 -11755 -11740 0
11756 -11755 11740 0
11756 11755 -11740 0
-11757 11756 11741 0
-11757 -11756 -11741 0
11757 -11756 11741 0
11757 11756 -11741 0
-11758 11757 11742 0
-11758 -11757 -11742 0
11758 -11757 11742 0
11758 11757 -11742 0
-11759 11758 11743 0
-11759 -11758 -11743 0
11759 -11758 11743 0
11759 11758 -11743 0
-11760 11759 11744 0
-11760 -11759 -11744 0
11760 -11759 11744 0
11760 11759 -11744 0
-11760 0
-11761 11678 0
-11761 35 0
11761 -11678 -35 0
-11762 11680 0
-11762 36 0
11762 -11680 -36 0
-11763 11682 0
-11763 36 0
11763 -11682 -36 0
-11764 11684 0
-11764 41 0
11764 -11684 -41 0
-11765 11686 0
-11765 45 0
11765 -11686 -45 0
-11766 11688 0
-11766 45 0
11766 -11688 -45 0
-11767 11690 0
-11767 83 0
11767 -11690 -83 0
-11768 11692 0
-11768 84 0
11768 -11692 -84 0
-11769 11694 0
-11769 84 0
11769 -11694 -84 0
-11770 11696 0
-11770 89 0
11770 -11696 -89 0
-11771 11698 0
-11771 93 0
11771 -11698 -93 0
-11772 11700 0
-11772 93 0
11772 -11700 -93 0
-11773 11702 0
-11773 131 0
11773 -11702 -131 0
-11774 11704 0
-11774 131 0
11774 -11704 -131 0
-11775 11706 0
-11775 137 0
11775 -11706 -137 0
-11776 11708 0
-11776 137 0
11776 -11708 -137 0
-11777 11710 0
-11777 179 0
11777 -11710 -179 0
-11778 11761 11762 0
-11778 -11761 -11762 0
11778 -11761 11762 0
11778 11761 -11762 0
-11779 11778 11763 0
-11779 -11778 -11763 0
11779 -11778 11763 0
11779 11778 -11763 0
-11780 11779 11764 0
-11780 -11779 -11764 0
11780 -11779 11764 0
11780 11779 -11764 0
-11781 11780 11765 0
-11781 -11780 -11765 0
11781 -11780 11765 0
11781 11780 -11765 0
-11782 11781 11766 0
-11782 -11781 -11766 0
11782 -11781 11766 0
11782 11781 -11766 0
-11783 11782 11767 0
-11783 -11782 -11767 0
11783 -11782 11767 0
11783 11782 -11767 0
-11784 11783 11768 0
-11784 -11783 -11768 0
11784 -11783 11768 0
11784 11783 -11768 0
-11785 11784 11769 0
-11785 -11784 -11769 0
11785 -11784 11769 0
11785 11784 -11769 0
-11786 11785 11770 0
-11786 -11785 -11770 0
11786 -11785 11770 0
11786 11785 -11770 0
-11787 11786 11771 0
-11787 -11786 -11771 0
11787 -11786 11771 0
11787 11786 -11771 0
-11788 11787 11772 0
-11788 -11787 -11772 0
11788 -11787 11772 0
11788 11787 -11772 0
-11789 11788 11773 0
-11789 -11788 -11773 0
11789 -11788 11773 0
11789 11788 -11773 0
-11790 11789 11774 0
-11790 -11789 -11774 0
11790 -11789 11774 0
11790 11789 -11774 0
-11791 11790 11775 0
-11791 -11790 -11775 0
11791 -11790 11775 0
11791 11790 -11775 0
-11792 11791 11776 0
-11792 -11791 -11776 0
11792 -11791 11776 0
11792 11791 -11776 0
-11793 11792 11777 0
-11793 -11792 -11777 0
11793 -11792 11777 0
11793 11792 -11777 0
-11793 0
-11794 11678 0
-11794 36 0
11794 -11678 -36 0
-11795 11680 0
-11795 35 0
11795 -11680 -35 0
-11796 11682 0
-11796 34 0
11796 -11682 -34 0
-11797 11684 0
-11797 45 0
11797 -11684 -45 0
-11798 11686 0
-11798 41 0
11798 -11686 -41 0
-11799 11688 0
-11799 37 0
11799 -11688 -37 0
-11800 11690 0
-11800 84 0
11800 -11690 -84 0
-11801 11692 0
-11801 83 0
11801 -11692 -83 0
-11802 11694 0
-11802 82 0
11802 -11694 -82 0
-11803 11696 0
-11803 93 0
11803 -11696 -93 0
-11804 11698 0
-11804 89 0
11804 -11698 -89 0
-11805 11700 0
-11805 85 0
11805 -11700 -85 0
-11806 11702 0
-11806 132 0
11806 -11702 -132 0
-11807 11704 0
-11807 130 0
11807 -11704 -130 0
-11808 11706 0
-11808 141 0
11808 -11706 -141 0
-11809 11708 0
-11809 133 0
11809 -11708 -133 0
-11810 11710 0
-11810 180 0
11810 -11710 -180 0
-11811 11794 11795 0
-11811 -11794 -11795 0
11811 -11794 11795 0
11811 11794 -11795 0
-11812 11811 11796 0
-11812 -11811 -11796 0
11812 -11811 11796 0
11812 11811 -11796 0
-11813 11812 11797 0
-11813 -11812 -11797 0
11813 -11812 11797 0
11813 11812 -11797 0
-11814 11813 11798 0
-11814 -11813 -11798 0
11814 -11813 11798 0
11814 11813 -11798 0
-11815 11814 11799 0
-11815 -11814 -11799 0
11815 -11814 11799 0
11815 11814 -11799 0
-11816 11815 11800 0
-11816 -11815 -11800 0
11816 -11815 11800 0
11816 11815 -11800 0
-11817 11816 11801 0
-11817 -11816 -11801 0
11817 -11816 11801 0
11817 11816 -11801 0
-11818 11817 11802 0
-11818 -11817 -11802 0
11818 -11817 11802 0
11818 11817 -11802 0
-11819 11818 11803 0
-11819 -11818 -11803 0
11819 -11818 11803 0
11819 11818 -11803 0
-11820 11819 11804 0
-11820 -11819 -11804 0
11820 -11819 11804 0
11820 11819 -11804 0
-11821 11820 11805 0
-11821 -11820 -11805 0
11821 -11820 11805 0
11821 11820 -11805 0
-11822 11821 11806 0
-11822 -11821 -11806 0
11822 -11821 11806 0
11822 11821 -11806 0
-11823 11822 11807 0
-11823 -11822 -11807 0
11823 -11822 11807 0
11823 11822 -11807 0
-11824 11823 11808 0
-11824 -11823 -11808 0
11824 -11823 11808 0
11824 11823 -11808 0
-11825 11824 11809 0
-11825 -11824 -11809 0
11825 -11824 11809 0
11825 11824 -11809 0
-11826 11825 11810 0
-11826 -11825 -11810 0
11826 -11825 11810 0
11826 11825 -11810 0
-11826 0
-11827 11678 0
-11827 37 0
11827 -11678 -37 0
-11828 11680 0
-11828 37 0
11828 -11680 -37 0
-11829 11682 0
-11829 41 0
11829 -11682 -41 0
-11830 11684 0
-11830 34 0
11830 -11684 -34 0
-11831 11686 0
-11831 34 0
11831 -11686 -34 0
-11832 11688 0
-11832 35 0
11832 -11688 -35 0
-11833 11690 0
-11833 85 0
11833 -11690 -85 0
-11834 11692 0
-11834 85 0
11834 -11692 -85 0
-11835 11694 0
-11835 89 0
11835 -11694 -89 0
-11836 11696 0
-11836 82 0
11836 -11696 -82 0
-11837 11698 0
-11837 82 0
11837 -11698 -82 0
-11838 11700 0
-11838 83 0
11838 -11700 -83 0
-11839 11702 0
-11839 133 0
11839 -11702 -133 0
-11840 11704 0
-11840 141 0
11840 -11704 -141 0
-11841 11706 0
-11841 130 0
11841 -11706 -130 0
-11842 11708 0
-11842 132 0
11842 -11708 -132 0
-11843 11710 0
-11843 181 0
11843 -11710 -181 0
-11844 11827 11828 0
-11844 -11827 -11828 0
11844 -11827 11828 0
11844 11827 -11828 0
-11845 11844 11829 0
-11845 -11844 -11829 0
11845 -11844 11829 0
11845 11844 -11829 0
-11846 11845 11830 0
-11846 -11845 -11830 0
11846 -11845 11830 0
11846 11845 -11830 0
-11847 11846 11831 0
-11847 -11846 -11831 0
11847 -11846 11831 0
11847 11846 -11831 0
-11848 11847 11832 0
-11848 -11847 -11832 0
11848 -11847 11832 0
11848 11847 -11832 0
-11849 11848 11833 0
-11849 -11848 -11833 0
11849 -11848 11833 0
11849 11848 -11833 0
-11850 11849 11834 0
-11850 -11849 -11834 0
11850 -11849 11834 0
11850 11849 -11834 0
-11851 11850 11835 0
-11851 -11850 -11835 0
11851 -11850 11835 0
11851 11850 -11835 0
-11852 11851 11836 0
-11852 -11851 -11836 0
11852 -11851 11836 0
11852 11851 -11836 0
-11853 11852 11837 0
-11853 -11852 -11837 0
11853 -11852 11837 0
11853 11852 -11837 0
-11854 11853 11838 0
-11854 -11853 -11838 0
11854 -11853 11838 0
11854 11853 -11838 0
-11855 11854 11839 0
-11855 -11854 -11839 0
11855 -11854 11839 0
11855 11854 -11839 0
-11856 11855 11840 0
-11856 -11855 -11840 0
11856 -11855 11840 0
11856 11855 -11840 0
-11857 11856 11841 0
-11857 -11856 -11841 0
11857 -11856 11841 0
11857 11856 -11841 0
-11858 11857 11842 0
-11858 -11857 -11842 0
11858 -11857 11842 0
11858 11857 -11842 0
-11859 11858 11843 0
-11859 -11858 -11843 0
11859 -11858 11843 0
11859 11858 -11843 0
-11859 0
-11860 11678 0
-11860 38 0
11860 -11678 -38 0
-11861 11680 0
-11861 38 0
11861 -11680 -38 0
-11862 11682 0
-11862 43 0
11862 -11682 -43 0
-11863 11684 0
-11863 38 0
11863 -11684 -38 0
-11864 11686 0
-11864 38 0
11864 -11686 -38 0
-11865 11688 0
-11865 43 0
11865 -11688 -43 0
-11866 11690 0
-11866 86 0
11866 -11690 -86 0
-11867 11692 0
-11867 86 0
11867 -11692 -86 0
-11868 11694 0
-11868 91 0
11868 -11694 -91 0
-11869 11696 0
-11869 86 0
11869 -11696 -86 0
-11870 11698 0
-11870 86 0
11870 -11698 -86 0
-11871 11700 0
-11871 91 0
11871 -11700 -91 0
-11872 11702 0
-11872 134 0
11872 -11702 -134 0
-11873 11704 0
-11873 144 0
11873 -11704 -144 0
-11874 11706 0
-11874 134 0
11874 -11706 -134 0
-11875 11708 0
-11875 144 0
11875 -11708 -144 0
-11876 11710 0
-11876 182 0
11876 -11710 -182 0
-11877 11860 11861 0
-11877 -11860 -11861 0
11877 -11860 11861 0
11877 11860 -11861 0
-11878 11877 11862 0
-11878 -11877 -11862 0
11878 -11877 11862 0
11878 11877 -11862 0
-11879 11878 11863 0
-11879 -11878 -11863 0
11879 -11878 11863 0
11879 11878 -11863 0
-11880 11879 11864 0
-11880 -11879 -11864 0
11880 -11879 11864 0
11880 11879 -11864 0
-11881 11880 11865 0
-11881 -11880 -11865 0
11881 -11880 11865 0
11881 11880 -11865 0
-11882 11881 11866 0
-11882 -11881 -11866 0
11882 -11881 11866 0
11882 11881 -11866 0
-11883 11882 11867 0
-11883 -11882 -11867 0
11883 -11882 11867 0
11883 11882 -11867 0
-11884 11883 11868 0
-11884 -11883 -11868 0
11884 -11883 11868 0
11884 11883 -11868 0
-11885 11884 11869 0
-11885 -11884 -11869 0
11885 -11884 11869 0
11885 11884 -11869 0
-11886 11885 11870 0
-11886 -11885 -11870 0
11886 -11885 11870 0
11886 11885 -11870 0
-11887 11886 11871 0
-11887 -11886 -11871 0
11887 -11886 11871 0
11887 11886 -11871 0
-11888 11887 11872 0
-11888 -11887 -11872 0
11888 -11887 11872 0
11888 11887 -11872 0
-11889 11888 11873 0
-11889 -11888 -11873 0
11889 -11888 11873 0
11889 11888 -11873 0
-11890 11889 11874 0
-11890 -11889 -11874 0
11890 -11889 11874 0
11890 11889 -11874 0
-11891 11890 11875 0
-11891 -11890 -11875 0
11891 -11890 11875 0
11891 11890 -11875 0
-11892 11891 11876 0
-11892 -11891 -11876 0
11892 -11891 11876 0
11892 11891 -11876 0
-11892 0
-11893 11678 0
-11893 39 0
11893 -11678 -39 0
-11894 11680 0
-11894 40 0
11894 -11680 -40 0
-11895 11682 0
-11895 44 0
11895 -11682 -44 0
-11896 11684 0
-11896 42 0
11896 -11684 -42 0
-11897 11686 0
-11897 46 0
11897 -11686 -46 0
-11898 11688 0
-11898 47 0
11898 -11688 -47 0
-11899 11690 0
-11899 87 0
11899 -11690 -87 0
-11900 11692 0
-11900 88 0
11900 -11692 -88 0
-11901 11694 0
-11901 92 0
11901 -11694 -92 0
-11902 11696 0
-11902 90 0
11902 -11696 -90 0
-11903 11698 0
-11903 94 0
11903 -11698 -94 0
-11904 11700 0
-11904 95 0
11904 -11700 -95 0
-11905 11702 0
-11905 135 0
11905 -11702 -135 0
-11906 11704 0
-11906 143 0
11906 -11704 -143 0
-11907 11706 0
-11907 138 0
11907 -11706 -138 0
-11908 11708 0
-11908 140 0
11908 -11708 -140 0
-11909 11710 0
-11909 183 0
11909 -11710 -183 0
-11910 11893 11894 0
-11910 -11893 -11894 0
11910 -11893 11894 0
11910 11893 -11894 0
-11911 11910 11895 0
-11911 -11910 -11895 0
11911 -11910 11895 0
11911 11910 -11895 0
-11912 11911 11896 0
-11912 -11911 -11896 0
11912 -11911 11896 0
11912 11911 -11896 0
-11913 11912 11897 0
-11913 -11912 -11897 0
11913 -11912 11897 0
11913 11912 -11897 0
-11914 11913 11898 0
-11914 -11913 -11898 0
11914 -11913 11898 0
11914 11913 -11898 0
-11915 11914 11899 0
-11915 -11914 -11899 0
11915 -11914 11899 0
11915 11914 -11899 0
-11916 11915 11900 0
-11916 -11915 -11900 0
11916 -11915 11900 0
11916 11915 -11900 0
-11917 11916 11901 0
-11917 -11916 -11901 0
11917 -11916 11901 0
11917 11916 -11901 0
-11918 11917 11902 0
-11918 -11917 -11902 0
11918 -11917 11902 0
11918 11917 -11902 0
-11919 11918 11903 0
-11919 -11918 -11903 0
11919 -11918 11903 0
11919 11918 -11903 0
-11920 11919 11904 0
-11920 -11919 -11904 0
11920 -11919 11904 0
11920 11919 -11904 0
-11921 11920 11905 0
-11921 -11920 -11905 0
11921 -11920 11905 0
11921 11920 -11905 0
-11922 11921 11906 0
-11922 -11921 -11906 0
11922 -11921 11906 0
11922 11921 -11906 0
-11923 11922 11907 0
-11923 -11922 -11907 0
11923 -11922 11907 0
11923 11922 -11907 0
-11924 11923 11908 0
-11924 -11923 -11908 0
11924 -11923 11908 0
11924 11923 -11908 0
-11925 11924 11909 0
-11925 -11924 -11909 0
11925 -11924 11909 0
11925 11924 -11909 0
-11925 0
-11926 11678 0
-11926 40 0
11926 -11678 -40 0
-11927 11680 0
-11927 39 0
11927 -11680 -39 0
-11928 11682 0
-11928 42 0
11928 -11682 -42 0
-11929 11684 0
-11929 46 0
11929 -11684 -46 0
-11930 11686 0
-11930 42 0
11930 -11686 -42 0
-11931 11688 0
-11931 39 0
11931 -11688 -39 0
-11932 11690 0
-11932 88 0
11932 -11690 -88 0
-11933 11692 0
-11933 87 0
11933 -11692 -87 0
-11934 11694 0
-11934 90 0
11934 -11694 -90 0
-11935 11696 0
-11935 94 0
11935 -11696 -94 0
-11936 11698 0
-11936 90 0
11936 -11698 -90 0
-11937 11700 0
-11937 87 0
11937 -11700 -87 0
-11938 11702 0
-11938 136 0
11938 -11702 -136 0
-11939 11704 0
-11939 142 0
11939 -11704 -142 0
-11940 11706 0
-11940 142 0
11940 -11706 -142 0
-11941 11708 0
-11941 136 0
11941 -11708 -136 0
-11942 11710 0
-11942 184 0
11942 -11710 -184 0
-11943 11926 11927 0
-11943 -11926 -11927 0
11943 -11926 11927 0
11943 11926 -11927 0
-11944 11943 11928 0
-11944 -11943 -11928 0
11944 -11943 11928 0
11944 11943 -11928 0
-11945 11944 11929 0
-11945 -11944 -11929 0
11945 -11944 11929 0
11945 11944 -11929 0
-11946 11945 11930 0
-11946 -11945 -11930 0
11946 -11945 11930 0
11946 11945 -11930 0
-11947 11946 11931 0
-11947 -11946 -11931 0
11947 -11946 11931 0
11947 11946 -11931 0
-11948 11947 11932 0
-11948 -11947 -11932 0
11948 -11947 11932 0
11948 11947 -11932 0
-11949 11948 11933 0
-11949 -11948 -11933 0
11949 -11948 11933 0
11949 11948 -11933 0
-11950 11949 11934 0
-11950 -11949 -11934 0
11950 -11949 11934 0
11950 11949 -11934 0
-11951 11950 11935 0
-11951 -11950 -11935 0
11951 -11950 11935 0
11951 11950 -11935 0
-11952 11951 11936 0
-11952 -11951 -11936 0
11952 -11951 11936 0
11952 11951 -11936 0
-11953 11952 11937 0
-11953 -11952 -11937 0
11953 -11952 11937 0
11953 11952 -11937 0
-11954 11953 11938 0
-11954 -11953 -11938 0
11954 -11953 11938 0
11954 11953 -11938 0
-11955 11954 11939 0
-11955 -11954 -11939 0
11955 -11954 11939 0
11955 11954 -11939 0
-11956 11955 11940 0
-11956 -11955 -11940 0
11956 -11955 11940 0
11956 11955 -11940 0
-11957 11956 11941 0
-11957 -11956 -11941 0
11957 -11956 11941 0
11957 11956 -11941 0
-11958 11957 11942 0
-11958 -11957 -11942 0
11958 -11957 11942 0
11958 11957 -11942 0
-11958 0
-11959 11678 0
-11959 41 0
11959 -11678 -41 0
-11960 11680 0
-11960 45 0
11960 -11680 -45 0
-11961 11682 0
-11961 45 0
11961 -11682 -45 0
-11962 11684 0
-11962 35 0
11962 -11684 -35 0
-11963 11686 0
-11963 36 0
11963 -11686 -36 0
-11964 11688 0
-11964 36 0
11964 -11688 -36 0
-11965 11690 0
-11965 89 0
11965 -11690 -89 0
-11966 11692 0
-11966 93 0
11966 -11692 -93 0
-11967 11694 0
-11967 93 0
11967 -11694 -93 0
-11968 11696 0
-11968 83 0
11968 -11696 -83 0
-11969 11698 0
-11969 84 0
11969 -11698 -84 0
-11970 11700 0
-11970 84 0
11970 -11700 -84 0
-11971 11702 0
-11971 137 0
11971 -11702 -137 0
-11972 11704 0
-11972 137 0
11972 -11704 -137 0
-11973 11706 0
-11973 131 0
11973 -11706 -131 0
-11974 11708 0
-11974 131 0
11974 -11708 -131 0
-11975 11710 0
-11975 185 0
11975 -11710 -185 0
-11976 11959 11960 0
-11976 -11959 -11960 0
11976 -11959 11960 0
11976 11959 -11960 0
-11977 11976 11961 0
-11977 -11976 -11961 0
11977 -11976 11961 0
11977 11976 -11961 0
-11978 11977 11962 0
-11978 -11977 -11962 0
11978 -11977 11962 0
11978 11977 -11962 0
-11979 11978 11963 0
-11979 -11978 -11963 0
11979 -11978 11963 0
11979 11978 -11963 0
-11980 11979 11964 0
-11980 -11979 -11964 0
11980 -11979 11964 0
11980 11979 -11964 0
-11981 11980 11965 0
-11981 -11980 -11965 0
11981 -11980 11965 0
11981 11980 -11965 0
-11982 11981 11966 0
-11982 -11981 -11966 0
11982 -11981 11966 0
11982 11981 -11966 0
-11983 11982 11967 0
-11983 -11982 -11967 0
11983 -11982 11967 0
11983 11982 -11967 0
-11984 11983 11968 0
-11984 -11983 -11968 0
11984 -11983 11968 0
11984 11983 -11968 0
-11985 11984 11969 0
-11985 -11984 -11969 0
11985 -11984 11969 0
11985 11984 -11969 0
-11986 11985 11970 0
-11986 -11985 -11970 0
11986 -11985 11970 0
11986 11985 -11970 0
-11987 11986 11971 0
-11987 -11986 -11971 0
11987 -11986 11971 0
11987 11986 -11971 0
-11988 11987 11972 0
-11988 -11987 -11972 0
11988 -11987 11972 0
11988 11987 -11972 0
-11989 11988 11973 0
-11989 -11988 -11973 0
11989 -11988 11973 0
11989 11988 -11973 0
-11990 11989 11974 0
-11990 -11989 -11974 0
11990 -11989 11974 0
11990 11989 -11974 0
-11991 11990 11975 0
-11991 -11990 -11975 0
11991 -11990 11975 0
11991 11990 -11975 0
-11991 0
-11992 11678 0
-11992 42 0
11992 -11678 -42 0
-11993 11680 0
-11993 46 0
11993 -11680 -46 0
-11994 11682 0
-11994 47 0
11994 -11682 -47 0
-11995 11684 0
-11995 39 0
11995 -11684 -39 0
-11996 11686 0
-11996 40 0
11996 -11686 -40 0
-11997 11688 0
-11997 44 0
11997 -11688 -44 0
-11998 11690 0
-11998 90 0
11998 -11690 -90 0
-11999 11692 0
-11999 94 0
11999 -11692 -94 0
-12000 11694 0
-12000 95 0
12000 -11694 -95 0
-12001 11696 0
-12001 87 0
12001 -11696 -87 0
-12002 11698 0
-12002 88 0
12002 -11698 -88 0
-12003 11700 0
-12003 92 0
12003 -11700 -92 0
-12004 11702 0
-12004 138 0
12004 -11702 -138 0
-12005 11704 0
-12005 140 0
12005 -11704 -140 0
-12006 11706 0
-12006 135 0
12006 -11706 -135 0
-12007 11708 0
-12007 143 0
12007 -11708 -143 0
-12008 11710 0
-12008 186 0
12008 -11710 -186 0
-12009 11992 11993 0
-12009 -11992 -11993 0
12009 -11992 11993 0
12009 11992 -11993 0
-12010 12009 11994 0
-12010 -12009 -11994 0
12010 -12009 11994 0
12010 12009 -11994 0
-12011 12010 11995 0
-12011 -12010 -11995 0
12011 -12010 11995 0
12011 12010 -11995 0
-12012 12011 11996 0
-12012 -12011 -11996 0
12012 -12011 11996 0
12012 12011 -11996 0
-12013 12012 11997 0
-12013 -12012 -11997 0
12013 -12012 11997 0
12013 12012 -11997 0
-12014 12013 11998 0
-12014 -12013 -11998 0
12014 -12013 11998 0
12014 12013 -11998 0
-12015 12014 11999 0
-12015 -12014 -11999 0
12015 -12014 11999 0
12015 12014 -11999 0
-12016 12015 12000 0
-12016 -12015 -12000 0
12016 -12015 12000 0
12016 12015 -12000 0
-12017 12016 12001 0
-12017 -12016 -12001 0
12017 -12016 12001 0
12017 12016 -12001 0
-12018 12017 12002 0
-12018 -12017 -12002 0
12018 -12017 12002 0
12018 12017 -12002 0
-12019 12018 12003 0
-12019 -12018 -12003 0
12019 -12018 12003 0
12019 12018 -12003 0
-12020 12019 12004 0
-12020 -12019 -12004 0
12020 -12019 12004 0
12020 12019 -12004 0
-12021 12020 12005 0
-12021 -12020 -12005 0
12021 -12020 12005 0
12021 12020 -12005 0
-12022 12021 12006 0
-12022 -12021 -12006 0
12022 -12021 12006 0
12022 12021 -12006 0
-12023 12022 12007 0
-12023 -12022 -12007 0
12023 -12022 12007 0
12023 12022 -12007 0
-12024 12023 12008 0
-12024 -12023 -12008 0
12024 -12023 12008 0
12024 12023 -12008 0
-12024 0
-12025 11678 0
-12025 43 0
12025 -11678 -43 0
-12026 11680 0
-12026 48 0
12026 -11680 -48 0
-12027 11682 0
-12027 48 0
12027 -11682 -48 0
-12028 11684 0
-12028 43 0
12028 -11684 -43 0
-12029 11686 0
-12029 48 0
12029 -11686 -48 0
-12030 11688 0
-12030 48 0
12030 -11688 -48 0
-12031 11690 0
-12031 91 0
12031 -11690 -91 0
-12032 11692 0
-12032 96 0
12032 -11692 -96 0
-12033 11694 0
-12033 96 0
12033 -11694 -96 0
-12034 11696 0
-12034 91 0
12034 -11696 -91 0
-12035 11698 0
-12035 96 0
12035 -11698 -96 0
-12036 11700 0
-12036 96 0
12036 -11700 -96 0
-12037 11702 0
-12037 139 0
12037 -11702 -139 0
-12038 11704 0
-12038 139 0
12038 -11704 -139 0
-12039 11706 0
-12039 139 0
12039 -11706 -139 0
-12040 11708 0
-12040 139 0
12040 -11708 -139 0
-12041 11710 0
-12041 187 0
12041 -11710 -187 0
-12042 12025 12026 0
-12042 -12025 -12026 0
12042 -12025 12026 0
12042 12025 -12026 0
-12043 12042 12027 0
-12043 -12042 -12027 0
12043 -12042 12027 0
12043 12042 -12027 0
-12044 12043 12028 0
-12044 -12043 -12028 0
12044 -12043 12028 0
12044 12043 -12028 0
-12045 12044 12029 0
-12045 -12044 -12029 0
12045 -12044 12029 0
12045 12044 -12029 0
-12046 12045 12030 0
-12046 -12045 -12030 0
12046 -12045 12030 0
12046 12045 -12030 0
-12047 12046 12031 0
-12047 -12046 -12031 0
12047 -12046 12031 0
12047 12046 -12031 0
-12048 12047 12032 0
-12048 -12047 -12032 0
12048 -12047 12032 0
12048 12047 -12032 0
-12049 12048 12033 0
-12049 -12048 -12033 0
12049 -12048 12033 0
12049 12048 -12033 0
-12050 12049 12034 0
-12050 -12049 -12034 0
12050 -12049 12034 0
12050 12049 -12034 0
-12051 12050 12035 0
-12051 -12050 -12035 0
12051 -12050 12035 0
12051 12050 -12035 0
-12052 12051 12036 0
-12052 -12051 -12036 0
12052 -12051 12036 0
12052 12051 -12036 0
-12053 12052 12037 0
-12053 -12052 -12037 0
12053 -12052 12037 0
12053 12052 -12037 0
-12054 12053 12038 0
-12054 -12053 -12038 0
12054 -12053 12038 0
12054 12053 -12038 0
-12055 12054 12039 0
-12055 -12054 -12039 0
12055 -12054 12039 0
12055 12054 -12039 0
-12056 12055 12040 0
-12056 -12055 -12040 0
12056 -12055 12040 0
12056 12055 -12040 0
-12057 12056 12041 0
-12057 -12056 -12041 0
12057 -12056 12041 0
12057 12056 -12041 0
-12057 0
-12058 11678 0
-12058 44 0
12058 -11678 -44 0
-12059 11680 0
-12059 47 0
12059 -11680 -47 0
-12060 11682 0
-12060 46 0
12060 -11682 -46 0
-12061 11684 0
-12061 47 0
12061 -11684 -47 0
-12062 11686 0
-12062 44 0
12062 -11686 -44 0
-12063 11688 0
-12063 40 0
12063 -11688 -40 0
-12064 11690 0
-12064 92 0
12064 -11690 -92 0
-12065 11692 0
-12065 95 0
12065 -11692 -95 0
-12066 11694 0
-12066 94 0
12066 -11694 -94 0
-12067 11696 0
-12067 95 0
12067 -11696 -95 0
-12068 11698 0
-12068 92 0
12068 -11698 -92 0
-12069 11700 0
-12069 88 0
12069 -11700 -88 0
-12070 11702 0
-12070 140 0
12070 -11702 -140 0
-12071 11704 0
-12071 138 0
12071 -11704 -138 0
-12072 11706 0
-12072 143 0
12072 -11706 -143 0
-12073 11708 0
-12073 135 0
12073 -11708 -135 0
-12074 11710 0
-12074 188 0
12074 -11710 -188 0
-12075 12058 12059 0
-12075 -12058 -12059 0
12075 -12058 12059 0
12075 12058 -12059 0
-12076 12075 12060 0
-12076 -12075 -12060 0
12076 -12075 12060 0
12076 12075 -12060 0
-12077 12076 12061 0
-12077 -12076 -12061 0
12077 -12076 12061 0
12077 12076 -12061 0
-12078 12077 12062 0
-12078 -12077 -12062 0
12078 -12077 12062 0
12078 12077 -12062 0
-12079 12078 12063 0
-12079 -12078 -12063 0
12079 -12078 12063 0
12079 12078 -12063 0
-12080 12079 12064 0
-12080 -12079 -12064 0
12080 -12079 12064 0
12080 12079 -12064 0
-12081 12080 12065 0
-12081 -12080 -12065 0
12081 -12080 12065 0
12081 12080 -12065 0
-12082 12081 12066 0
-12082 -12081 -12066 0
12082 -12081 12066 0
12082 12081 -12066 0
-12083 12082 12067 0
-12083 -12082 -12067 0
12083 -12082 12067 0
12083 12082 -12067 0
-12084 12083 12068 0
-12084 -12083 -12068 0
12084 -12083 12068 0
12084 12083 -12068 0
-12085 12084 12069 0
-12085 -12084 -12069 0
12085 -12084 12069 0
12085 12084 -12069 0
-12086 12085 12070 0
-12086 -12085 -12070 0
12086 -12085 12070 0
12086 12085 -12070 0
-12087 12086 12071 0
-12087 -12086 -12071 0
12087 -12086 12071 0
12087 12086 -12071 0
-12088 12087 12072 0
-12088 -12087 -12072 0
12088 -12087 12072 0
12088 12087 -12072 0
-12089 12088 12073 0
-12089 -12088 -12073 0
12089 -12088 12073 0
12089 12088 -12073 0
-12090 12089 12074 0
-12090 -12089 -12074 0
12090 -12089 12074 0
12090 12089 -12074 0
-12090 0
-12091 11678 0
-12091 45 0
12091 -11678 -45 0
-12092 11680 0
-12092 41 0
12092 -11680 -41 0
-12093 11682 0
-12093 37 0
12093 -11682 -37 0
-12094 11684 0
-12094 36 0
12094 -11684 -36 0
-12095 11686 0
-12095 35 0
12095 -11686 -35 0
-12096 11688 0
-12096 34 0
12096 -11688 -34 0
-12097 11690 0
-12097 93 0
12097 -11690 -93 0
-12098 11692 0
-12098 89 0
12098 -11692 -89 0
-12099 11694 0
-12099 85 0
12099 -11694 -85 0
-12100 11696 0
-12100 84 0
12100 -11696 -84 0
-12101 11698 0
-12101 83 0
12101 -11698 -83 0
-12102 11700 0
-12102 82 0
12102 -11700 -82 0
-12103 11702 0
-12103 141 0
12103 -11702 -141 0
-12104 11704 0
-12104 133 0
12104 -11704 -133 0
-12105 11706 0
-12105 132 0
12105 -11706 -132 0
-12106 11708 0
-12106 130 0
12106 -11708 -130 0
-12107 11710 0
-12107 189 0
12107 -11710 -189 0
-12108 12091 12092 0
-12108 -12091 -12092 0
12108 -12091 12092 0
12108 12091 -12092 0
-12109 12108 12093 0
-12109 -12108 -12093 0
12109 -12108 12093 0
12109 12108 -12093 0
-12110 12109 12094 0
-12110 -12109 -12094 0
12110 -12109 12094 0
12110 12109 -12094 0
-12111 12110 12095 0
-12111 -12110 -12095 0
12111 -12110 12095 0
12111 12110 -12095 0
-12112 12111 12096 0
-12112 -12111 -12096 0
12112 -12111 12096 0
12112 12111 -12096 0
-12113 12112 12097 0
-12113 -12112 -12097 0
12113 -12112 12097 0
12113 12112 -12097 0
-12114 12113 12098 0
-12114 -12113 -12098 0
12114 -12113 12098 0
12114 12113 -12098 0
-12115 12114 12099 0
-12115 -12114 -12099 0
12115 -12114 12099 0
12115 12114 -12099 0
-12116 12115 12100 0
-12116 -12115 -12100 0
12116 -12115 12100 0
12116 12115 -12100 0
-12117 12116 12101 0
-12117 -12116 -12101 0
12117 -12116 12101 0
12117 12116 -12101 0
-12118 12117 12102 0
-12118 -12117 -12102 0
12118 -12117 12102 0
12118 12117 -12102 0
-12119 12118 12103 0
-12119 -12118 -12103 0
12119 -12118 12103 0
12119 12118 -12103 0
-12120 12119 12104 0
-12120 -12119 -12104 0
12120 -12119 12104 0
12120 12119 -12104 0
-12121 12120 12105 0
-12121 -12120 -12105 0
12121 -12120 12105 0
12121 12120 -12105 0
-12122 12121 12106 0
-12122 -12121 -12106 0
12122 -12121 12106 0
12122 12121 -12106 0
-12123 12122 12107 0
-12123 -12122 -12107 0
12123 -12122 12107 0
12123 12122 -12107 0
-12123 0
-12124 11678 0
-12124 46 0
12124 -11678 -46 0
-12125 11680 0
-12125 42 0
12125 -11680 -42 0
-12126 11682 0
-12126 39 0
12126 -11682 -39 0
-12127 11684 0
-12127 40 0
12127 -11684 -40 0
-12128 11686 0
-12128 39 0
12128 -11686 -39 0
-12129 11688 0
-12129 42 0
12129 -11688 -42 0
-12130 11690 0
-12130 94 0
12130 -11690 -94 0
-12131 11692 0
-12131 90 0
12131 -11692 -90 0
-12132 11694 0
-12132 87 0
12132 -11694 -87 0
-12133 11696 0
-12133 88 0
12133 -11696 -88 0
-12134 11698 0
-12134 87 0
12134 -11698 -87 0
-12135 11700 0
-12135 90 0
12135 -11700 -90 0
-12136 11702 0
-12136 142 0
12136 -11702 -142 0
-12137 11704 0
-12137 136 0
12137 -11704 -136 0
-12138 11706 0
-12138 136 0
12138 -11706 -136 0
-12139 11708 0
-12139 142 0
12139 -11708 -142 0
-12140 11710 0
-12140 190 0
12140 -11710 -190 0
-12141 12124 12125 0
-12141 -12124 -12125 0
12141 -12124 12125 0
12141 12124 -12125 0
-12142 12141 12126 0
-12142 -12141 -12126 0
12142 -12141 12126 0
12142 12141 -12126 0
-12143 12142 12127 0
-12143 -12142 -12127 0
12143 -12142 12127 0
12143 12142 -12127 0
-12144 12143 12128 0
-12144 -12143 -12128 0
12144 -12143 12128 0
12144 12143 -12128 0
-12145 12144 12129 0
-12145 -12144 -12129 0
12145 -12144 12129 0
12145 12144 -12129 0
-12146 12145 12130 0
-12146 -12145 -12130 0
12146 -12145 12130 0
12146 12145 -12130 0
-12147 12146 12131 0
-12147 -12146 -12131 0
12147 -12146 12131 0
12147 12146 -12131 0
-12148 12147 12132 0
-12148 -12147 -12132 0
12148 -12147 12132 0
12148 12147 -12132 0
-12149 12148 12133 0
-12149 -12148 -12133 0
12149 -12148 12133 0
12149 12148 -12133 0
-12150 12149 12134 0
-12150 -12149 -12134 0
12150 -12149 12134 0
12150 12149 -12134 0
-12151 12150 12135 0
-12151 -12150 -12135 0
12151 -12150 12135 0
12151 12150 -12135 0
-12152 12151 12136 0
-12152 -12151 -12136 0
12152 -12151 12136 0
12152 12151 -12136 0
-12153 12152 12137 0
-12153 -12152 -12137 0
12153 -12152 12137 0
12153 12152 -12137 0
-12154 12153 12138 0
-12154 -12153 -12138 0
12154 -12153 12138 0
12154 12153 -12138 0
-12155 12154 12139 0
-12155 -12154 -12139 0
12155 -12154 12139 0
12155 12154 -12139 0
-12156 12155 12140 0
-12156 -12155 -12140 0
12156 -12155 12140 0
12156 12155 -12140 0
-12156 0
-12157 11678 0
-12157 47 0
12157 -11678 -47 0
-12158 11680 0
-12158 44 0
12158 -11680 -44 0
-12159 11682 0
-12159 40 0
12159 -11682 -40 0
-12160 11684 0
-12160 44 0
12160 -11684 -44 0
-12161 11686 0
-12161 47 0
12161 -11686 -47 0
-12162 11688 0
-12162 46 0
12162 -11688 -46 0
-12163 11690 0
-12163 95 0
12163 -11690 -95 0
-12164 11692 0
-12164 92 0
12164 -11692 -92 0
-12165 11694 0
-12165 88 0
12165 -11694 -88 0
-12166 11696 0
-12166 92 0
12166 -11696 -92 0
-12167 11698 0
-12167 95 0
12167 -11698 -95 0
-12168 11700 0
-12168 94 0
12168 -11700 -94 0
-12169 11702 0
-12169 143 0
12169 -11702 -143 0
-12170 11704 0
-12170 135 0
12170 -11704 -135 0
-12171 11706 0
-12171 140 0
12171 -11706 -140 0
-12172 11708 0
-12172 138 0
12172 -11708 -138 0
-12173 11710 0
-12173 191 0
12173 -11710 -191 0
-12174 12157 12158 0
-12174 -12157 -12158 0
12174 -12157 12158 0
12174 12157 -12158 0
-12175 12174 12159 0
-12175 -12174 -12159 0
12175 -12174 12159 0
12175 12174 -12159 0
-12176 12175 12160 0
-12176 -12175 -12160 0
12176 -12175 12160 0
12176 12175 -12160 0
-12177 12176 12161 0
-12177 -12176 -12161 0
12177 -12176 12161 0
12177 12176 -12161 0
-12178 12177 12162 0
-12178 -12177 -12162 0
12178 -12177 12162 0
12178 12177 -12162 0
-12179 12178 12163 0
-12179 -12178 -12163 0
12179 -12178 12163 0
12179 12178 -12163 0
-12180 12179 12164 0
-12180 -12179 -12164 0
12180 -12179 12164 0
12180 12179 -12164 0
-12181 12180 12165 0
-12181 -12180 -12165 0
12181 -12180 12165 0
12181 12180 -12165 0
-12182 12181 12166 0
-12182 -12181 -12166 0
12182 -12181 12166 0
12182 12181 -12166 0
-12183 12182 12167 0
-12183 -12182 -12167 0
12183 -12182 12167 0
12183 12182 -12167 0
-12184 12183 12168 0
-12184 -12183 -12168 0
12184 -12183 12168 0
12184 12183 -12168 0
-12185 12184 12169 0
-12185 -12184 -12169 0
12185 -12184 12169 0
12185 12184 -12169 0
-12186 12185 12170 0
-12186 -12185 -12170 0
12186 -12185 12170 0
12186 12185 -12170 0
-12187 12186 12171 0
-12187 -12186 -12171 0
12187 -12186 12171 0
12187 12186 -12171 0
-12188 12187 12172 0
-12188 -12187 -12172 0
12188 -12187 12172 0
12188 12187 -12172 0
-12189 12188 12173 0
-12189 -12188 -12173 0
12189 -12188 12173 0
12189 12188 -12173 0
-12189 0
-12190 11678 0
-12190 48 0
12190 -11678 -48 0
-12191 11680 0
-12191 43 0
12191 -11680 -43 0
-12192 11682 0
-12192 38 0
12192 -11682 -38 0
-12193 11684 0
-12193 48 0
12193 -11684 -48 0
-12194 11686 0
-12194 43 0
12194 -11686 -43 0
-12195 11688 0
-12195 38 0
12195 -11688 -38 0
-12196 11690 0
-12196 96 0
12196 -11690 -96 0
-12197 11692 0
-12197 91 0
12197 -11692 -91 0
-12198 11694 0
-12198 86 0
12198 -11694 -86 0
-12199 11696 0
-12199 96 0
12199 -11696 -96 0
-12200 11698 0
-12200 91 0
12200 -11698 -91 0
-12201 11700 0
-12201 86 0
12201 -11700 -86 0
-12202 11702 0
-12202 144 0
12202 -11702 -144 0
-12203 11704 0
-12203 134 0
12203 -11704 -134 0
-12204 11706 0
-12204 144 0
12204 -11706 -144 0
-12205 11708 0
-12205 134 0
12205 -11708 -134 0
-12206 11710 0
-12206 192 0
12206 -11710 -192 0
-12207 12190 12191 0
-12207 -12190 -12191 0
12207 -12190 12191 0
12207 12190 -12191 0
-12208 12207 12192 0
-12208 -12207 -12192 0
12208 -12207 12192 0
12208 12207 -12192 0
-12209 12208 12193 0
-12209 -12208 -12193 0
12209 -12208 12193 0
12209 12208 -12193 0
-12210 12209 12194 0
-12210 -12209 -12194 0
12210 -12209 12194 0
12210 12209 -12194 0
-12211 12210 12195 0
-12211 -12210 -12195 0
12211 -12210 12195 0
12211 12210 -12195 0
-12212 12211 12196 0
-12212 -12211 -12196 0
12212 -12211 12196 0
12212 12211 -12196 0
-12213 12212 12197 0
-12213 -12212 -12197 0
12213 -12212 12197 0
12213 12212 -12197 0
-12214 12213 12198 0
-12214 -12213 -12198 0
12214 -12213 12198 0
12214 12213 -12198 0
-12215 12214 12199 0
-12215 -12214 -12199 0
12215 -12214 12199 0
12215 12214 -12199 0
-12216 12215 12200 0
-12216 -12215 -12200 0
12216 -12215 12200 0
12216 12215 -12200 0
-12217 12216 12201 0
-12217 -12216 -12201 0
12217 -12216 12201 0
12217 12216 -12201 0
-12218 12217 12202 0
-12218 -12217 -12202 0
12218 -12217 12202 0
12218 12217 -12202 0
-12219 12218 12203 0
-12219 -12218 -12203 0
12219 -12218 12203 0
12219 12218 -12203 0
-12220 12219 12204 0
-12220 -12219 -12204 0
12220 -12219 12204 0
12220 12219 -12204 0
-12221 12220 12205 0
-12221 -12220 -12205 0
12221 -12220 12205 0
12221 12220 -12205 0
-12222 12221 12206 0
-12222 -12221 -12206 0
12222 -12221 12206 0
12222 12221 -12206 0
-12222 0
-12223 8 0
-12223 30 0
12223 -8 -30 0
-12224 12223 0
-12224 33 0
12224 -12223 -33 0
-12225 12 0
-12225 31 0
12225 -12 -31 0
-12226 12225 0
-12226 33 0
12226 -12225 -33 0
-12227 56 0
-12227 78 0
12227 -56 -78 0
-12228 12227 0
-12228 81 0
12228 -12227 -81 0
-12229 60 0
-12229 79 0
12229 -60 -79 0
-12230 12229 0
-12230 81 0
12230 -12229 -81 0
-12231 104 0
-12231 126 0
12231 -104 -126 0
-12232 12231 0
-12232 129 0
12232 -12231 -129 0
-12233 112 0
-12233 128 0
12233 -112 -128 0
-12234 12233 0
-12234 129 0
12234 -12233 -129 0
-12235 152 0
-12235 174 0
12235 -152 -174 0
-12236 12235 0
-12236 177 0
12236 -12235 -177 0
-12237 12224 12224 0
-12237 -12224 -12224 0
12237 -12224 12224 0
12237 12224 -12224 0
-12238 12237 12226 0
-12238 -12237 -12226 0
12238 -12237 12226 0
12238 12237 -12226 0
-12239 12238 12224 0
-12239 -12238 -12224 0
12239 -12238 12224 0
12239 12238 -12224 0
-12240 12239 12224 0
-12240 -12239 -12224 0
12240 -12239 12224 0
12240 12239 -12224 0
-12241 12240 12226 0
-12241 -12240 -12226 0
12241 -12240 12226 0
12241 12240 -12226 0
-12242 12241 12228 0
-12242 -12241 -12228 0
12242 -12241 12228 0
12242 12241 -12228 0
-12243 12242 12228 0
-12243 -12242 -12228 0
12243 -12242 12228 0
12243 12242 -12228 0
-12244 12243 12230 0
-12244 -12243 -12230 0
12244 -12243 12230 0
12244 12243 -12230 0
-12245 12244 12228 0
-12245 -12244 -12228 0
12245 -12244 12228 0
12245 12244 -12228 0
-12246 12245 12228 0
-12246 -12245 -12228 0
12246 -12245 12228 0
12246 12245 -12228 0
-12247 12246 12230 0
-12247 -12246 -12230 0
12247 -12246 12230 0
12247 12246 -12230 0
-12248 12247 12232 0
-12248 -12247 -12232 0
12248 -12247 12232 0
12248 12247 -12232 0
-12249 12248 12234 0
-12249 -12248 -12234 0
12249 -12248 12234 0
12249 12248 -12234 0
-12250 12249 12232 0
-12250 -12249 -12232 0
12250 -12249 12232 0
12250 12249 -12232 0
-12251 12250 12234 0
-12251 -12250 -12234 0
12251 -12250 12234 0
12251 12250 -12234 0
-12252 12251 12236 0
-12252 -12251 -12236 0
12252 -12251 12236 0
12252 12251 -12236 0
-12252 0
-12253 12223 0
-12253 34 0
12253 -12223 -34 0
-12254 12225 0
-12254 35 0
12254 -12225 -35 0
-12255 12223 0
-12255 37 0
12255 -12223 -37 0
-12256 12225 0
-12256 41 0
12256 -12225 -41 0
-12257 12227 0
-12257 82 0
12257 -12227 -82 0
-12258 12229 0
-12258 83 0
12258 -12229 -83 0
-12259 12227 0
-12259 85 0
12259 -12227 -85 0
-12260 12229 0
-12260 89 0
12260 -12229 -89 0
-12261 12231 0
-12261 130 0
12261 -12231 -130 0
-12262 12233 0
-12262 132 0
12262 -12233 -132 0
-12263 12231 0
-12263 133 0
12263 -12231 -133 0
-12264 12233 0
-12264 141 0
12264 -12233 -141 0
-12265 12235 0
-12265 178 0
12265 -12235 -178 0
-12266 12253 12253 0
-12266 -12253 -12253 0
12266 -12253 12253 0
12266 12253 -12253 0
-12267 12266 12254 0
-12267 -12266 -12254 0
12267 -12266 12254 0
12267 12266 -12254 0
-12268 12267 12255 0
-12268 -12267 -12255 0
12268 -12267 12255 0
12268 12267 -12255 0
-12269 12268 12255 0
-12269 -12268 -12255 0
12269 -12268 12255 0
12269 12268 -12255 0
-12270 12269 12256 0
-12270 -12269 -12256 0
12270 -12269 12256 0
12270 12269 -12256 0
-12271 12270 12257 0
-12271 -12270 -12257 0
12271 -12270 12257 0
12271 12270 -12257 0
-12272 12271 12257 0
-12272 -12271 -12257 0
12272 -12271 12257 0
12272 12271 -12257 0
-12273 12272 12258 0
-12273 -12272 -12258 0
12273 -12272 12258 0
12273 12272 -12258 0
-12274 12273 12259 0
-12274 -12273 -12259 0
12274 -12273 12259 0
12274 12273 -12259 0
-12275 12274 12259 0
-12275 -12274 -12259 0
12275 -12274 12259 0
12275 12274 -12259 0
-12276 12275 12260 0
-12276 -12275 -12260 0
12276 -12275 12260 0
12276 12275 -12260 0
-12277 12276 12261 0
-12277 -12276 -12261 0
12277 -12276 12261 0
12277 12276 -12261 0
-12278 12277 12262 0
-12278 -12277 -12262 0
12278 -12277 12262 0
12278 12277 -12262 0
-12279 12278 12263 0
-12279 -12278 -12263 0
12279 -12278 12263 0
12279 12278 -12263 0
-12280 12279 12264 0
-12280 -12279 -12264 0
12280 -12279 12264 0
12280 12279 -12264 0
-12281 12280 12265 0
-12281 -12280 -12265 0
12281 -12280 12265 0
12281 12280 -12265 0
-12281 0
-12282 12223 0
-12282 35 0
12282 -12223 -35 0
-12283 12223 0
-12283 36 0
12283 -12223 -36 0
-12284 12225 0
-12284 36 0
12284 -12225 -36 0
-12285 12223 0
-12285 41 0
12285 -12223 -41 0
-12286 12223 0
-12286 45 0
12286 -12223 -45 0
-12287 12225 0
-12287 45 0
12287 -12225 -45 0
-12288 12227 0
-12288 83 0
12288 -12227 -83 0
-12289 12227 0
-12289 84 0
12289 -12227 -84 0
-12290 12229 0
-12290 84 0
12290 -12229 -84 0
-12291 12227 0
-12291 89 0
12291 -12227 -89 0
-12292 12227 0
-12292 93 0
12292 -12227 -93 0
-12293 12229 0
-12293 93 0
12293 -12229 -93 0
-12294 12231 0
-12294 131 0
12294 -12231 -131 0
-12295 12233 0
-12295 131 0
12295 -12233 -131 0
-12296 12231 0
-12296 137 0
12296 -12231 -137 0
-12297 12233 0
-12297 137 0
12297 -12233 -137 0
-12298 12235 0
-12298 179 0
12298 -12235 -179 0
-12299 12282 12283 0
-12299 -12282 -12283 0
12299 -12282 12283 0
12299 12282 -12283 0
-12300 12299 12284 0
-12300 -12299 -12284 0
12300 -12299 12284 0
12300 12299 -12284 0
-12301 12300 12285 0
-12301 -12300 -12285 0
12301 -12300 12285 0
12301 12300 -12285 0
-12302 12301 12286 0
-12302 -12301 -12286 0
12302 -12301 12286 0
12302 12301 -12286 0
-12303 12302 12287 0
-12303 -12302 -12287 0
12303 -12302 12287 0
12303 12302 -12287 0
-12304 12303 12288 0
-12304 -12303 -12288 0
12304 -12303 12288 0
12304 12303 -12288 0
-12305 12304 12289 0
-12305 -12304 -12289 0
12305 -12304 12289 0
12305 12304 -12289 0
-12306 12305 12290 0
-12306 -12305 -12290 0
12306 -12305 12290 0
12306 12305 -12290 0
-12307 12306 12291 0
-12307 -12306 -12291 0
12307 -12306 12291 0
12307 12306 -12291 0
-12308 12307 12292 0
-12308 -12307 -12292 0
12308 -12307 12292 0
12308 12307 -12292 0
-12309 12308 12293 0
-12309 -12308 -12293 0
12309 -12308 12293 0
12309 12308 -12293 0
-12310 12309 12294 0
-12310 -12309 -12294 0
12310 -12309 12294 0
12310 12309 -12294 0
-12311 12310 12295 0
-12311 -12310 -12295 0
12311 -12310 12295 0
12311 12310 -12295 0
-12312 12311 12296 0
-12312 -12311 -12296 0
12312 -12311 12296 0
12312 12311 -12296 0
-12313 12312 12297 0
-12313 -12312 -12297 0
12313 -12312 12297 0
12313 12312 -12297 0
-12314 12313 12298 0
-12314 -12313 -12298 0
12314 -12313 12298 0
12314 12313 -12298 0
-12314 0
-12315 12223 0
-12315 38 0
12315 -12223 -38 0
-12316 12225 0
-12316 43 0
12316 -12225 -43 0
-12317 12227 0
-12317 86 0
12317 -12227 -86 0
-12318 12229 0
-12318 91 0
12318 -12229 -91 0
-12319 12231 0
-12319 134 0
12319 -12231 -134 0
-12320 12233 0
-12320 144 0
12320 -12233 -144 0
-12321 12235 0
-12321 182 0
12321 -12235 -182 0
-12322 12315 12315 0
-12322 -12315 -12315 0
12322 -12315 12315 0
12322 12315 -12315 0
-12323 12322 12316 0
-12323 -12322 -12316 0
12323 -12322 12316 0
12323 12322 -12316 0
-12324 12323 12315 0
-12324 -12323 -12315 0
12324 -12323 12315 0
12324 12323 -12315 0
-12325 12324 12315 0
-12325 -12324 -12315 0
12325 -12324 12315 0
12325 12324 -12315 0
-12326 12325 12316 0
-12326 -12325 -12316 0
12326 -12325 12316 0
12326 12325 -12316 0
-12327 12326 12317 0
-12327 -12326 -12317 0
12327 -12326 12317 0
12327 12326 -12317 0
-12328 12327 12317 0
-12328 -12327 -12317 0
12328 -12327 12317 0
12328 12327 -12317 0
-12329 12328 12318 0
-12329 -12328 -12318 0
12329 -12328 12318 0
12329 12328 -12318 0
-12330 12329 12317 0
-12330 -12329 -12317 0
12330 -12329 12317 0
12330 12329 -12317 0
-12331 12330 12317 0
-12331 -12330 -12317 0
12331 -12330 12317 0
12331 12330 -12317 0
-12332 12331 12318 0
-12332 -12331 -12318 0
12332 -12331 12318 0
12332 12331 -12318 0
-12333 12332 12319 0
-12333 -12332 -12319 0
12333 -12332 12319 0
12333 12332 -12319 0
-12334 12333 12320 0
-12334 -12333 -12320 0
12334 -12333 12320 0
12334 12333 -12320 0
-12335 12334 12319 0
-12335 -12334 -12319 0
12335 -12334 12319 0
12335 12334 -12319 0
-12336 12335 12320 0
-12336 -12335 -12320 0
12336 -12335 12320 0
12336 12335 -12320 0
-12337 12336 12321 0
-12337 -12336 -12321 0
12337 -12336 12321 0
12337 12336 -12321 0
-12337 0
-12338 12223 0
-12338 39 0
12338 -12223 -39 0
-12339 12223 0
-12339 40 0
12339 -12223 -40 0
-12340 12225 0
-12340 44 0
12340 -12225 -44 0
-12341 12223 0
-12341 42 0
12341 -12223 -42 0
-12342 12223 0
-12342 46 0
12342 -12223 -46 0
-12343 12225 0
-12343 47 0
12343 -12225 -47 0
-12344 12227 0
-12344 87 0
12344 -12227 -87 0
-12345 12227 0
-12345 88 0
12345 -12227 -88 0
-12346 12229 0
-12346 92 0
12346 -12229 -92 0
-12347 12227 0
-12347 90 0
12347 -12227 -90 0
-12348 12227 0
-12348 94 0
12348 -12227 -94 0
-12349 12229 0
-12349 95 0
12349 -12229 -95 0
-12350 12231 0
-12350 135 0
12350 -12231 -135 0
-12351 12233 0
-12351 143 0
12351 -12233 -143 0
-12352 12231 0
-12352 138 0
12352 -12231 -138 0
-12353 12233 0
-12353 140 0
12353 -12233 -140 0
-12354 12235 0
-12354 183 0
12354 -12235 -183 0
-12355 12338 12339 0
-12355 -12338 -12339 0
12355 -12338 12339 0
12355 12338 -12339 0
-12356 12355 12340 0
-12356 -12355 -12340 0
12356 -12355 12340 0
12356 12355 -12340 0
-12357 12356 12341 0
-12357 -12356 -12341 0
12357 -12356 12341 0
12357 12356 -12341 0
-12358 12357 12342 0
-12358 -12357 -12342 0
12358 -12357 12342 0
12358 12357 -12342 0
-12359 12358 12343 0
-12359 -12358 -12343 0
12359 -12358 12343 0
12359 12358 -12343 0
-12360 12359 12344 0
-12360 -12359 -12344 0
12360 -12359 12344 0
12360 12359 -12344 0
-12361 12360 12345 0
-12361 -12360 -12345 0
12361 -12360 12345 0
12361 12360 -12345 0
-12362 12361 12346 0
-12362 -12361 -12346 0
12362 -12361 12346 0
12362 12361 -12346 0
-12363 12362 12347 0
-12363 -12362 -12347 0
12363 -12362 12347 0
12363 12362 -12347 0
-12364 12363 12348 0
-12364 -12363 -12348 0
12364 -12363 12348 0
12364 12363 -12348 0
-12365 12364 12349 0
-12365 -12364 -12349 0
12365 -12364 12349 0
12365 12364 -12349 0
-12366 12365 12350 0
-12366 -12365 -12350 0
12366 -12365 12350 0
12366 12365 -12350 0
-12367 12366 12351 0
-12367 -12366 -12351 0
12367 -12366 12351 0
12367 12366 -12351 0
-12368 12367 12352 0
-12368 -12367 -12352 0
12368 -12367 12352 0
12368 12367 -12352 0
-12369 12368 12353 0
-12369 -12368 -12353 0
12369 -12368 12353 0
12369 12368 -12353 0
-12370 12369 12354 0
-12370 -12369 -12354 0
12370 -12369 12354 0
12370 12369 -12354 0
-12370 0
-12371 12223 0
-12371 43 0
12371 -12223 -43 0
-12372 12223 0
-12372 48 0
12372 -12223 -48 0
-12373 12225 0
-12373 48 0
12373 -12225 -48 0
-12374 12227 0
-12374 91 0
12374 -12227 -91 0
-12375 12227 0
-12375 96 0
12375 -12227 -96 0
-12376 12229 0
-12376 96 0
12376 -12229 -96 0
-12377 12231 0
-12377 139 0
12377 -12231 -139 0
-12378 12233 0
-12378 139 0
12378 -12233 -139 0
-12379 12235 0
-12379 187 0
12379 -12235 -187 0
-12380 12371 12372 0
-12380 -12371 -12372 0
12380 -12371 12372 0
12380 12371 -12372 0
-12381 12380 12373 0
-12381 -12380 -12373 0
12381 -12380 12373 0
12381 12380 -12373 0
-12382 12381 12371 0
-12382 -12381 -12371 0
12382 -12381 12371 0
12382 12381 -12371 0
-12383 12382 12372 0
-12383 -12382 -12372 0
12383 -12382 12372 0
12383 12382 -12372 0
-12384 12383 12373 0
-12384 -12383 -12373 0
12384 -12383 12373 0
12384 12383 -12373 0
-12385 12384 12374 0
-12385 -12384 -12374 0
12385 -12384 12374 0
12385 12384 -12374 0
-12386 12385 12375 0
-12386 -12385 -12375 0
12386 -12385 12375 0
12386 12385 -12375 0
-12387 12386 12376 0
-12387 -12386 -12376 0
12387 -12386 12376 0
12387 12386 -12376 0
-12388 12387 12374 0
-12388 -12387 -12374 0
12388 -12387 12374 0
12388 12387 -12374 0
-12389 12388 12375 0
-12389 -12388 -12375 0
12389 -12388 12375 0
12389 12388 -12375 0
-12390 12389 12376 0
-12390 -12389 -12376 0
12390 -12389 12376 0
12390 12389 -12376 0
-12391 12390 12377 0
-12391 -12390 -12377 0
12391 -12390 12377 0
12391 12390 -12377 0
-12392 12391 12378 0
-12392 -12391 -12378 0
12392 -12391 12378 0
12392 12391 -12378 0
-12393 12392 12377 0
-12393 -12392 -12377 0
12393 -12392 12377 0
12393 12392 -12377 0
-12394 12393 12378 0
-12394 -12393 -12378 0
12394 -12393 12378 0
12394 12393 -12378 0
-12395 12394 12379 0
-12395 -12394 -12379 0
12395 -12394 12379 0
12395 12394 -12379 0
-12395 0
-12396 12223 0
-12396 44 0
12396 -12223 -44 0
-12397 12223 0
-12397 47 0
12397 -12223 -47 0
-12398 12225 0
-12398 46 0
12398 -12225 -46 0
-12399 12225 0
-12399 40 0
12399 -12225 -40 0
-12400 12227 0
-12400 92 0
12400 -12227 -92 0
-12401 12227 0
-12401 95 0
12401 -12227 -95 0
-12402 12229 0
-12402 94 0
12402 -12229 -94 0
-12403 12229 0
-12403 88 0
12403 -12229 -88 0
-12404 12231 0
-12404 140 0
12404 -12231 -140 0
-12405 12233 0
-12405 138 0
12405 -12233 -138 0
-12406 12231 0
-12406 143 0
12406 -12231 -143 0
-12407 12233 0
-12407 135 0
12407 -12233 -135 0
-12408 12235 0
-12408 188 0
12408 -12235 -188 0
-12409 12396 12397 0
-12409 -12396 -12397 0
12409 -12396 12397 0
12409 12396 -12397 0
-12410 12409 12398 0
-12410 -12409 -12398 0
12410 -12409 12398 0
12410 12409 -12398 0
-12411 12410 12397 0
-12411 -12410 -12397 0
12411 -12410 12397 0
12411 12410 -12397 0
-12412 12411 12396 0
-12412 -12411 -12396 0
12412 -12411 12396 0
12412 12411 -12396 0
-12413 12412 12399 0
-12413 -12412 -12399 0
12413 -12412 12399 0
12413 12412 -12399 0
-12414 12413 12400 0
-12414 -12413 -12400 0
12414 -12413 12400 0
12414 12413 -12400 0
-12415 12414 12401 0
-12415 -12414 -12401 0
12415 -12414 12401 0
12415 12414 -12401 0
-12416 12415 12402 0
-12416 -12415 -12402 0
12416 -12415 12402 0
12416 12415 -12402 0
-12417 12416 12401 0
-12417 -12416 -12401 0
12417 -12416 12401 0
12417 12416 -12401 0
-12418 12417 12400 0
-12418 -12417 -12400 0
12418 -12417 12400 0
12418 12417 -12400 0
-12419 12418 12403 0
-12419 -12418 -12403 0
12419 -12418 12403 0
12419 12418 -12403 0
-12420 12419 12404 0
-12420 -12419 -12404 0
12420 -12419 12404 0
12420 12419 -12404 0
-12421 12420 12405 0
-12421 -12420 -12405 0
12421 -12420 12405 0
12421 12420 -12405 0
-12422 12421 12406 0
-12422 -12421 -12406 0
12422 -12421 12406 0
12422 12421 -12406 0
-12423 12422 12407 0
-12423 -12422 -12407 0
12423 -12422 12407 0
12423 12422 -12407 0
-12424 12423 12408 0
-12424 -12423 -12408 0
12424 -12423 12408 0
12424 12423 -12408 0
-12424 0
-12425 8 0
-12425 31 0
12425 -8 -31 0
-12426 12425 0
-12426 33 0
12426 -12425 -33 0
-12427 8 0
-12427 32 0
12427 -8 -32 0
-12428 12427 0
-12428 33 0
12428 -12427 -33 0
-12429 12 0
-12429 32 0
12429 -12 -32 0
-12430 12429 0
-12430 33 0
12430 -12429 -33 0
-12431 30 0
-12431 12 0
12431 -30 -12 0
-12432 12431 0
-12432 33 0
12432 -12431 -33 0
-12433 30 0
-12433 16 0
12433 -30 -16 0
-12434 12433 0
-12434 33 0
12434 -12433 -33 0
-12435 31 0
-12435 16 0
12435 -31 -16 0
-12436 12435 0
-12436 33 0
12436 -12435 -33 0
-12437 56 0
-12437 79 0
12437 -56 -79 0
-12438 12437 0
-12438 81 0
12438 -12437 -81 0
-12439 56 0
-12439 80 0
12439 -56 -80 0
-12440 12439 0
-12440 81 0
12440 -12439 -81 0
-12441 60 0
-12441 80 0
12441 -60 -80 0
-12442 12441 0
-12442 81 0
12442 -12441 -81 0
-12443 78 0
-12443 60 0
12443 -78 -60 0
-12444 12443 0
-12444 81 0
12444 -12443 -81 0
-12445 78 0
-12445 64 0
12445 -78 -64 0
-12446 12445 0
-12446 81 0
12446 -12445 -81 0
-12447 79 0
-12447 64 0
12447 -79 -64 0
-12448 12447 0
-12448 81 0
12448 -12447 -81 0
-12449 104 0
-12449 127 0
12449 -104 -127 0
-12450 12449 0
-12450 129 0
12450 -12449 -129 0
-12451 112 0
-12451 127 0
12451 -112 -127 0
-12452 12451 0
-12452 129 0
12452 -12451 -129 0
-12453 126 0
-12453 108 0
12453 -126 -108 0
-12454 12453 0
-12454 129 0
12454 -12453 -129 0
-12455 128 0
-12455 108 0
12455 -128 -108 0
-12456 12455 0
-12456 129 0
12456 -12455 -129 0
-12457 152 0
-12457 175 0
12457 -152 -175 0
-12458 12457 0
-12458 177 0
12458 -12457 -177 0
-12459 12426 12428 0
-12459 -12426 -12428 0
12459 -12426 12428 0
12459 12426 -12428 0
-12460 12459 12430 0
-12460 -12459 -12430 0
12460 -12459 12430 0
12460 12459 -12430 0
-12461 12460 12432 0
-12461 -12460 -12432 0
12461 -12460 12432 0
12461 12460 -12432 0
-12462 12461 12434 0
-12462 -12461 -12434 0
12462 -12461 12434 0
12462 12461 -12434 0
-12463 12462 12436 0
-12463 -12462 -12436 0
12463 -12462 12436 0
12463 12462 -12436 0
-12464 12463 12438 0
-12464 -12463 -12438 0
12464 -12463 12438 0
12464 12463 -12438 0
-12465 12464 12440 0
-12465 -12464 -12440 0
12465 -12464 12440 0
12465 12464 -12440 0
-12466 12465 12442 0
-12466 -12465 -12442 0
12466 -12465 12442 0
12466 12465 -12442 0
-12467 12466 12444 0
-12467 -12466 -12444 0
12467 -12466 12444 0
12467 12466 -12444 0
-12468 12467 12446 0
-12468 -12467 -12446 0
12468 -12467 12446 0
12468 12467 -12446 0
-12469 12468 12448 0
-12469 -12468 -12448 0
12469 -12468 12448 0
12469 12468 -12448 0
-12470 12469 12450 0
-12470 -12469 -12450 0
12470 -12469 12450 0
12470 12469 -12450 0
-12471 12470 12452 0
-12471 -12470 -12452 0
12471 -12470 12452 0
12471 12470 -12452 0
-12472 12471 12454 0
-12472 -12471 -12454 0
12472 -12471 12454 0
12472 12471 -12454 0
-12473 12472 12456 0
-12473 -12472 -12456 0
12473 -12472 12456 0
12473 12472 -12456 0
-12474 12473 12458 0
-12474 -12473 -12458 0
12474 -12473 12458 0
12474 12473 -12458 0
-12474 0
-12475 12425 0
-12475 34 0
12475 -12425 -34 0
-12476 12427 0
-12476 34 0
12476 -12427 -34 0
-12477 12429 0
-12477 35 0
12477 -12429 -35 0
-12478 12431 0
-12478 37 0
12478 -12431 -37 0
-12479 12433 0
-12479 37 0
12479 -12433 -37 0
-12480 12435 0
-12480 41 0
12480 -12435 -41 0
-12481 12437 0
-12481 82 0
12481 -12437 -82 0
-12482 12439 0
-12482 82 0
12482 -12439 -82 0
-12483 12441 0
-12483 83 0
12483 -12441 -83 0
-12484 12443 0
-12484 85 0
12484 -12443 -85 0
-12485 12445 0
-12485 85 0
12485 -12445 -85 0
-12486 12447 0
-12486 89 0
12486 -12447 -89 0
-12487 12449 0
-12487 130 0
12487 -12449 -130 0
-12488 12451 0
-12488 132 0
12488 -12451 -132 0
-12489 12453 0
-12489 133 0
12489 -12453 -133 0
-12490 12455 0
-12490 141 0
12490 -12455 -141 0
-12491 12457 0
-12491 178 0
12491 -12457 -178 0
-12492 12475 12476 0
-12492 -12475 -12476 0
12492 -12475 12476 0
12492 12475 -12476 0
-12493 12492 12477 0
-12493 -12492 -12477 0
12493 -12492 12477 0
12493 12492 -12477 0
-12494 12493 12478 0
-12494 -12493 -12478 0
12494 -12493 12478 0
12494 12493 -12478 0
-12495 12494 12479 0
-12495 -12494 -12479 0
12495 -12494 12479 0
12495 12494 -12479 0
-12496 12495 12480 0
-12496 -12495 -12480 0
12496 -12495 12480 0
12496 12495 -12480 0
-12497 12496 12481 0
-12497 -12496 -12481 0
12497 -12496 12481 0
12497 12496 -12481 0
-12498 12497 12482 0
-12498 -12497 -12482 0
12498 -12497 12482 0
12498 12497 -12482 0
-12499 12498 12483 0
-12499 -12498 -12483 0
12499 -12498 12483 0
12499 12498 -12483 0
-12500 12499 12484 0
-12500 -12499 -12484 0
12500 -12499 12484 0
12500 12499 -12484 0
-12501 12500 12485 0
-12501 -12500 -12485 0
12501 -12500 12485 0
12501 12500 -12485 0
-12502 12501 12486 0
-12502 -12501 -12486 0
12502 -12501 12486 0
12502 12501 -12486 0
-12503 12502 12487 0
-12503 -12502 -12487 0
12503 -12502 12487 0
12503 12502 -12487 0
-12504 12503 12488 0
-12504 -12503 -12488 0
12504 -12503 12488 0
12504 12503 -12488 0
-12505 12504 12489 0
-12505 -12504 -12489 0
12505 -12504 12489 0
12505 12504 -12489 0
-12506 12505 12490 0
-12506 -12505 -12490 0
12506 -12505 12490 0
12506 12505 -12490 0
-12507 12506 12491 0
-12507 -12506 -12491 0
12507 -12506 12491 0
12507 12506 -12491 0
12507 0
-12508 12425 0
-12508 35 0
12508 -12425 -35 0
-12509 12427 0
-12509 36 0
12509 -12427 -36 0
-12510 12429 0
-12510 36 0
12510 -12429 -36 0
-12511 12431 0
-12511 41 0
12511 -12431 -41 0
-12512 12433 0
-12512 45 0
12512 -12433 -45 0
-12513 12435 0
-12513 45 0
12513 -12435 -45 0
-12514 12437 0
-12514 83 0
12514 -12437 -83 0
-12515 12439 0
-12515 84 0
12515 -12439 -84 0
-12516 12441 0
-12516 84 0
12516 -12441 -84 0
-12517 12443 0
-12517 89 0
12517 -12443 -89 0
-12518 12445 0
-12518 93 0
12518 -12445 -93 0
-12519 12447 0
-12519 93 0
12519 -12447 -93 0
-12520 12449 0
-12520 131 0
12520 -12449 -131 0
-12521 12451 0
-12521 131 0
12521 -12451 -131 0
-12522 12453 0
-12522 137 0
12522 -12453 -137 0
-12523 12455 0
-12523 137 0
12523 -12455 -137 0
-12524 12457 0
-12524 179 0
12524 -12457 -179 0
-12525 12508 12509 0
-12525 -12508 -12509 0
12525 -12508 12509 0
12525 12508 -12509 0
-12526 12525 12510 0
-12526 -12525 -12510 0
12526 -12525 12510 0
12526 12525 -12510 0
-12527 12526 12511 0
-12527 -12526 -12511 0
12527 -12526 12511 0
12527 12526 -12511 0
-12528 12527 12512 0
-12528 -12527 -12512 0
12528 -12527 12512 0
12528 12527 -12512 0
-12529 12528 12513 0
-12529 -12528 -12513 0
12529 -12528 12513 0
12529 12528 -12513 0
-12530 12529 12514 0
-12530 -12529 -12514 0
12530 -12529 12514 0
12530 12529 -12514 0
-12531 12530 12515 0
-12531 -12530 -12515 0
12531 -12530 12515 0
12531 12530 -12515 0
-12532 12531 12516 0
-12532 -12531 -12516 0
12532 -12531 12516 0
12532 12531 -12516 0
-12533 12532 12517 0
-12533 -12532 -12517 0
12533 -12532 12517 0
12533 12532 -12517 0
-12534 12533 12518 0
-12534 -12533 -12518 0
12534 -12533 12518 0
12534 12533 -12518 0
-12535 12534 12519 0
-12535 -12534 -12519 0
12535 -12534 12519 0
12535 12534 -12519 0
-12536 12535 12520 0
-12536 -12535 -12520 0
12536 -12535 12520 0
12536 12535 -12520 0
-12537 12536 12521 0
-12537 -12536 -12521 0
12537 -12536 12521 0
12537 12536 -12521 0
-12538 12537 12522 0
-12538 -12537 -12522 0
12538 -12537 12522 0
12538 12537 -12522 0
-12539 12538 12523 0
-12539 -12538 -12523 0
12539 -12538 12523 0
12539 12538 -12523 0
-12540 12539 12524 0
-12540 -12539 -12524 0
12540 -12539 12524 0
12540 12539 -12524 0
-12540 0
-12541 12425 0
-12541 36 0
12541 -12425 -36 0
-12542 12427 0
-12542 35 0
12542 -12427 -35 0
-12543 12429 0
-12543 34 0
12543 -12429 -34 0
-12544 12431 0
-12544 45 0
12544 -12431 -45 0
-12545 12433 0
-12545 41 0
12545 -12433 -41 0
-12546 12435 0
-12546 37 0
12546 -12435 -37 0
-12547 12437 0
-12547 84 0
12547 -12437 -84 0
-12548 12439 0
-12548 83 0
12548 -12439 -83 0
-12549 12441 0
-12549 82 0
12549 -12441 -82 0
-12550 12443 0
-12550 93 0
12550 -12443 -93 0
-12551 12445 0
-12551 89 0
12551 -12445 -89 0
-12552 12447 0
-12552 85 0
12552 -12447 -85 0
-12553 12449 0
-12553 132 0
12553 -12449 -132 0
-12554 12451 0
-12554 130 0
12554 -12451 -130 0
-12555 12453 0
-12555 141 0
12555 -12453 -141 0
-12556 12455 0
-12556 133 0
12556 -12455 -133 0
-12557 12457 0
-12557 180 0
12557 -12457 -180 0
-12558 12541 12542 0
-12558 -12541 -12542 0
12558 -12541 12542 0
12558 12541 -12542 0
-12559 12558 12543 0
-12559 -12558 -12543 0
12559 -12558 12543 0
12559 12558 -12543 0
-12560 12559 12544 0
-12560 -12559 -12544 0
12560 -12559 12544 0
12560 12559 -12544 0
-12561 12560 12545 0
-12561 -12560 -12545 0
12561 -12560 12545 0
12561 12560 -12545 0
-12562 12561 12546 0
-12562 -12561 -12546 0
12562 -12561 12546 0
12562 12561 -12546 0
-12563 12562 12547 0
-12563 -12562 -12547 0
12563 -12562 12547 0
12563 12562 -12547 0
-12564 12563 12548 0
-12564 -12563 -12548 0
12564 -12563 12548 0
12564 12563 -12548 0
-12565 12564 12549 0
-12565 -12564 -12549 0
12565 -12564 12549 0
12565 12564 -12549 0
-12566 12565 12550 0
-12566 -12565 -12550 0
12566 -12565 12550 0
12566 12565 -12550 0
-12567 12566 12551 0
-12567 -12566 -12551 0
12567 -12566 12551 0
12567 12566 -12551 0
-12568 12567 12552 0
-12568 -12567 -12552 0
12568 -12567 12552 0
12568 12567 -12552 0
-12569 12568 12553 0
-12569 -12568 -12553 0
12569 -12568 12553 0
12569 12568 -12553 0
-12570 12569 12554 0
-12570 -12569 -12554 0
12570 -12569 12554 0
12570 12569 -12554 0
-12571 12570 12555 0
-12571 -12570 -12555 0
12571 -12570 12555 0
12571 12570 -12555 0
-12572 12571 12556 0
-12572 -12571 -12556 0
12572 -12571 12556 0
12572 12571 -12556 0
-12573 12572 12557 0
-12573 -12572 -12557 0
12573 -12572 12557 0
12573 12572 -12557 0
-12573 0
-12574 12425 0
-12574 38 0
12574 -12425 -38 0
-12575 12427 0
-12575 38 0
12575 -12427 -38 0
-12576 12429 0
-12576 43 0
12576 -12429 -43 0
-12577 12431 0
-12577 38 0
12577 -12431 -38 0
-12578 12433 0
-12578 38 0
12578 -12433 -38 0
-12579 12435 0
-12579 43 0
12579 -12435 -43 0
-12580 12437 0
-12580 86 0
12580 -12437 -86 0
-12581 12439 0
-12581 86 0
12581 -12439 -86 0
-12582 12441 0
-12582 91 0
12582 -12441 -91 0
-12583 12443 0
-12583 86 0
12583 -12443 -86 0
-12584 12445 0
-12584 86 0
12584 -12445 -86 0
-12585 12447 0
-12585 91 0
12585 -12447 -91 0
-12586 12449 0
-12586 134 0
12586 -12449 -134 0
-12587 12451 0
-12587 144 0
12587 -12451 -144 0
-12588 12453 0
-12588 134 0
12588 -12453 -134 0
-12589 12455 0
-12589 144 0
12589 -12455 -144 0
-12590 12457 0
-12590 182 0
12590 -12457 -182 0
-12591 12574 12575 0
-12591 -12574 -12575 0
12591 -12574 12575 0
12591 12574 -12575 0
-12592 12591 12576 0
-12592 -12591 -12576 0
12592 -12591 12576 0
12592 12591 -12576 0
-12593 12592 12577 0
-12593 -12592 -12577 0
12593 -12592 12577 0
12593 12592 -12577 0
-12594 12593 12578 0
-12594 -12593 -12578 0
12594 -12593 12578 0
12594 12593 -12578 0
-12595 12594 12579 0
-12595 -12594 -12579 0
12595 -12594 12579 0
12595 12594 -12579 0
-12596 12595 12580 0
-12596 -12595 -12580 0
12596 -12595 12580 0
12596 12595 -12580 0
-12597 12596 12581 0
-12597 -12596 -12581 0
12597 -12596 12581 0
12597 12596 -12581 0
-12598 12597 12582 0
-12598 -12597 -12582 0
12598 -12597 12582 0
12598 12597 -12582 0
-12599 12598 12583 0
-12599 -12598 -12583 0
12599 -12598 12583 0
12599 12598 -12583 0
-12600 12599 12584 0
-12600 -12599 -12584 0
12600 -12599 12584 0
12600 12599 -12584 0
-12601 12600 12585 0
-12601 -12600 -12585 0
12601 -12600 12585 0
12601 12600 -12585 0
-12602 12601 12586 0
-12602 -12601 -12586 0
12602 -12601 12586 0
12602 12601 -12586 0
-12603 12602 12587 0
-12603 -12602 -12587 0
12603 -12602 12587 0
12603 12602 -12587 0
-12604 12603 12588 0
-12604 -12603 -12588 0
12604 -12603 12588 0
12604 12603 -12588 0
-12605 12604 12589 0
-12605 -12604 -12589 0
12605 -12604 12589 0
12605 12604 -12589 0
-12606 12605 12590 0
-12606 -12605 -12590 0
12606 -12605 12590 0
12606 12605 -12590 0
12606 0
-12607 12425 0
-12607 39 0
12607 -12425 -39 0
-12608 12427 0
-12608 40 0
12608 -12427 -40 0
-12609 12429 0
-12609 44 0
12609 -12429 -44 0
-12610 12431 0
-12610 42 0
12610 -12431 -42 0
-12611 12433 0
-12611 46 0
12611 -12433 -46 0
-12612 12435 0
-12612 47 0
12612 -12435 -47 0
-12613 12437 0
-12613 87 0
12613 -12437 -87 0
-12614 12439 0
-12614 88 0
12614 -12439 -88 0
-12615 12441 0
-12615 92 0
12615 -12441 -92 0
-12616 12443 0
-12616 90 0
12616 -12443 -90 0
-12617 12445 0
-12617 94 0
12617 -12445 -94 0
-12618 12447 0
-12618 95 0
12618 -12447 -95 0
-12619 12449 0
-12619 135 0
12619 -12449 -135 0
-12620 12451 0
-12620 143 0
12620 -12451 -143 0
-12621 12453 0
-12621 138 0
12621 -12453 -138 0
-12622 12455 0
-12622 140 0
12622 -12455 -140 0
-12623 12457 0
-12623 183 0
12623 -12457 -183 0
-12624 12607 12608 0
-12624 -12607 -12608 0
12624 -12607 12608 0
12624 12607 -12608 0
-12625 12624 12609 0
-12625 -12624 -12609 0
12625 -12624 12609 0
12625 12624 -12609 0
-12626 12625 12610 0
-12626 -12625 -12610 0
12626 -12625 12610 0
12626 12625 -12610 0
-12627 12626 12611 0
-12627 -12626 -12611 0
12627 -12626 12611 0
12627 12626 -12611 0
-12628 12627 12612 0
-12628 -12627 -12612 0
12628 -12627 12612 0
12628 12627 -12612 0
-12629 12628 12613 0
-12629 -12628 -12613 0
12629 -12628 12613 0
12629 12628 -12613 0
-12630 12629 12614 0
-12630 -12629 -12614 0
12630 -12629 12614 0
12630 12629 -12614 0
-12631 12630 12615 0
-12631 -12630 -12615 0
12631 -12630 12615 0
12631 12630 -12615 0
-12632 12631 12616 0
-12632 -12631 -12616 0
12632 -12631 12616 0
12632 12631 -12616 0
-12633 12632 12617 0
-12633 -12632 -12617 0
12633 -12632 12617 0
12633 12632 -12617 0
-12634 12633 12618 0
-12634 -12633 -12618 0
12634 -12633 12618 0
12634 12633 -12618 0
-12635 12634 12619 0
-12635 -12634 -12619 0
12635 -12634 12619 0
12635 12634 -12619 0
-12636 12635 12620 0
-12636 -12635 -12620 0
12636 -12635 12620 0
12636 12635 -12620 0
-12637 12636 12621 0
-12637 -12636 -12621 0
12637 -12636 12621 0
12637 12636 -12621 0
-12638 12637 12622 0
-12638 -12637 -12622 0
12638 -12637 12622 0
12638 12637 -12622 0
-12639 12638 12623 0
-12639 -12638 -12623 0
12639 -12638 12623 0
12639 12638 -12623 0
-12639 0
-12640 12425 0
-12640 40 0
12640 -12425 -40 0
-12641 12427 0
-12641 39 0
12641 -12427 -39 0
-12642 12429 0
-12642 42 0
12642 -12429 -42 0
-12643 12431 0
-12643 46 0
12643 -12431 -46 0
-12644 12433 0
-12644 42 0
12644 -12433 -42 0
-12645 12435 0
-12645 39 0
12645 -12435 -39 0
-12646 12437 0
-12646 88 0
12646 -12437 -88 0
-12647 12439 0
-12647 87 0
12647 -12439 -87 0
-12648 12441 0
-12648 90 0
12648 -12441 -90 0
-12649 12443 0
-12649 94 0
12649 -12443 -94 0
-12650 12445 0
-12650 90 0
12650 -12445 -90 0
-12651 12447 0
-12651 87 0
12651 -12447 -87 0
-12652 12449 0
-12652 136 0
12652 -12449 -136 0
-12653 12451 0
-12653 142 0
12653 -12451 -142 0
-12654 12453 0
-12654 142 0
12654 -12453 -142 0
-12655 12455 0
-12655 136 0
12655 -12455 -136 0
-12656 12457 0
-12656 184 0
12656 -12457 -184 0
-12657 12640 12641 0
-12657 -12640 -12641 0
12657 -12640 12641 0
12657 12640 -12641 0
-12658 12657 12642 0
-12658 -12657 -12642 0
12658 -12657 12642 0
12658 12657 -12642 0
-12659 12658 12643 0
-12659 -12658 -12643 0
12659 -12658 12643 0
12659 12658 -12643 0
-12660 12659 12644 0
-12660 -12659 -12644 0
12660 -12659 12644 0
12660 12659 -12644 0
-12661 12660 12645 0
-12661 -12660 -12645 0
12661 -12660 12645 0
12661 12660 -12645 0
-12662 12661 12646 0
-12662 -12661 -12646 0
12662 -12661 12646 0
12662 12661 -12646 0
-12663 12662 12647 0
-12663 -12662 -12647 0
12663 -12662 12647 0
12663 12662 -12647 0
-12664 12663 12648 0
-12664 -12663 -12648 0
12664 -12663 12648 0
12664 12663 -12648 0
-12665 12664 12649 0
-12665 -12664 -12649 0
12665 -12664 12649 0
12665 12664 -12649 0
-12666 12665 12650 0
-12666 -12665 -12650 0
12666 -12665 12650 0
12666 12665 -12650 0
-12667 12666 12651 0
-12667 -12666 -12651 0
12667 -12666 12651 0
12667 12666 -12651 0
-12668 12667 12652 0
-12668 -12667 -12652 0
12668 -12667 12652 0
12668 12667 -12652 0
-12669 12668 12653 0
-12669 -12668 -12653 0
12669 -12668 12653 0
12669 12668 -12653 0
-12670 12669 12654 0
-12670 -12669 -12654 0
12670 -12669 12654 0
12670 12669 -12654 0
-12671 12670 12655 0
-12671 -12670 -12655 0
12671 -12670 12655 0
12671 12670 -12655 0
-12672 12671 12656 0
-12672 -12671 -12656 0
12672 -12671 12656 0
12672 12671 -12656 0
-12672 0
-12673 12425 0
-12673 42 0
12673 -12425 -42 0
-12674 12427 0
-12674 46 0
12674 -12427 -46 0
-12675 12429 0
-12675 47 0
12675 -12429 -47 0
-12676 12431 0
-12676 39 0
12676 -12431 -39 0
-12677 12433 0
-12677 40 0
12677 -12433 -40 0
-12678 12435 0
-12678 44 0
12678 -12435 -44 0
-12679 12437 0
-12679 90 0
12679 -12437 -90 0
-12680 12439 0
-12680 94 0
12680 -12439 -94 0
-12681 12441 0
-12681 95 0
12681 -12441 -95 0
-12682 12443 0
-12682 87 0
12682 -12443 -87 0
-12683 12445 0
-12683 88 0
12683 -12445 -88 0
-12684 12447 0
-12684 92 0
12684 -12447 -92 0
-12685 12449 0
-12685 138 0
12685 -12449 -138 0
-12686 12451 0
-12686 140 0
12686 -12451 -140 0
-12687 12453 0
-12687 135 0
12687 -12453 -135 0
-12688 12455 0
-12688 143 0
12688 -12455 -143 0
-12689 12457 0
-12689 186 0
12689 -12457 -186 0
-12690 12673 12674 0
-12690 -12673 -12674 0
12690 -12673 12674 0
12690 12673 -12674 0
-12691 12690 12675 0
-12691 -12690 -12675 0
12691 -12690 12675 0
12691 12690 -12675 0
-12692 12691 12676 0
-12692 -12691 -12676 0
12692 -12691 12676 0
12692 12691 -12676 0
-12693 12692 12677 0
-12693 -12692 -12677 0
12693 -12692 12677 0
12693 12692 -12677 0
-12694 12693 12678 0
-12694 -12693 -12678 0
12694 -12693 12678 0
12694 12693 -12678 0
-12695 12694 12679 0
-12695 -12694 -12679 0
12695 -12694 12679 0
12695 12694 -12679 0
-12696 12695 12680 0
-12696 -12695 -12680 0
12696 -12695 12680 0
12696 12695 -12680 0
-12697 12696 12681 0
-12697 -12696 -12681 0
12697 -12696 12681 0
12697 12696 -12681 0
-12698 12697 12682 0
-12698 -12697 -12682 0
12698 -12697 12682 0
12698 12697 -12682 0
-12699 12698 12683 0
-12699 -12698 -12683 0
12699 -12698 12683 0
12699 12698 -12683 0
-12700 12699 12684 0
-12700 -12699 -12684 0
12700 -12699 12684 0
12700 12699 -12684 0
-12701 12700 12685 0
-12701 -12700 -12685 0
12701 -12700 12685 0
12701 12700 -12685 0
-12702 12701 12686 0
-12702 -12701 -12686 0
12702 -12701 12686 0
12702 12701 -12686 0
-12703 12702 12687 0
-12703 -12702 -12687 0
12703 -12702 12687 0
12703 12702 -12687 0
-12704 12703 12688 0
-12704 -12703 -12688 0
12704 -12703 12688 0
12704 12703 -12688 0
-12705 12704 12689 0
-12705 -12704 -12689 0
12705 -12704 12689 0
12705 12704 -12689 0
-12705 0
-12706 12425 0
-12706 44 0
12706 -12425 -44 0
-12707 12427 0
-12707 47 0
12707 -12427 -47 0
-12708 12429 0
-12708 46 0
12708 -12429 -46 0
-12709 12431 0
-12709 47 0
12709 -12431 -47 0
-12710 12433 0
-12710 44 0
12710 -12433 -44 0
-12711 12435 0
-12711 40 0
12711 -12435 -40 0
-12712 12437 0
-12712 92 0
12712 -12437 -92 0
-12713 12439 0
-12713 95 0
12713 -12439 -95 0
-12714 12441 0
-12714 94 0
12714 -12441 -94 0
-12715 12443 0
-12715 95 0
12715 -12443 -95 0
-12716 12445 0
-12716 92 0
12716 -12445 -92 0
-12717 12447 0
-12717 88 0
12717 -12447 -88 0
-12718 12449 0
-12718 140 0
12718 -12449 -140 0
-12719 12451 0
-12719 138 0
12719 -12451 -138 0
-12720 12453 0
-12720 143 0
12720 -12453 -143 0
-12721 12455 0
-12721 135 0
12721 -12455 -135 0
-12722 12457 0
-12722 188 0
12722 -12457 -188 0
-12723 12706 12707 0
-12723 -12706 -12707 0
12723 -12706 12707 0
12723 12706 -12707 0
-12724 12723 12708 0
-12724 -12723 -12708 0
12724 -12723 12708 0
12724 12723 -12708 0
-12725 12724 12709 0
-12725 -12724 -12709 0
12725 -12724 12709 0
12725 12724 -12709 0
-12726 12725 12710 0
-12726 -12725 -12710 0
12726 -12725 12710 0
12726 12725 -12710 0
-12727 12726 12711 0
-12727 -12726 -12711 0
12727 -12726 12711 0
12727 12726 -12711 0
-12728 12727 12712 0
-12728 -12727 -12712 0
12728 -12727 12712 0
12728 12727 -12712 0
-12729 12728 12713 0
-12729 -12728 -12713 0
12729 -12728 12713 0
12729 12728 -12713 0
-12730 12729 12714 0
-12730 -12729 -12714 0
12730 -12729 12714 0
12730 12729 -12714 0
-12731 12730 12715 0
-12731 -12730 -12715 0
12731 -12730 12715 0
12731 12730 -12715 0
-12732 12731 12716 0
-12732 -12731 -12716 0
12732 -12731 12716 0
12732 12731 -12716 0
-12733 12732 12717 0
-12733 -12732 -12717 0
12733 -12732 12717 0
12733 12732 -12717 0
-12734 12733 12718 0
-12734 -12733 -12718 0
12734 -12733 12718 0
12734 12733 -12718 0
-12735 12734 12719 0
-12735 -12734 -12719 0
12735 -12734 12719 0
12735 12734 -12719 0
-12736 12735 12720 0
-12736 -12735 -12720 0
12736 -12735 12720 0
12736 12735 -12720 0
-12737 12736 12721 0
-12737 -12736 -12721 0
12737 -12736 12721 0
12737 12736 -12721 0
-12738 12737 12722 0
-12738 -12737 -12722 0
12738 -12737 12722 0
12738 12737 -12722 0
12738 0
-12739 12425 0
-12739 48 0
12739 -12425 -48 0
-12740 12427 0
-12740 43 0
12740 -12427 -43 0
-12741 12429 0
-12741 38 0
12741 -12429 -38 0
-12742 12431 0
-12742 48 0
12742 -12431 -48 0
-12743 12433 0
-12743 43 0
12743 -12433 -43 0
-12744 12435 0
-12744 38 0
12744 -12435 -38 0
-12745 12437 0
-12745 96 0
12745 -12437 -96 0
-12746 12439 0
-12746 91 0
12746 -12439 -91 0
-12747 12441 0
-12747 86 0
12747 -12441 -86 0
-12748 12443 0
-12748 96 0
12748 -12443 -96 0
-12749 12445 0
-12749 91 0
12749 -12445 -91 0
-12750 12447 0
-12750 86 0
12750 -12447 -86 0
-12751 12449 0
-12751 144 0
12751 -12449 -144 0
-12752 12451 0
-12752 134 0
12752 -12451 -134 0
-12753 12453 0
-12753 144 0
12753 -12453 -144 0
-12754 12455 0
-12754 134 0
12754 -12455 -134 0
-12755 12457 0
-12755 192 0
12755 -12457 -192 0
-12756 12739 12740 0
-12756 -12739 -12740 0
12756 -12739 12740 0
12756 12739 -12740 0
-12757 12756 12741 0
-12757 -12756 -12741 0
12757 -12756 12741 0
12757 12756 -12741 0
-12758 12757 12742 0
-12758 -12757 -12742 0
12758 -12757 12742 0
12758 12757 -12742 0
-12759 12758 12743 0
-12759 -12758 -12743 0
12759 -12758 12743 0
12759 12758 -12743 0
-12760 12759 12744 0
-12760 -12759 -12744 0
12760 -12759 12744 0
12760 12759 -12744 0
-12761 12760 12745 0
-12761 -12760 -12745 0
12761 -12760 12745 0
12761 12760 -12745 0
-12762 12761 12746 0
-12762 -12761 -12746 0
12762 -12761 12746 0
12762 12761 -12746 0
-12763 12762 12747 0
-12763 -12762 -12747 0
12763 -12762 12747 0
12763 12762 -12747 0
-12764 12763 12748 0
-12764 -12763 -12748 0
12764 -12763 12748 0
12764 12763 -12748 0
-12765 12764 12749 0
-12765 -12764 -12749 0
12765 -12764 12749 0
12765 12764 -12749 0
-12766 12765 12750 0
-12766 -12765 -12750 0
12766 -12765 12750 0
12766 12765 -12750 0
-12767 12766 12751 0
-12767 -12766 -12751 0
12767 -12766 12751 0
12767 12766 -12751 0
-12768 12767 12752 0
-12768 -12767 -12752 0
12768 -12767 12752 0
12768 12767 -12752 0
-12769 12768 12753 0
-12769 -12768 -12753 0
12769 -12768 12753 0
12769 12768 -12753 0
-12770 12769 12754 0
-12770 -12769 -12754 0
12770 -12769 12754 0
12770 12769 -12754 0
-12771 12770 12755 0
-12771 -12770 -12755 0
12771 -12770 12755 0
12771 12770 -12755 0
-12771 0
